 vasp.5.4.4.18Apr17-6-g9f103f2a35 (build Nov 03 2018 10:20:46) complex

 executed on             LinuxIFC date 2018.11.14  11:54:22

 INCAR:
 POTCAR:    PAW_PBE Kr_GW 21Aug2013

 POTCAR:    PAW_PBE Kr_GW 21Aug2013
   VRHFIN =Kr: s2p6

   TITEL  = PAW_PBE Kr_GW 21Aug2013
   POMASS =   83.800; ZVAL   =    8.000    mass and valenz
   ENMAX  =  252.232; ENMIN  =  189.174 eV

  PAW_PBE Kr_GW 21Aug2013               :

 POSCAR: Kr_FCC
  positions in direct lattice
  velocities in cartesian coordinates
 exchange correlation table for  LEXCH =        8
   RHO(1)=    0.500       N(1)  =     2000
   RHO(2)=  100.500       N(2)  =     4000

 ion  position               nearest neighbor table
   1  0.000  0.000  0.000-

IMPORTANT INFORMATION: All symmetrisations will be switched off!
NOSYMM: (Re-)initialisation of all symmetry stuff for point group C_1.

 KPOINTS: k-points

Automatic generation of k-mesh.
Space group operators:
 irot       det(A)        alpha          n_x          n_y          n_z        tau_x        tau_y        tau_z
    1     1.000000     0.000001     1.000000     0.000000     0.000000     0.000000     0.000000     0.000000

 Subroutine IBZKPT returns following result:

 Found     64 irreducible k-points:

 Following reciprocal coordinates:
            Coordinates               Weight
  0.000000  0.000000  0.000000      1.000000
  0.250000  0.000000 -0.000000      1.000000
  0.500000  0.000000 -0.000000      1.000000
 -0.250000 -0.000000  0.000000      1.000000
 -0.000000  0.250000  0.000000      1.000000
  0.250000  0.250000  0.000000      1.000000
  0.500000  0.250000 -0.000000      1.000000
 -0.250000  0.250000  0.000000      1.000000
 -0.000000  0.500000  0.000000      1.000000
  0.250000  0.500000  0.000000      1.000000
  0.500000  0.500000  0.000000      1.000000
 -0.250000  0.500000  0.000000      1.000000
  0.000000 -0.250000 -0.000000      1.000000
  0.250000 -0.250000 -0.000000      1.000000
  0.500000 -0.250000 -0.000000      1.000000
 -0.250000 -0.250000  0.000000      1.000000
  0.000000  0.000000  0.250000      1.000000
  0.250000 -0.000000  0.250000      1.000000
  0.500000 -0.000000  0.250000      1.000000
 -0.250000 -0.000000  0.250000      1.000000
  0.000000  0.250000  0.250000      1.000000
  0.250000  0.250000  0.250000      1.000000
  0.500000  0.250000  0.250000      1.000000
 -0.250000  0.250000  0.250000      1.000000
  0.000000  0.500000  0.250000      1.000000
  0.250000  0.500000  0.250000      1.000000
  0.500000  0.500000  0.250000      1.000000
 -0.250000  0.500000  0.250000      1.000000
  0.000000 -0.250000  0.250000      1.000000
  0.250000 -0.250000  0.250000      1.000000
  0.500000 -0.250000  0.250000      1.000000
 -0.250000 -0.250000  0.250000      1.000000
  0.000000  0.000000  0.500000      1.000000
  0.250000 -0.000000  0.500000      1.000000
  0.500000 -0.000000  0.500000      1.000000
 -0.250000 -0.000000  0.500000      1.000000
  0.000000  0.250000  0.500000      1.000000
  0.250000  0.250000  0.500000      1.000000
  0.500000  0.250000  0.500000      1.000000
 -0.250000  0.250000  0.500000      1.000000
  0.000000  0.500000  0.500000      1.000000
  0.250000  0.500000  0.500000      1.000000
  0.500000  0.500000  0.500000      1.000000
 -0.250000  0.500000  0.500000      1.000000
  0.000000 -0.250000  0.500000      1.000000
  0.250000 -0.250000  0.500000      1.000000
  0.500000 -0.250000  0.500000      1.000000
 -0.250000 -0.250000  0.500000      1.000000
 -0.000000 -0.000000 -0.250000      1.000000
  0.250000  0.000000 -0.250000      1.000000
  0.500000  0.000000 -0.250000      1.000000
 -0.250000  0.000000 -0.250000      1.000000
 -0.000000  0.250000 -0.250000      1.000000
  0.250000  0.250000 -0.250000      1.000000
  0.500000  0.250000 -0.250000      1.000000
 -0.250000  0.250000 -0.250000      1.000000
 -0.000000  0.500000 -0.250000      1.000000
  0.250000  0.500000 -0.250000      1.000000
  0.500000  0.500000 -0.250000      1.000000
 -0.250000  0.500000 -0.250000      1.000000
 -0.000000 -0.250000 -0.250000      1.000000
  0.250000 -0.250000 -0.250000      1.000000
  0.500000 -0.250000 -0.250000      1.000000
 -0.250000 -0.250000 -0.250000      1.000000

 Following cartesian coordinates:
            Coordinates               Weight
  0.000000  0.000000  0.000000      1.000000
  0.060748 -0.035073 -0.024800      1.000000
  0.121497 -0.070146 -0.049601      1.000000
 -0.060748  0.035073  0.024800      1.000000
  0.000000  0.070146 -0.024800      1.000000
  0.060748  0.035073 -0.049601      1.000000
  0.121497 -0.000000 -0.074401      1.000000
 -0.060748  0.105219  0.000000      1.000000
  0.000000  0.140292 -0.049601      1.000000
  0.060748  0.105219 -0.074401      1.000000
  0.121497  0.070146 -0.099202      1.000000
 -0.060748  0.175365 -0.024800      1.000000
 -0.000000 -0.070146  0.024800      1.000000
  0.060748 -0.105219 -0.000000      1.000000
  0.121497 -0.140292 -0.024800      1.000000
 -0.060748 -0.035073  0.049601      1.000000
 -0.000000  0.000000  0.074401      1.000000
  0.060748 -0.035073  0.049601      1.000000
  0.121497 -0.070146  0.024800      1.000000
 -0.060748  0.035073  0.099202      1.000000
 -0.000000  0.070146  0.049601      1.000000
  0.060748  0.035073  0.024800      1.000000
  0.121497  0.000000 -0.000000      1.000000
 -0.060748  0.105219  0.074401      1.000000
 -0.000000  0.140292  0.024800      1.000000
  0.060748  0.105219  0.000000      1.000000
  0.121497  0.070146 -0.024800      1.000000
 -0.060748  0.175365  0.049601      1.000000
 -0.000000 -0.070146  0.099202      1.000000
  0.060748 -0.105219  0.074401      1.000000
  0.121497 -0.140292  0.049601      1.000000
 -0.060748 -0.035073  0.124002      1.000000
 -0.000000  0.000000  0.148802      1.000000
  0.060748 -0.035073  0.124002      1.000000
  0.121497 -0.070146  0.099202      1.000000
 -0.060748  0.035073  0.173603      1.000000
 -0.000000  0.070146  0.124002      1.000000
  0.060748  0.035073  0.099202      1.000000
  0.121497  0.000000  0.074401      1.000000
 -0.060748  0.105219  0.148802      1.000000
 -0.000000  0.140292  0.099202      1.000000
  0.060748  0.105219  0.074401      1.000000
  0.121497  0.070146  0.049601      1.000000
 -0.060748  0.175365  0.124002      1.000000
 -0.000000 -0.070146  0.173603      1.000000
  0.060748 -0.105219  0.148802      1.000000
  0.121497 -0.140292  0.124002      1.000000
 -0.060748 -0.035073  0.198403      1.000000
  0.000000 -0.000000 -0.074401      1.000000
  0.060748 -0.035073 -0.099202      1.000000
  0.121497 -0.070146 -0.124002      1.000000
 -0.060748  0.035073 -0.049601      1.000000
  0.000000  0.070146 -0.099202      1.000000
  0.060748  0.035073 -0.124002      1.000000
  0.121497  0.000000 -0.148802      1.000000
 -0.060748  0.105219 -0.074401      1.000000
  0.000000  0.140292 -0.124002      1.000000
  0.060748  0.105219 -0.148802      1.000000
  0.121497  0.070146 -0.173603      1.000000
 -0.060748  0.175365 -0.099202      1.000000
  0.000000 -0.070146 -0.049601      1.000000
  0.060748 -0.105219 -0.074401      1.000000
  0.121497 -0.140292 -0.099202      1.000000
 -0.060748 -0.035073 -0.024800      1.000000

 SYSTEM =  Og_FCC
 POSCAR =  Kr_FCC

 Startparameter for this run:
   NWRITE =      2    write-flag & timer
   PREC   = accura    normal or accurate (medium, high low for compatibility)
   ISTART =      1    job   : 0-new  1-cont  2-samecut
   ICHARG =      0    charge: 1-file 2-atom 10-const
   ISPIN  =      1    spin polarized calculation?
   LNONCOLLINEAR =      T non collinear calculations
   LSORBIT =      T    spin-orbit coupling
   INIWAV =      1    electr: 0-lowe 1-rand  2-diag
   LASPH  =      F    aspherical Exc in radial PAW
   METAGGA=      F    non-selfconsistent MetaGGA calc.

 Electronic Relaxation 1
   ENCUT  =  300.0 eV  22.05 Ry    4.70 a.u.   5.81  5.81  5.81*2*pi/ulx,y,z
   ENINI  =  300.0     initial cutoff
   ENAUG  =  554.8 eV  augmentation charge cutoff
   NELM   =     50;   NELMIN=  2; NELMDL= -5     # of ELM steps
   EDIFF  = 0.1E-07   stopping-criterion for ELM
   LREAL  =      F    real-space projection
   NLSPLINE    = F    spline interpolate recip. space projectors
   LCOMPAT=      F    compatible to vasp.4.4
   GGA_COMPAT  = F    GGA compatible to vasp.4.4-vasp.4.6
   LMAXPAW     = -100 max onsite density
   LMAXMIX     =    2 max onsite mixed and CHGCAR
   VOSKOWN=      0    Vosko Wilk Nusair interpolation
   ROPT   =    0.00000
 Ionic relaxation
   EDIFFG = 0.1E-04   stopping-criterion for IOM
   NSW    =      1    number of steps for IOM
   NBLOCK =      1;   KBLOCK =      1    inner block; outer block
   IBRION =     -1    ionic relax: 0-MD 1-quasi-New 2-CG
   NFREE  =      5    steps in history (QN), initial steepest desc. (CG)
   ISIF   =      3    stress and relaxation
   IWAVPR =     10    prediction:  0-non 1-charg 2-wave 3-comb
   ISYM   =      0    0-nonsym 1-usesym 2-fastsym
   LCORR  =      T    Harris-Foulkes like correction to forces

   POTIM  = 0.1000    time-step for ionic-motion
   TEIN   =    0.0    initial temperature
   TEBEG  =    0.0;   TEEND  =   0.0 temperature during run
   SMASS  =  -3.00    Nose mass-parameter (am)
   estimated Nose-frequenzy (Omega)   =  0.10E-29 period in steps =****** mass=  -0.387E-27a.u.
   SCALEE = 1.0000    scale energy and forces
   NPACO  =    256;   APACO  = 16.0  distance and # of slots for P.C.
   PSTRESS=    0.0 pullay stress

  Mass of Ions in am
   POMASS =  83.80
  Ionic Valenz
   ZVAL   =   8.00
  Atomic Wigner-Seitz radii
  virtual crystal weights
   VCA    =   1.00
   NELECT =       8.0000    total number of electrons
   NUPDOWN=      -1.0000    fix difference up-down

 DOS related values:
   EMIN   =  10.00;   EMAX   =-10.00  energy-range for DOS
   EFERMI =   0.00
   ISMEAR =     0;   SIGMA  =   0.00  broadening in eV -4-tet -1-fermi 0-gaus

 Electronic relaxation 2 (details)
   IALGO  =     38    algorithm
   LDIAG  =      T    sub-space diagonalisation (order eigenvalues)
   LSUBROT=      F    optimize rotation matrix (better conditioning)
   TURBO    =      0    0=normal 1=particle mesh
   IRESTART =      0    0=no restart 2=restart with 2 vectors
   NREBOOT  =      0    no. of reboots
   NMIN     =      0    reboot dimension
   EREF     =   0.00    reference energy to select bands
   IMIX   =      4    mixing-type and parameters
     AMIX     =   0.40;   BMIX     =  1.00
     AMIX_MAG =   1.60;   BMIX_MAG =  1.00
     AMIN     =   0.10
     WC   =   100.;   INIMIX=   1;  MIXPRE=   1;  MAXMIX=  50

 Intra band minimization:
   WEIMIN = 0.0000     energy-eigenvalue tresh-hold
   EBREAK =  0.14E-09  absolut break condition
   DEPER  =   0.30     relativ break condition

   TIME   =   0.40     timestep for ELM

  volume/ion in A,a.u.               =      49.28       332.58
  Fermi-wavevector in a.u.,A,eV,Ry     =   0.893039  1.687599 10.850901  0.797519
  Thomas-Fermi vector in A             =   2.015065

 Write flags
   LWAVE        =      T    write WAVECAR
   LDOWNSAMPLE  =      F    k-point downsampling of WAVECAR
   LCHARG       =      F    write CHGCAR
   LVTOT        =      F    write LOCPOT, total local potential
[...]
   19.035428    0.246448    0.247627    0.245307    0.004572   -0.001445   -0.000356
   19.423906    0.313367    0.313250    0.312330    0.000518   -0.001474   -0.000835
   19.812384    0.371343    0.371705    0.370595    0.000197   -0.001243   -0.000684
   20.200862    0.419122    0.419605    0.418529    0.000105   -0.001075   -0.000576
   20.589340    0.460003    0.460515    0.459510    0.000062   -0.000947   -0.000497
   20.977818    0.495654    0.496163    0.495233    0.000038   -0.000845   -0.000438
   21.366296    0.527147    0.527641    0.526780    0.000022   -0.000763   -0.000391
   21.754775    0.555246    0.555720    0.554921    0.000012   -0.000694   -0.000353
   22.143253    0.580542    0.580993    0.580250    0.000005   -0.000636   -0.000321
   22.531731    0.603582    0.604011    0.603318    0.000000   -0.000586   -0.000295
   22.920209    0.624082    0.624489    0.623841   -0.000003   -0.000543   -0.000272
[...]
   33.020640    0.856595    0.856740    0.856532   -0.000008   -0.000165   -0.000080
   33.409118    0.860544    0.860685    0.860484   -0.000008   -0.000159   -0.000078
   33.797596    0.864315    0.864453    0.864256   -0.000008   -0.000154   -0.000075
   34.186074    0.867924    0.868057    0.867867   -0.000008   -0.000149   -0.000073
   34.574552    0.871380    0.871510    0.871325   -0.000008   -0.000145   -0.000071
   34.963031    0.874695    0.874822    0.874642   -0.000008   -0.000140   -0.000068
   35.351509    0.877877    0.878000    0.877825   -0.000008   -0.000136   -0.000066
   35.739987    0.880932    0.881052    0.880882   -0.000008   -0.000132   -0.000065
   36.128465    0.883869    0.883985    0.883820   -0.000008   -0.000129   -0.000063
   36.516943    0.886693    0.886806    0.886645   -0.000008   -0.000125   -0.000061
   36.905421    0.889410    0.889521    0.889364   -0.000007   -0.000122   -0.000059
   37.293899    0.892027    0.892135    0.891982   -0.000007   -0.000119   -0.000058
   37.682377    0.894548    0.894653    0.894504   -0.000007   -0.000116   -0.000056
   38.070856    0.896977    0.897080    0.896935   -0.000007   -0.000113   -0.000055
   38.459334    0.899321    0.899421    0.899279   -0.000007   -0.000110   -0.000054

  frequency dependent IMAGINARY DIELECTRIC FUNCTION (independent particle, no local field effects) current-current (2nd set in vasprun.xml)
     E(ev)      X         Y         Z        XY        YZ        ZX
    0.000000    4.581960    4.579251    4.582687   -0.073648    0.360348   -0.132823
    0.388478    0.459259    0.458988    0.459332   -0.007367    0.036057   -0.013288
    0.776956    0.231254    0.231118    0.231291   -0.003686    0.018062   -0.006652
    1.165434    0.156005    0.155913    0.156029   -0.002461    0.012079   -0.004444
    1.553912    0.118979    0.118910    0.118998   -0.001849    0.009099   -0.003343
    1.942391    0.097286    0.097231    0.097301   -0.001482    0.007320   -0.002685
    2.330869    0.083309    0.083262    0.083322   -0.001239    0.006143   -0.002248
    2.719347    0.073800    0.073758    0.073811   -0.001065    0.005309   -0.001937
    3.107825    0.067152    0.067115    0.067162   -0.000936    0.004690   -0.001706
    3.496303    0.062497    0.062464    0.062506   -0.000835    0.004215   -0.001528
    3.884781    0.059345    0.059314    0.059353   -0.000755    0.003841   -0.001386
    4.273259    0.057425    0.057397    0.057433   -0.000690    0.003541   -0.001272
    4.661737    0.056625    0.056598    0.056632   -0.000636    0.003297   -0.001178
    5.050216    0.056975    0.056949    0.056982   -0.000590    0.003096   -0.001099
    5.438694    0.058713    0.058688    0.058720   -0.000552    0.002929   -0.001033
    5.827172    0.062531    0.062506    0.062537   -0.000518    0.002790   -0.000977
    6.215650    0.070711    0.070687    0.070717   -0.000490    0.002674   -0.000930
    6.604128    0.096787    0.096763    0.096793   -0.000468    0.002574   -0.000892
    6.992606    0.503109    0.503086    0.503115   -0.000342    0.002628   -0.000756
    7.381084    0.143538    0.143515    0.143544   -0.000424    0.002435   -0.000826
    7.769562    0.256688    0.256664    0.256693   -0.000401    0.002392   -0.000795
    8.158040    0.392310    0.392285    0.392315   -0.000388    0.002351   -0.000776
    8.546519    0.919398    0.919373    0.919403   -0.000370    0.002330   -0.000755
    8.934997    1.309182    1.309155    1.309187   -0.000348    0.002329   -0.000731
    9.323475    0.791855    0.791828    0.791860   -0.000329    0.002336   -0.000713
    9.711953    1.212120    1.212091    1.212125   -0.000308    0.002359   -0.000696
   10.100431    1.607666    1.607635    1.607671   -0.000296    0.002385   -0.000689
   10.488909    3.205215    3.205182    3.205220   -0.000226    0.002498   -0.000628
   10.877387    1.592999    1.592963    1.593005   -0.000207    0.002562   -0.000620
   11.265865    1.899493    1.899452    1.899498   -0.000217    0.002608   -0.000644
   11.654344    2.409473    2.409427    2.409478   -0.000191    0.002718   -0.000638
   12.042822    2.127632    2.127579    2.127638   -0.000159    0.002862   -0.000630
   12.431300    4.075631    4.075568    4.075636   -0.000096    0.003070   -0.000602
   12.819778    2.226502    2.226423    2.226505   -0.000026    0.003326   -0.000576
   13.208256    2.800362    2.800261    2.800363    0.000097    0.003694   -0.000513
   13.596734    3.270741    3.270603    3.270737    0.000288    0.004207   -0.000408
   13.985212    2.260154    2.259947    2.260137    0.000613    0.004968   -0.000211
   14.373690    0.960132    0.959771    0.960082    0.001228    0.006197    0.000197
   14.762168    1.791854    1.790998    1.791671    0.002605    0.008495    0.001179
   15.150647    1.305556    1.301187    1.304311    0.007013    0.014594    0.004491
   15.539125    1.536084    1.510501    1.527968    0.027337    0.040156    0.019944
   15.927603    0.708617    0.714546    0.712326   -0.053393   -0.041384   -0.051077
   16.316081    0.530799    0.518496    0.531247   -0.061457   -0.008587   -0.053301
   16.704559    0.684053    0.678689    0.685707    0.022922    0.000347    0.027173
   17.093037    0.113782    0.112991    0.114079    0.008220   -0.003142    0.009464
   17.481515    0.167311    0.167103    0.167540    0.004516   -0.002740    0.005290
   17.869993    0.039673    0.039898    0.040287    0.003334   -0.001967    0.004053
   18.258472    0.099237    0.102645    0.105999   -0.002624    0.001409    0.003569
   18.646950    0.041529    0.041810    0.041994   -0.000821   -0.001513    0.002013
   19.035428    0.028796    0.033779    0.029853   -0.000062   -0.001238    0.001571
   19.423906    0.009909    0.010194    0.010018    0.001538   -0.001165    0.001293
   19.812384    0.007084    0.007146    0.007128    0.000996   -0.001079    0.001003
   20.200862    0.005580    0.005601    0.005606    0.000759   -0.000977    0.000830
   20.589340    0.004557    0.004564    0.004573    0.000615   -0.000884    0.000706
   20.977818    0.003801    0.003803    0.003812    0.000516   -0.000802    0.000611
   21.366296    0.003219    0.003219    0.003228    0.000442   -0.000730    0.000536
   21.754775    0.002763    0.002762    0.002770    0.000385   -0.000667    0.000475
   22.143253    0.002410    0.002409    0.002416    0.000338   -0.000612    0.000424
   22.531731    0.002200    0.002198    0.002204    0.000301   -0.000563    0.000381
   22.920209    0.003622    0.003620    0.003625    0.000269   -0.000519    0.000345
[...]
   33.020640    0.000173    0.000173    0.000173    0.000049   -0.000121    0.000068
   33.409118    0.000158    0.000158    0.000158    0.000047   -0.000116    0.000065
   33.797596    0.000146    0.000146    0.000146    0.000044   -0.000111    0.000062
   34.186074    0.000136    0.000136    0.000136    0.000042   -0.000107    0.000059
   34.574552    0.000127    0.000127    0.000127    0.000040   -0.000103    0.000057
   34.963031    0.000119    0.000119    0.000119    0.000039   -0.000099    0.000054
   35.351509    0.000112    0.000111    0.000112    0.000037   -0.000095    0.000052
   35.739987    0.000105    0.000105    0.000105    0.000036   -0.000092    0.000050
   36.128465    0.000098    0.000098    0.000098    0.000034   -0.000088    0.000048
   36.516943    0.000092    0.000092    0.000093    0.000033   -0.000085    0.000046
   36.905421    0.000087    0.000087    0.000087    0.000031   -0.000082    0.000045
   37.293899    0.000082    0.000082    0.000082    0.000030   -0.000079    0.000043
   37.682377    0.000077    0.000077    0.000077    0.000029   -0.000077    0.000041
   38.070856    0.000073    0.000073    0.000073    0.000028   -0.000074    0.000040
   38.459334    0.000069    0.000069    0.000069    0.000027   -0.000071    0.000038

  frequency dependent      REAL DIELECTRIC FUNCTION (independent particle, no local field effects) current-current (2nd set in vasprun.xml)
     E(ev)        X           Y           Z          XY          YZ          ZX
    0.000000    1.889709    1.889183    1.889850    0.000062    0.000465    0.000223
    0.388478    1.890740    1.890214    1.890882    0.000062    0.000465    0.000223
    0.776956    1.893882    1.893355    1.894023    0.000063    0.000466    0.000224
    1.165434    1.899176    1.898647    1.899318    0.000063    0.000468    0.000224
    1.553912    1.906713    1.906182    1.906855    0.000063    0.000469    0.000225
    1.942391    1.916625    1.916090    1.916767    0.000064    0.000472    0.000226
    2.330869    1.929093    1.928555    1.929237    0.000064    0.000474    0.000228
    2.719347    1.944361    1.943818    1.944505    0.000065    0.000478    0.000229
    3.107825    1.962746    1.962198    1.962891    0.000066    0.000482    0.000231
    3.496303    1.984667    1.984113    1.984813    0.000066    0.000487    0.000233
    3.884781    2.010678    2.010117    2.010826    0.000067    0.000492    0.000236
    4.273259    2.041527    2.040958    2.041676    0.000069    0.000498    0.000239
    4.661737    2.078250    2.077672    2.078400    0.000070    0.000505    0.000242
    5.050216    2.122350    2.121762    2.122502    0.000071    0.000512    0.000245
    5.438694    2.176155    2.175555    2.176309    0.000073    0.000521    0.000249
    5.827172    2.243698    2.243086    2.243854    0.000075    0.000530    0.000254
    6.215650    2.333510    2.332884    2.333669    0.000077    0.000541    0.000259
    6.604128    2.472729    2.472088    2.472890    0.000082    0.000556    0.000267
    6.992606    2.606957    2.606298    2.607120    0.000120    0.000613    0.000306
    7.381084    2.552226    2.551548    2.552393    0.000081    0.000574    0.000272
    7.769562    2.719175    2.718474    2.719344    0.000088    0.000594    0.000283
    8.158040    3.355989    3.355264    3.356162    0.000099    0.000620    0.000298
    8.546519    2.794149    2.793396    2.794325    0.000072    0.000599    0.000276
    8.934997    2.571184    2.570399    2.571365    0.000100    0.000650    0.000308
    9.323475    2.920027    2.919207    2.920212    0.000105    0.000675    0.000320
    9.711953    3.216271    3.215410    3.216461    0.000110    0.000700    0.000330
   10.100431    3.766070    3.765163    3.766265    0.000134    0.000752    0.000360
   10.488909    0.885312    0.884351    0.885513    0.000078    0.000704    0.000313
   10.877387    1.467289    1.466264    1.467495    0.000309    0.001027    0.000547
   11.265865    2.637745    2.636644    2.637957    0.000157    0.000863    0.000407
   11.654344    2.987337    2.986145    2.987555    0.000160    0.000903    0.000419
   12.042822    0.787674    0.786370    0.787897    0.000220    0.001019    0.000487
   12.431300    2.058989    2.057545    2.059216    0.000122    0.000939    0.000401
   12.819778    1.224533    1.222909    1.224761    0.000232    0.001137    0.000519
   13.208256   -0.514679   -0.516544   -0.514456    0.000271    0.001251    0.000564
   13.596734   -0.080669   -0.082871   -0.080462    0.000322    0.001395    0.000618
   13.985212   -0.974920   -0.977634   -0.974759    0.000393    0.001583    0.000680
   14.373690    0.441355    0.437768    0.441396    0.000500    0.001847    0.000748
   14.762168   -0.569368   -0.574802   -0.569689    0.000678    0.002271    0.000799
   15.150647   -0.629336   -0.640969   -0.631282    0.001075    0.003275    0.000701
   15.539125   -0.963054   -0.920846   -0.948087   -0.024805   -0.027874   -0.020785
   15.927603   -1.157547   -1.171552   -1.158970   -0.017068   -0.006226   -0.002561
   16.316081   -0.068045   -0.086633   -0.064951    0.038342    0.024230    0.048576
   16.704559   -0.427329   -0.413439   -0.430134    0.009950   -0.012290    0.004966
   17.093037   -0.350381   -0.343824   -0.350960    0.001040   -0.004945   -0.000227
   17.481515   -0.232463   -0.227807   -0.232146   -0.000133   -0.002678   -0.000154
   17.869993    0.000929    0.005242    0.002463   -0.000914   -0.001172    0.000340
   18.258472    0.109203    0.109828    0.106910   -0.004117   -0.002752    0.000101
   18.646950    0.143838    0.146245    0.142083    0.000600   -0.002370   -0.001851
   19.035428    0.246071    0.247195    0.244921    0.004569   -0.001431   -0.000372
   19.423906    0.313206    0.313086    0.312171    0.000502   -0.001461   -0.000849
   19.812384    0.371217    0.371578    0.370472    0.000186   -0.001231   -0.000695
   20.200862    0.419018    0.419500    0.418427    0.000097   -0.001064   -0.000585
   20.589340    0.459914    0.460425    0.459423    0.000056   -0.000937   -0.000505
   20.977818    0.495577    0.496086    0.495157    0.000032   -0.000836   -0.000445
   21.366296    0.527080    0.527574    0.526714    0.000018   -0.000754   -0.000397
   21.754775    0.555187    0.555660    0.554863    0.000008   -0.000686   -0.000359
   22.143253    0.580489    0.580940    0.580199    0.000002   -0.000629   -0.000326
   22.531731    0.603534    0.603963    0.603271   -0.000003   -0.000580   -0.000299
   22.920209    0.624024    0.624432    0.623785   -0.000006   -0.000537   -0.000276
[...]
   33.020640    0.856589    0.856734    0.856526   -0.000009   -0.000163   -0.000081
   33.409118    0.860538    0.860679    0.860478   -0.000009   -0.000157   -0.000079
   33.797596    0.864310    0.864447    0.864251   -0.000009   -0.000152   -0.000076
   34.186074    0.867918    0.868052    0.867861   -0.000009   -0.000148   -0.000074
   34.574552    0.871375    0.871505    0.871320   -0.000009   -0.000143   -0.000071
   34.963031    0.874690    0.874817    0.874637   -0.000009   -0.000139   -0.000069
   35.351509    0.877872    0.877995    0.877820   -0.000008   -0.000135   -0.000067
   35.739987    0.880928    0.881047    0.880877   -0.000008   -0.000131   -0.000065
   36.128465    0.883864    0.883981    0.883816   -0.000008   -0.000128   -0.000063
   36.516943    0.886689    0.886802    0.886641   -0.000008   -0.000124   -0.000062
   36.905421    0.889406    0.889517    0.889360   -0.000008   -0.000121   -0.000060
   37.293899    0.892023    0.892131    0.891978   -0.000008   -0.000118   -0.000058
   37.682377    0.894544    0.894650    0.894500   -0.000007   -0.000115   -0.000057
   38.070856    0.896974    0.897077    0.896932   -0.000007   -0.000112   -0.000056
   38.459334    0.899317    0.899418    0.899276   -0.000007   -0.000109   -0.000054

 The outermost node in the dielectric function lies at epsilon=  17.9

 Spin-Orbit-Coupling matrix elements

 Ion:    1  E_soc:     -0.0805021
 l=   1
     0.0000000    -0.0134167    -0.0134167
    -0.0134167     0.0000000    -0.0134167
    -0.0134167    -0.0134167     0.0000000
 l=   2
     0.0000000    -0.0000001     0.0000000    -0.0000001    -0.0000002
    -0.0000001     0.0000000    -0.0000002    -0.0000001    -0.0000001
     0.0000000    -0.0000002     0.0000000    -0.0000002     0.0000000
    -0.0000001    -0.0000001    -0.0000002     0.0000000    -0.0000001
    -0.0000002    -0.0000001     0.0000000    -0.0000001     0.0000000
 l=   3
     0.0000000     0.0000000     0.0000000     0.0000000     0.0000000     0.0000000     0.0000000
     0.0000000     0.0000000     0.0000000     0.0000000     0.0000000     0.0000000     0.0000000
     0.0000000     0.0000000     0.0000000     0.0000000     0.0000000     0.0000000     0.0000000
     0.0000000     0.0000000     0.0000000     0.0000000     0.0000000     0.0000000     0.0000000
     0.0000000     0.0000000     0.0000000     0.0000000     0.0000000     0.0000000     0.0000000
     0.0000000     0.0000000     0.0000000     0.0000000     0.0000000     0.0000000     0.0000000
     0.0000000     0.0000000     0.0000000     0.0000000     0.0000000     0.0000000     0.0000000