 vasp.5.4.4.18Apr17-6-g9f103f2a35 (build Nov 03 2018 10:20:46) complex

 executed on             LinuxIFC date 2018.11.14  14:20:55

 INCAR:
 POTCAR:    PAW_PBE Rn_d_GW 14Apr2014

 POTCAR:    PAW_PBE Rn_d_GW 14Apr2014
   VRHFIN =Rn:

   TITEL  = PAW_PBE Rn_d_GW 14Apr2014
   POMASS =  220.170; ZVAL   =   18.000    mass and valenz
   ENMAX  =  268.495; ENMIN  =  201.371 eV

  PAW_PBE Rn_d_GW 14Apr2014             :

 POSCAR: Rn_FCC
  positions in direct lattice
  velocities in cartesian coordinates
 exchange correlation table for  LEXCH =        8
   RHO(1)=    0.500       N(1)  =     2000
   RHO(2)=  100.500       N(2)  =     4000

 ion  position               nearest neighbor table
   1  0.000  0.000  0.000-

IMPORTANT INFORMATION: All symmetrisations will be switched off!
NOSYMM: (Re-)initialisation of all symmetry stuff for point group C_1.

 KPOINTS: k-points

Automatic generation of k-mesh.
Space group operators:
 irot       det(A)        alpha          n_x          n_y          n_z        tau_x        tau_y        tau_z
    1     1.000000     0.000000     1.000000     0.000000     0.000000     0.000000     0.000000     0.000000

 Subroutine IBZKPT returns following result:

 Found     64 irreducible k-points:

 Following reciprocal coordinates:
            Coordinates               Weight
  0.000000  0.000000  0.000000      1.000000
  0.250000  0.000000  0.000000      1.000000
  0.500000  0.000000  0.000000      1.000000
 -0.250000 -0.000000  0.000000      1.000000
  0.000000  0.250000  0.000000      1.000000
  0.250000  0.250000  0.000000      1.000000
  0.500000  0.250000  0.000000      1.000000
 -0.250000  0.250000 -0.000000      1.000000
  0.000000  0.500000  0.000000      1.000000
  0.250000  0.500000 -0.000000      1.000000
  0.500000  0.500000  0.000000      1.000000
 -0.250000  0.500000  0.000000      1.000000
  0.000000 -0.250000  0.000000      1.000000
  0.250000 -0.250000  0.000000      1.000000
  0.500000 -0.250000  0.000000      1.000000
 -0.250000 -0.250000  0.000000      1.000000
 -0.000000  0.000000  0.250000      1.000000
  0.250000 -0.000000  0.250000      1.000000
  0.500000 -0.000000  0.250000      1.000000
 -0.250000 -0.000000  0.250000      1.000000
 -0.000000  0.250000  0.250000      1.000000
  0.250000  0.250000  0.250000      1.000000
  0.500000  0.250000  0.250000      1.000000
 -0.250000  0.250000  0.250000      1.000000
 -0.000000  0.500000  0.250000      1.000000
  0.250000  0.500000  0.250000      1.000000
  0.500000  0.500000  0.250000      1.000000
 -0.250000  0.500000  0.250000      1.000000
  0.000000 -0.250000  0.250000      1.000000
  0.250000 -0.250000  0.250000      1.000000
  0.500000 -0.250000  0.250000      1.000000
 -0.250000 -0.250000  0.250000      1.000000
 -0.000000  0.000000  0.500000      1.000000
  0.250000  0.000000  0.500000      1.000000
  0.500000 -0.000000  0.500000      1.000000
 -0.250000 -0.000000  0.500000      1.000000
 -0.000000  0.250000  0.500000      1.000000
  0.250000  0.250000  0.500000      1.000000
  0.500000  0.250000  0.500000      1.000000
 -0.250000  0.250000  0.500000      1.000000
 -0.000000  0.500000  0.500000      1.000000
  0.250000  0.500000  0.500000      1.000000
  0.500000  0.500000  0.500000      1.000000
 -0.250000  0.500000  0.500000      1.000000
 -0.000000 -0.250000  0.500000      1.000000
  0.250000 -0.250000  0.500000      1.000000
  0.500000 -0.250000  0.500000      1.000000
 -0.250000 -0.250000  0.500000      1.000000
  0.000000 -0.000000 -0.250000      1.000000
  0.250000  0.000000 -0.250000      1.000000
  0.500000  0.000000 -0.250000      1.000000
 -0.250000  0.000000 -0.250000      1.000000
  0.000000  0.250000 -0.250000      1.000000
  0.250000  0.250000 -0.250000      1.000000
  0.500000  0.250000 -0.250000      1.000000
 -0.250000  0.250000 -0.250000      1.000000
  0.000000  0.500000 -0.250000      1.000000
  0.250000  0.500000 -0.250000      1.000000
  0.500000  0.500000 -0.250000      1.000000
 -0.250000  0.500000 -0.250000      1.000000
  0.000000 -0.250000 -0.250000      1.000000
  0.250000 -0.250000 -0.250000      1.000000
  0.500000 -0.250000 -0.250000      1.000000
 -0.250000 -0.250000 -0.250000      1.000000

 Following cartesian coordinates:
            Coordinates               Weight
  0.000000  0.000000  0.000000      1.000000
  0.055276 -0.031914 -0.022566      1.000000
  0.110552 -0.063827 -0.045133      1.000000
 -0.055276  0.031914  0.022566      1.000000
  0.000000  0.063827 -0.022566      1.000000
  0.055276  0.031914 -0.045133      1.000000
  0.110552  0.000000 -0.067699      1.000000
 -0.055276  0.095741  0.000000      1.000000
  0.000000  0.127654 -0.045133      1.000000
  0.055276  0.095741 -0.067699      1.000000
  0.110552  0.063827 -0.090265      1.000000
 -0.055276  0.159568 -0.022566      1.000000
 -0.000000 -0.063827  0.022566      1.000000
  0.055276 -0.095741 -0.000000      1.000000
  0.110552 -0.127654 -0.022566      1.000000
 -0.055276 -0.031914  0.045133      1.000000
 -0.000000  0.000000  0.067699      1.000000
  0.055276 -0.031914  0.045133      1.000000
  0.110552 -0.063827  0.022566      1.000000
 -0.055276  0.031914  0.090265      1.000000
 -0.000000  0.063827  0.045133      1.000000
  0.055276  0.031914  0.022566      1.000000
  0.110552  0.000000  0.000000      1.000000
 -0.055276  0.095741  0.067699      1.000000
 -0.000000  0.127654  0.022566      1.000000
  0.055276  0.095741  0.000000      1.000000
  0.110552  0.063827 -0.022566      1.000000
 -0.055276  0.159568  0.045133      1.000000
 -0.000000 -0.063827  0.090265      1.000000
  0.055276 -0.095741  0.067699      1.000000
  0.110552 -0.127654  0.045133      1.000000
 -0.055276 -0.031914  0.112831      1.000000
 -0.000000  0.000000  0.135398      1.000000
  0.055276 -0.031914  0.112831      1.000000
  0.110552 -0.063827  0.090265      1.000000
 -0.055276  0.031914  0.157964      1.000000
 -0.000000  0.063827  0.112831      1.000000
  0.055276  0.031914  0.090265      1.000000
  0.110552  0.000000  0.067699      1.000000
 -0.055276  0.095741  0.135398      1.000000
 -0.000000  0.127654  0.090265      1.000000
  0.055276  0.095741  0.067699      1.000000
  0.110552  0.063827  0.045133      1.000000
 -0.055276  0.159568  0.112831      1.000000
 -0.000000 -0.063827  0.157964      1.000000
  0.055276 -0.095741  0.135398      1.000000
  0.110552 -0.127654  0.112831      1.000000
 -0.055276 -0.031914  0.180530      1.000000
  0.000000 -0.000000 -0.067699      1.000000
  0.055276 -0.031914 -0.090265      1.000000
  0.110552 -0.063827 -0.112831      1.000000
 -0.055276  0.031914 -0.045133      1.000000
  0.000000  0.063827 -0.090265      1.000000
  0.055276  0.031914 -0.112831      1.000000
  0.110552 -0.000000 -0.135398      1.000000
 -0.055276  0.095741 -0.067699      1.000000
  0.000000  0.127654 -0.112831      1.000000
  0.055276  0.095741 -0.135398      1.000000
  0.110552  0.063827 -0.157964      1.000000
 -0.055276  0.159568 -0.090265      1.000000
  0.000000 -0.063827 -0.045133      1.000000
  0.055276 -0.095741 -0.067699      1.000000
  0.110552 -0.127654 -0.090265      1.000000
 -0.055276 -0.031914 -0.022566      1.000000

 SYSTEM =  Og_FCC
 POSCAR =  Rn_FCC

 Startparameter for this run:
   NWRITE =      2    write-flag & timer
   PREC   = accura    normal or accurate (medium, high low for compatibility)
   ISTART =      1    job   : 0-new  1-cont  2-samecut
   ICHARG =      0    charge: 1-file 2-atom 10-const
   ISPIN  =      1    spin polarized calculation?
   LNONCOLLINEAR =      T non collinear calculations
   LSORBIT =      T    spin-orbit coupling
   INIWAV =      1    electr: 0-lowe 1-rand  2-diag
   LASPH  =      F    aspherical Exc in radial PAW
   METAGGA=      F    non-selfconsistent MetaGGA calc.

 Electronic Relaxation 1
   ENCUT  =  300.0 eV  22.05 Ry    4.70 a.u.   6.39  6.39  6.39*2*pi/ulx,y,z
   ENINI  =  300.0     initial cutoff
   ENAUG  =  715.6 eV  augmentation charge cutoff
   NELM   =     50;   NELMIN=  2; NELMDL= -5     # of ELM steps
   EDIFF  = 0.1E-07   stopping-criterion for ELM
   LREAL  =      F    real-space projection
   NLSPLINE    = F    spline interpolate recip. space projectors
   LCOMPAT=      F    compatible to vasp.4.4
   GGA_COMPAT  = F    GGA compatible to vasp.4.4-vasp.4.6
   LMAXPAW     = -100 max onsite density
   LMAXMIX     =    2 max onsite mixed and CHGCAR
   VOSKOWN=      0    Vosko Wilk Nusair interpolation
   ROPT   =    0.00000
 Ionic relaxation
   EDIFFG = 0.1E-04   stopping-criterion for IOM
   NSW    =      1    number of steps for IOM
   NBLOCK =      1;   KBLOCK =      1    inner block; outer block
   IBRION =     -1    ionic relax: 0-MD 1-quasi-New 2-CG
   NFREE  =      5    steps in history (QN), initial steepest desc. (CG)
   ISIF   =      3    stress and relaxation
   IWAVPR =     10    prediction:  0-non 1-charg 2-wave 3-comb
   ISYM   =      0    0-nonsym 1-usesym 2-fastsym
   LCORR  =      T    Harris-Foulkes like correction to forces

   POTIM  = 0.1000    time-step for ionic-motion
   TEIN   =    0.0    initial temperature
   TEBEG  =    0.0;   TEEND  =   0.0 temperature during run
   SMASS  =  -3.00    Nose mass-parameter (am)
   estimated Nose-frequenzy (Omega)   =  0.10E-29 period in steps =****** mass=  -0.467E-27a.u.
   SCALEE = 1.0000    scale energy and forces
   NPACO  =    256;   APACO  = 16.0  distance and # of slots for P.C.
   PSTRESS=    0.0 pullay stress

  Mass of Ions in am
   POMASS = 220.17
  Ionic Valenz
   ZVAL   =  18.00
  Atomic Wigner-Seitz radii
  virtual crystal weights
   VCA    =   1.00
   NELECT =      18.0000    total number of electrons
   NUPDOWN=      -1.0000    fix difference up-down

 DOS related values:
   EMIN   =  10.00;   EMAX   =-10.00  energy-range for DOS
   EFERMI =   0.00
   ISMEAR =     0;   SIGMA  =   0.00  broadening in eV -4-tet -1-fermi 0-gaus

 Electronic relaxation 2 (details)
   IALGO  =     90    algorithm
   LDIAG  =      T    sub-space diagonalisation (order eigenvalues)
   LSUBROT=      F    optimize rotation matrix (better conditioning)
   TURBO    =      0    0=normal 1=particle mesh
   IRESTART =      0    0=no restart 2=restart with 2 vectors
   NREBOOT  =      0    no. of reboots
   NMIN     =      0    reboot dimension
   EREF     =   0.00    reference energy to select bands
   IMIX   =      4    mixing-type and parameters
     AMIX     =   0.40;   BMIX     =  1.00
     AMIX_MAG =   1.60;   BMIX_MAG =  1.00
     AMIN     =   0.10
     WC   =   100.;   INIMIX=   1;  MIXPRE=   1;  MAXMIX=  50

 Intra band minimization:
   WEIMIN = 0.0000     energy-eigenvalue tresh-hold
   EBREAK =  0.26E-10  absolut break condition
   DEPER  =   0.30     relativ break condition

   TIME   =   0.40     timestep for ELM

  volume/ion in A,a.u.               =      65.42       441.46
  Fermi-wavevector in a.u.,A,eV,Ry     =   1.064796  2.012173 15.426163  1.133791
  Thomas-Fermi vector in A             =   2.200327

 Write flags
   LWAVE        =      T    write WAVECAR
   LDOWNSAMPLE  =      F    k-point downsampling of WAVECAR
   LCHARG       =      F    write CHGCAR
   LVTOT        =      F    write LOCPOT, total local potential
[...]
   48.206565    1.070949    1.070949    1.070949   -0.000000   -0.000000   -0.000000
   49.190372    1.087991    1.087991    1.087991    0.000000    0.000000    0.000000
   50.174179    1.068146    1.068146    1.068146   -0.000000   -0.000000   -0.000000
   51.157987    1.097527    1.097527    1.097527   -0.000000   -0.000000   -0.000000
   52.141794    1.109734    1.109734    1.109734    0.000000   -0.000000    0.000000
   53.125602    1.085705    1.085705    1.085705   -0.000000   -0.000000   -0.000000
   54.109409    1.155574    1.155574    1.155574   -0.000000    0.000000    0.000000
   55.093217    1.366205    1.366205    1.366205   -0.000000   -0.000000   -0.000000
   56.077024    1.198664    1.198664    1.198664   -0.000000   -0.000000   -0.000000
   57.060832    0.875723    0.875723    0.875723   -0.000000   -0.000000   -0.000000
   58.044639    1.026167    1.026166    1.026166    0.000002    0.000001    0.000002
[...]
   83.623632    0.881263    0.881263    0.881263   -0.000000   -0.000000   -0.000000
   84.607440    0.889314    0.889314    0.889314   -0.000000   -0.000000   -0.000000
   85.591247    0.895895    0.895895    0.895895   -0.000000   -0.000000   -0.000000
   86.575055    0.901513    0.901513    0.901513   -0.000000   -0.000000   -0.000000
   87.558862    0.906428    0.906428    0.906428   -0.000000   -0.000000   -0.000000
   88.542670    0.910799    0.910799    0.910799   -0.000000   -0.000000   -0.000000
   89.526477    0.914733    0.914733    0.914733   -0.000000   -0.000000   -0.000000
   90.510285    0.918306    0.918306    0.918306   -0.000000   -0.000000   -0.000000
   91.494092    0.921573    0.921573    0.921573   -0.000000   -0.000000   -0.000000
   92.477899    0.924580    0.924580    0.924580   -0.000000   -0.000000   -0.000000
   93.461707    0.927360    0.927360    0.927360   -0.000000   -0.000000   -0.000000
   94.445514    0.929941    0.929941    0.929941   -0.000000   -0.000000   -0.000000
   95.429322    0.932348    0.932348    0.932348   -0.000000   -0.000000   -0.000000
   96.413129    0.934599    0.934599    0.934599   -0.000000   -0.000000   -0.000000
   97.396937    0.936710    0.936710    0.936710   -0.000000   -0.000000   -0.000000

  frequency dependent IMAGINARY DIELECTRIC FUNCTION (independent particle, no local field effects) current-current (2nd set in vasprun.xml)
     E(ev)      X         Y         Z        XY        YZ        ZX
    0.000000    4.170394    4.170394    4.170394   -0.000002   -0.000001   -0.000002
    0.983807    0.431651    0.431651    0.431651   -0.000000   -0.000000   -0.000000
    1.967615    0.242776    0.242776    0.242776   -0.000000   -0.000000   -0.000000
    2.951422    0.217213    0.217213    0.217213   -0.000000   -0.000000   -0.000000
    3.935230    1.004245    1.004245    1.004244   -0.000000   -0.000000   -0.000000
    4.919037    0.515075    0.515074    0.515074   -0.000000   -0.000000   -0.000000
    5.902845    3.312525    3.312526    3.312519   -0.000004   -0.000002   -0.000004
    6.886652    5.170730    5.170730    5.170729   -0.000000   -0.000000   -0.000000
    7.870460    2.723454    2.723454    2.723454   -0.000000   -0.000000   -0.000000
    8.854267    4.393710    4.393710    4.393709   -0.000000   -0.000000   -0.000000
    9.838074    3.019345    3.019345    3.019346   -0.000000   -0.000000   -0.000000
   10.821882    3.184374    3.184375    3.184375   -0.000000   -0.000000   -0.000000
   11.805689    1.966829    1.966829    1.966829   -0.000004   -0.000001   -0.000003
   12.789497    2.323315    2.323315    2.323315   -0.000000   -0.000000   -0.000000
   13.773304    1.058024    1.058023    1.058024    0.000000    0.000000    0.000000
   14.757112    1.643164    1.643164    1.643164    0.000000    0.000000    0.000000
   15.740919    1.373841    1.373842    1.373842   -0.000000   -0.000000   -0.000000
   16.724726    0.112199    0.112199    0.112199    0.000000    0.000000    0.000000
   17.708534    1.316939    1.316939    1.316939    0.000000    0.000000    0.000000
   18.692341    1.204292    1.204292    1.204292   -0.000000   -0.000000   -0.000000
   19.676149    0.302108    0.302109    0.302110   -0.000001   -0.000000   -0.000001
   20.659956    0.122237    0.122237    0.122237   -0.000000   -0.000000   -0.000000
   21.643764    0.201948    0.201948    0.201948    0.000000    0.000000    0.000000
   22.627571    0.148188    0.148188    0.148188   -0.000000    0.000000   -0.000000
   23.611379    0.142616    0.142616    0.142616   -0.000000   -0.000000   -0.000000
   24.595186    0.116187    0.116187    0.116187    0.000000   -0.000000    0.000000
   25.578993    0.079563    0.079563    0.079563    0.000000    0.000000    0.000000
   26.562801    0.092583    0.092583    0.092583    0.000000    0.000000    0.000000
   27.546608    0.104706    0.104706    0.104706   -0.000000   -0.000000   -0.000000
   28.530416    0.111062    0.111062    0.111062    0.000000    0.000000    0.000000
   29.514223    0.070390    0.070390    0.070390    0.000000   -0.000000    0.000000
   30.498031    0.058588    0.058588    0.058588    0.000000    0.000000    0.000000
   31.481838    0.042450    0.042450    0.042450    0.000000    0.000000    0.000000
   32.465646    0.039085    0.039085    0.039085   -0.000000   -0.000000   -0.000000
   33.449453    0.032393    0.032393    0.032393   -0.000000   -0.000000   -0.000000
   34.433260    0.025545    0.025545    0.025545    0.000000    0.000000    0.000000
   35.417068    0.020565    0.020565    0.020565   -0.000000   -0.000000   -0.000000
   36.400875    0.023637    0.023637    0.023637    0.000000    0.000000    0.000000
   37.384683    0.032580    0.032580    0.032580   -0.000000    0.000000   -0.000000
   38.368490    0.020384    0.020384    0.020384   -0.000000   -0.000000   -0.000000
   39.352298    0.009305    0.009305    0.009305    0.000000   -0.000000    0.000000
   40.336105    0.007825    0.007825    0.007825   -0.000000   -0.000000   -0.000000
   41.319912    0.005521    0.005521    0.005521   -0.000000   -0.000000   -0.000000
   42.303720    0.005804    0.005804    0.005804   -0.000000    0.000000   -0.000000
   43.287527    0.004950    0.004950    0.004950    0.000000    0.000000    0.000000
   44.271335    0.004623    0.004623    0.004623   -0.000000   -0.000000   -0.000000
   45.255142    0.008583    0.008583    0.008583   -0.000000   -0.000000   -0.000000
   46.238950    0.013495    0.013495    0.013495   -0.000000   -0.000000   -0.000000
   47.222757    0.013826    0.013826    0.013826    0.000000    0.000000    0.000000
   48.206565    0.019774    0.019774    0.019774   -0.000000   -0.000000   -0.000000
   49.190372    0.029903    0.029903    0.029903    0.000000    0.000000    0.000000
   50.174179    0.043067    0.043067    0.043067   -0.000000   -0.000000   -0.000000
   51.157987    0.071970    0.071970    0.071970   -0.000000   -0.000000   -0.000000
   52.141794    0.137442    0.137442    0.137442    0.000000    0.000000    0.000000
   53.125602    0.035350    0.035350    0.035350   -0.000000   -0.000000   -0.000000
   54.109409    0.035140    0.035140    0.035140    0.000000    0.000000   -0.000000
   55.093217    0.164060    0.164060    0.164060    0.000000    0.000000    0.000000
   56.077024    0.564849    0.564849    0.564849    0.000000    0.000000    0.000000
   57.060832    0.326360    0.326359    0.326359    0.000000    0.000000    0.000000
   58.044639    0.251710    0.251712    0.251712    0.000000    0.000001    0.000000
[...]
   83.623632    0.000641    0.000641    0.000641    0.000000    0.000000    0.000000
   84.607440    0.000470    0.000470    0.000470    0.000000    0.000000    0.000000
   85.591247    0.000371    0.000371    0.000371    0.000000    0.000000    0.000000
   86.575055    0.000305    0.000305    0.000305    0.000000    0.000000    0.000000
   87.558862    0.000256    0.000256    0.000256    0.000000    0.000000    0.000000
   88.542670    0.000219    0.000219    0.000219    0.000000    0.000000    0.000000
   89.526477    0.000190    0.000190    0.000190    0.000000    0.000000    0.000000
   90.510285    0.000166    0.000166    0.000166    0.000000    0.000000    0.000000
   91.494092    0.000147    0.000147    0.000147    0.000000    0.000000    0.000000
   92.477899    0.000130    0.000130    0.000130    0.000000    0.000000    0.000000
   93.461707    0.000117    0.000117    0.000117    0.000000    0.000000    0.000000
   94.445514    0.000105    0.000105    0.000105    0.000000    0.000000    0.000000
   95.429322    0.000095    0.000095    0.000095    0.000000    0.000000    0.000000
   96.413129    0.000086    0.000086    0.000086    0.000000    0.000000    0.000000
   97.396937    0.000078    0.000078    0.000078    0.000000    0.000000    0.000000

  frequency dependent      REAL DIELECTRIC FUNCTION (independent particle, no local field effects) current-current (2nd set in vasprun.xml)
     E(ev)        X           Y           Z          XY          YZ          ZX
    0.000000    3.049646    3.049646    3.049646    0.000000    0.000000    0.000000
    0.983807    3.084953    3.084953    3.084953    0.000000    0.000000    0.000000
    1.967615    3.206295    3.206295    3.206295    0.000000    0.000000    0.000000
    2.951422    3.493966    3.493966    3.493966    0.000000    0.000000    0.000000
    3.935230    2.824028    2.824028    2.824028    0.000000   -0.000000    0.000000
    4.919037    4.814365    4.814365    4.814365    0.000000    0.000000    0.000000
    5.902845    5.071529    5.071530    5.071528    0.000007    0.000004    0.000007
    6.886652    7.859993    7.859993    7.859993   -0.000000   -0.000000   -0.000000
    7.870460    1.314357    1.314357    1.314358   -0.000000   -0.000000   -0.000000
    8.854267    3.504098    3.504098    3.504097    0.000000    0.000000    0.000000
    9.838074    1.307642    1.307642    1.307642    0.000000    0.000000    0.000000
   10.821882   -0.055293   -0.055294   -0.055294    0.000000    0.000000    0.000000
   11.805689   -0.669138   -0.669139   -0.669139   -0.000003   -0.000001   -0.000002
   12.789497   -0.045583   -0.045583   -0.045583    0.000000    0.000000    0.000000
   13.773304    0.458507    0.458507    0.458507   -0.000000   -0.000000   -0.000000
   14.757112    0.598083    0.598083    0.598083    0.000000    0.000000    0.000000
   15.740919   -0.212891   -0.212891   -0.212890   -0.000000   -0.000000   -0.000000
   16.724726    0.287377    0.287377    0.287377    0.000000   -0.000000    0.000000
   17.708534    0.817155    0.817155    0.817155    0.000000    0.000000    0.000000
   18.692341   -0.178253   -0.178253   -0.178253   -0.000000   -0.000000   -0.000000
   19.676149    0.155238    0.155239    0.155240   -0.000000   -0.000000   -0.000000
   20.659956    0.403410    0.403410    0.403410    0.000000    0.000000    0.000000
   21.643764    0.477244    0.477244    0.477244   -0.000000   -0.000000   -0.000000
   22.627571    0.508328    0.508328    0.508328    0.000000    0.000000    0.000000
   23.611379    0.501559    0.501559    0.501559    0.000000    0.000000    0.000000
   24.595186    0.623654    0.623653    0.623653    0.000000    0.000000    0.000000
   25.578993    0.713902    0.713902    0.713902   -0.000000   -0.000000   -0.000000
   26.562801    0.777201    0.777201    0.777201    0.000000    0.000000    0.000000
   27.546608    0.698544    0.698544    0.698544    0.000000    0.000000    0.000000
   28.530416    0.740794    0.740794    0.740794    0.000000    0.000000    0.000000
   29.514223    0.737814    0.737814    0.737814    0.000000   -0.000000    0.000000
   30.498031    0.741517    0.741517    0.741517   -0.000000    0.000000    0.000000
   31.481838    0.834047    0.834047    0.834047    0.000000   -0.000000    0.000000
   32.465646    0.822375    0.822375    0.822375    0.000000    0.000000    0.000000
   33.449453    0.850333    0.850333    0.850333    0.000000   -0.000000    0.000000
   34.433260    0.881612    0.881612    0.881612    0.000000    0.000000    0.000000
   35.417068    0.883464    0.883464    0.883464    0.000000    0.000000    0.000000
   36.400875    0.902281    0.902281    0.902281    0.000000    0.000000    0.000000
   37.384683    0.922792    0.922792    0.922792    0.000000   -0.000000   -0.000000
   38.368490    0.914622    0.914622    0.914622    0.000000   -0.000000   -0.000000
   39.352298    0.933458    0.933458    0.933458    0.000000   -0.000000    0.000000
   40.336105    0.949383    0.949383    0.949383    0.000000    0.000000    0.000000
   41.319912    0.964843    0.964843    0.964843    0.000000    0.000000    0.000000
   42.303720    0.976413    0.976413    0.976413    0.000000    0.000000    0.000000
   43.287527    0.995489    0.995489    0.995489   -0.000000   -0.000000   -0.000000
   44.271335    1.006935    1.006935    1.006935    0.000000   -0.000000    0.000000
   45.255142    1.018964    1.018964    1.018964   -0.000000   -0.000000   -0.000000
   46.238950    1.045576    1.045576    1.045576   -0.000000   -0.000000   -0.000000
   47.222757    1.028854    1.028854    1.028854   -0.000000   -0.000000   -0.000000
   48.206565    1.070957    1.070957    1.070957   -0.000000   -0.000000   -0.000000
   49.190372    1.087942    1.087942    1.087942    0.000000    0.000000    0.000000
   50.174179    1.068032    1.068032    1.068032   -0.000000   -0.000000   -0.000000
   51.157987    1.097315    1.097315    1.097315   -0.000000   -0.000000   -0.000000
   52.141794    1.109251    1.109251    1.109251    0.000000   -0.000000    0.000000
   53.125602    1.085601    1.085601    1.085601   -0.000000   -0.000000   -0.000000
   54.109409    1.155505    1.155505    1.155505   -0.000000    0.000000    0.000000
   55.093217    1.365680    1.365680    1.365680   -0.000000   -0.000000   -0.000000
   56.077024    1.196588    1.196588    1.196588   -0.000000   -0.000000   -0.000000
   57.060832    0.874623    0.874623    0.874623   -0.000000   -0.000000   -0.000000
   58.044639    1.025294    1.025293    1.025293    0.000002    0.000001    0.000002
[...]
   83.623632    0.881294    0.881294    0.881294   -0.000000   -0.000000   -0.000000
   84.607440    0.889344    0.889344    0.889344   -0.000000   -0.000000   -0.000000
   85.591247    0.895924    0.895924    0.895924   -0.000000   -0.000000   -0.000000
   86.575055    0.901541    0.901541    0.901541   -0.000000   -0.000000   -0.000000
   87.558862    0.906455    0.906455    0.906455   -0.000000   -0.000000   -0.000000
   88.542670    0.910826    0.910826    0.910826   -0.000000   -0.000000   -0.000000
   89.526477    0.914759    0.914759    0.914759   -0.000000   -0.000000   -0.000000
   90.510285    0.918331    0.918331    0.918331   -0.000000   -0.000000   -0.000000
   91.494092    0.921598    0.921598    0.921598   -0.000000   -0.000000   -0.000000
   92.477899    0.924604    0.924604    0.924604   -0.000000   -0.000000   -0.000000
   93.461707    0.927383    0.927383    0.927383   -0.000000   -0.000000   -0.000000
   94.445514    0.929964    0.929964    0.929964   -0.000000   -0.000000   -0.000000
   95.429322    0.932370    0.932370    0.932370   -0.000000   -0.000000   -0.000000
   96.413129    0.934621    0.934621    0.934621   -0.000000   -0.000000   -0.000000
   97.396937    0.936731    0.936731    0.936731   -0.000000   -0.000000   -0.000000

 The outermost node in the dielectric function lies at epsilon=  19.1

 Spin-Orbit-Coupling matrix elements

 Ion:    1  E_soc:     -3.6825083
 l=   1
     0.0000000    -0.4908314    -0.4908314
    -0.4908314     0.0000000    -0.4908314
    -0.4908314    -0.4908314     0.0000000
 l=   2
     0.0000000    -0.0245830     0.0000000    -0.0245830    -0.0983379
    -0.0245830     0.0000000    -0.0737534    -0.0245815    -0.0245830
     0.0000000    -0.0737534     0.0000000    -0.0737534     0.0000000
    -0.0245830    -0.0245815    -0.0737534     0.0000000    -0.0245830
    -0.0983379    -0.0245830     0.0000000    -0.0245830     0.0000000
 l=   3
     0.0000000    -0.0000000     0.0000000     0.0000000     0.0000000    -0.0000000    -0.0000004
    -0.0000000     0.0000000    -0.0000001     0.0000000    -0.0000001    -0.0000001    -0.0000001
     0.0000000    -0.0000001     0.0000000    -0.0000002    -0.0000001    -0.0000001     0.0000000
     0.0000000     0.0000000    -0.0000002     0.0000000    -0.0000002     0.0000000     0.0000000
     0.0000000    -0.0000001    -0.0000001    -0.0000002     0.0000000    -0.0000001     0.0000000
    -0.0000000    -0.0000001    -0.0000001     0.0000000    -0.0000001     0.0000000    -0.0000001
    -0.0000004    -0.0000001     0.0000000     0.0000000     0.0000000    -0.0000001     0.0000000