 vasp.5.4.4.18Apr17-6-g9f103f2a35 (build Nov 03 2018 10:20:46) complex

 executed on             LinuxIFC date 2018.11.30  11:23:33

 INCAR:
 POTCAR:    PAW Og, JanMewes Oct 18

 POTCAR:    PAW Og, JanMewes Oct 18
   VRHFIN =Og : 10d 2s 6p, PE

   TITEL  = PAW Og, JanMewes Oct 18
   POMASS =    0.010; ZVAL   =   18.000    mass and valenz
   ENMAX  =  339.336; ENMIN  =  254.502 eV
   QCUT   =   -4.994; QGAM   =    9.988    optimization parameters

  PAW Og, JanMewes Oct 18               :

 POSCAR: Og_FCC
  positions in direct lattice
  velocities in cartesian coordinates

 METAGGA = SCAN     LMAXTAU =  0    LMIXTAU =  F

 ion  position               nearest neighbor table
   1  0.000  0.000  0.000-

  LATTYP: Found a face centered cubic cell.
 ALAT       =     6.2840939811

  Lattice vectors:

 A1 = (   4.4435254675,   0.0000000000,   0.0000000000)
 A2 = (   2.2217627338,   3.8482059372,  -0.0000000000)
 A3 = (   2.2217627338,   1.2827353124,   3.6281233516)

Analysis of symmetry for initial positions (statically):
 Subroutine PRICEL returns:
 Original cell was already a primitive cell.

 Routine SETGRP: Setting up the symmetry group for a
 face centered cubic supercell.

 Subroutine GETGRP returns: Found 48 space group operations
 (whereof 48 operations were pure point group operations)
 out of a pool of 48 trial point group operations.

The static configuration has the point symmetry O_h .

Analysis of symmetry for dynamics (positions and initial velocities):
 Subroutine PRICEL returns:
 Original cell was already a primitive cell.

[...]

The dynamic configuration has the point symmetry O_h .

Analysis of structural, dynamic, and magnetic symmetry:
 Subroutine PRICEL returns:
 Original cell was already a primitive cell.

 Routine SETGRP: Setting up the symmetry group for a
 face centered cubic supercell.

 Subroutine GETGRP returns: Found  2 space group operations
 (whereof  2 operations were pure point group operations)
 out of a pool of 48 trial point group operations.

The (compounded) configuration has the point symmetry S_2 .

 Subroutine INISYM returns: Found  2 space group operations
 (whereof  2 operations are pure point group operations),
 and found     1 'primitive' translations

Automatic generation of k-mesh.
 generate k-points for:    9    9    9
Space group operators:
 irot       det(A)        alpha          n_x          n_y          n_z        tau_x        tau_y        tau_z
    1     1.000000     0.000000     1.000000     0.000000     0.000000     0.000000     0.000000     0.000000
    2    -1.000000     0.000000     1.000000     0.000000     0.000000     0.000000     0.000000     0.000000

 Subroutine IBZKPT returns following result:

 Found    365 irreducible k-points:

 Following reciprocal coordinates:
            Coordinates               Weight
  0.000000  0.000000  0.000000      1.000000
  0.111111  0.000000 -0.000000      2.000000
  0.222222  0.000000 -0.000000      2.000000
  0.333333  0.000000  0.000000      2.000000
  0.444444  0.000000 -0.000000      2.000000
  0.000000  0.111111  0.000000      2.000000
  0.111111  0.111111 -0.000000      2.000000
  0.222222  0.111111  0.000000      2.000000
  0.333333  0.111111 -0.000000      2.000000
  0.444444  0.111111 -0.000000      2.000000
 -0.444444  0.111111  0.000000      2.000000
 -0.333333  0.111111  0.000000      2.000000
 -0.222222  0.111111  0.000000      2.000000
 -0.111111  0.111111  0.000000      2.000000
 -0.000000  0.222222  0.000000      2.000000
  0.111111  0.222222 -0.000000      2.000000
  0.222222  0.222222  0.000000      2.000000
  0.333333  0.222222 -0.000000      2.000000
  0.444444  0.222222  0.000000      2.000000
 -0.444444  0.222222  0.000000      2.000000
 -0.333333  0.222222  0.000000      2.000000
 -0.222222  0.222222  0.000000      2.000000
 -0.111111  0.222222  0.000000      2.000000
 -0.000000  0.333333  0.000000      2.000000
  0.111111  0.333333  0.000000      2.000000
  0.222222  0.333333 -0.000000      2.000000
  0.333333  0.333333 -0.000000      2.000000
  0.444444  0.333333 -0.000000      2.000000
 -0.444444  0.333333  0.000000      2.000000
 -0.333333  0.333333  0.000000      2.000000
 -0.222222  0.333333  0.000000      2.000000
 -0.111111  0.333333  0.000000      2.000000
 -0.000000  0.444444  0.000000      2.000000
  0.111111  0.444444  0.000000      2.000000
  0.222222  0.444444  0.000000      2.000000
  0.333333  0.444444  0.000000      2.000000
  0.444444  0.444444  0.000000      2.000000
 -0.444444  0.444444  0.000000      2.000000
 -0.333333  0.444444  0.000000      2.000000
 -0.222222  0.444444 -0.000000      2.000000
 -0.111111  0.444444  0.000000      2.000000
  0.000000 -0.000000  0.111111      2.000000
  0.111111  0.000000  0.111111      2.000000
  0.222222 -0.000000  0.111111      2.000000
  0.333333  0.000000  0.111111      2.000000
  0.444444  0.000000  0.111111      2.000000
 -0.444444 -0.000000  0.111111      2.000000
 -0.333333 -0.000000  0.111111      2.000000
 -0.222222 -0.000000  0.111111      2.000000
 -0.111111 -0.000000  0.111111      2.000000
  0.000000  0.111111  0.111111      2.000000
  0.111111  0.111111  0.111111      2.000000
  0.222222  0.111111  0.111111      2.000000
  0.333333  0.111111  0.111111      2.000000
  0.444444  0.111111  0.111111      2.000000
 -0.444444  0.111111  0.111111      2.000000
 -0.333333  0.111111  0.111111      2.000000
 -0.222222  0.111111  0.111111      2.000000
 -0.111111  0.111111  0.111111      2.000000
 -0.000000  0.222222  0.111111      2.000000
[...]
  0.333333 -0.222222  0.444444      2.000000
  0.444444 -0.222222  0.444444      2.000000
 -0.444444 -0.222222  0.444444      2.000000
 -0.333333 -0.222222  0.444444      2.000000
 -0.222222 -0.222222  0.444444      2.000000
 -0.111111 -0.222222  0.444444      2.000000
  0.000000 -0.111111  0.444444      2.000000
  0.111111 -0.111111  0.444444      2.000000
  0.222222 -0.111111  0.444444      2.000000
  0.333333 -0.111111  0.444444      2.000000
  0.444444 -0.111111  0.444444      2.000000
 -0.444444 -0.111111  0.444444      2.000000
 -0.333333 -0.111111  0.444444      2.000000
 -0.222222 -0.111111  0.444444      2.000000
 -0.111111 -0.111111  0.444444      2.000000

 Following cartesian coordinates:
            Coordinates               Weight
  0.000000  0.000000  0.000000      1.000000
  0.025255 -0.014581 -0.010310      2.000000
  0.050510 -0.029162 -0.020621      2.000000
  0.075766 -0.043743 -0.030931      2.000000
  0.101021 -0.058324 -0.041242      2.000000
  0.000000  0.029162 -0.010310      2.000000
  0.025255  0.014581 -0.020621      2.000000
  0.050510 -0.000000 -0.030931      2.000000
  0.075766 -0.014581 -0.041242      2.000000
  0.101021 -0.029162 -0.051552      2.000000
 -0.101021  0.087487  0.030931      2.000000
 -0.075766  0.072906  0.020621      2.000000
 -0.050510  0.058324  0.010310      2.000000
 -0.025255  0.043743 -0.000000      2.000000
  0.000000  0.058324 -0.020621      2.000000
  0.025255  0.043743 -0.030931      2.000000
  0.050510  0.029162 -0.041242      2.000000
  0.075766  0.014581 -0.051552      2.000000
  0.101021  0.000000 -0.061862      2.000000
 -0.101021  0.116649  0.020621      2.000000
 -0.075766  0.102068  0.010310      2.000000
 -0.050510  0.087487  0.000000      2.000000
 -0.025255  0.072906 -0.010310      2.000000
  0.000000  0.087487 -0.030931      2.000000
  0.025255  0.072906 -0.041242      2.000000
  0.050510  0.058324 -0.051552      2.000000
  0.075766  0.043743 -0.061862      2.000000
  0.101021  0.029162 -0.072173      2.000000
 -0.101021  0.145811  0.010310      2.000000
 -0.075766  0.131230  0.000000      2.000000
 -0.050510  0.116649 -0.010310      2.000000
 -0.025255  0.102068 -0.020621      2.000000
  0.000000  0.116649 -0.041242      2.000000
  0.025255  0.102068 -0.051552      2.000000
  0.050510  0.087487 -0.061862      2.000000
  0.075766  0.072906 -0.072173      2.000000
  0.101021  0.058324 -0.082483      2.000000
 -0.101021  0.174973  0.000000      2.000000
 -0.075766  0.160392 -0.010310      2.000000
 -0.050510  0.145811 -0.020621      2.000000
 -0.025255  0.131230 -0.030931      2.000000
 -0.000000  0.000000  0.030931      2.000000
  0.025255 -0.014581  0.020621      2.000000
  0.050510 -0.029162  0.010310      2.000000
  0.075766 -0.043743 -0.000000      2.000000
  0.101021 -0.058324 -0.010310      2.000000
 -0.101021  0.058324  0.072173      2.000000
 -0.075766  0.043743  0.061862      2.000000
 -0.050510  0.029162  0.051552      2.000000
 -0.025255  0.014581  0.041242      2.000000
 -0.000000  0.029162  0.020621      2.000000
  0.025255  0.014581  0.010310      2.000000
  0.050510 -0.000000 -0.000000      2.000000
  0.075766 -0.014581 -0.010310      2.000000
  0.101021 -0.029162 -0.020621      2.000000
 -0.101021  0.087487  0.061862      2.000000
 -0.075766  0.072906  0.051552      2.000000
 -0.050510  0.058324  0.041242      2.000000
 -0.025255  0.043743  0.030931      2.000000
 -0.000000  0.058324  0.010310      2.000000
[...]
  0.075766 -0.102068  0.113414      2.000000
  0.101021 -0.116649  0.103104      2.000000
 -0.101021  0.000000  0.185587      2.000000
 -0.075766 -0.014581  0.175277      2.000000
 -0.050510 -0.029162  0.164966      2.000000
 -0.025255 -0.043743  0.154656      2.000000
 -0.000000 -0.029162  0.134035      2.000000
  0.025255 -0.043743  0.123725      2.000000
  0.050510 -0.058324  0.113414      2.000000
  0.075766 -0.072906  0.103104      2.000000
  0.101021 -0.087487  0.092794      2.000000
 -0.101021  0.029162  0.175277      2.000000
 -0.075766  0.014581  0.164966      2.000000
 -0.050510  0.000000  0.154656      2.000000
 -0.025255 -0.014581  0.144346      2.000000

 SYSTEM =  Og_FCC
 POSCAR =  Og_FCC

 Startparameter for this run:
   NWRITE =      2    write-flag & timer
   PREC   = accura    normal or accurate (medium, high low for compatibility)
   ISTART =      0    job   : 0-new  1-cont  2-samecut
   ICHARG =      2    charge: 1-file 2-atom 10-const
   ISPIN  =      1    spin polarized calculation?
   LNONCOLLINEAR =      T non collinear calculations
   LSORBIT =      T    spin-orbit coupling
   INIWAV =      1    electr: 0-lowe 1-rand  2-diag
   LASPH  =      F    aspherical Exc in radial PAW
   METAGGA=      F    non-selfconsistent MetaGGA calc.

 Electronic Relaxation 1
   ENCUT  =  600.0 eV  44.10 Ry    6.64 a.u.   8.87  8.87  8.87*2*pi/ulx,y,z
   ENINI  =  600.0     initial cutoff
   ENAUG  =  361.0 eV  augmentation charge cutoff
   NELM   =    100;   NELMIN=  5; NELMDL= -5     # of ELM steps
   EDIFF  = 0.1E-06   stopping-criterion for ELM
   LREAL  =      F    real-space projection
   NLSPLINE    = F    spline interpolate recip. space projectors
   LCOMPAT=      F    compatible to vasp.4.4
   GGA_COMPAT  = F    GGA compatible to vasp.4.4-vasp.4.6
   LMAXPAW     = -100 max onsite density
   LMAXMIX     =    2 max onsite mixed and CHGCAR
   VOSKOWN=      0    Vosko Wilk Nusair interpolation
   ROPT   =    0.00000
 Ionic relaxation
   EDIFFG = 0.1E-04   stopping-criterion for IOM
   NSW    =      1    number of steps for IOM
   NBLOCK =      1;   KBLOCK =      1    inner block; outer block
   IBRION =     -1    ionic relax: 0-MD 1-quasi-New 2-CG
[...]
 k-point 55 :   0.4444 0.1111 0.1111  plane waves:    4122
 k-point 56 :  -0.4444 0.1111 0.1111  plane waves:    4140
 k-point 57 :  -0.3333 0.1111 0.1111  plane waves:    4146
 k-point 58 :  -0.2222 0.1111 0.1111  plane waves:    4124
 k-point 59 :  -0.1111 0.1111 0.1111  plane waves:    4124
 k-point 60 :  -0.0000 0.2222 0.1111  plane waves:    4124
[...]
 k-point 85 :  -0.2222 0.4444 0.1111  plane waves:    4164
 k-point 86 :  -0.1111 0.4444 0.1111  plane waves:    4130
 k-point 87 :   0.0000-0.4444 0.1111  plane waves:    4140
 k-point 88 :   0.1111-0.4444 0.1111  plane waves:    4140
 k-point 89 :   0.2222-0.4444 0.1111  plane waves:    4130
 k-point 90 :   0.3333-0.4444 0.1111  plane waves:    4154
 k-point 91 :   0.4444-0.4444 0.1111  plane waves:    4162
 k-point 92 :  -0.4444-0.4444 0.1111  plane waves:    4160
 k-point 93 :  -0.3333-0.4444 0.1111  plane waves:    4162
 k-point 94 :  -0.2222-0.4444 0.1111  plane waves:    4154
 k-point 95 :  -0.1111-0.4444 0.1111  plane waves:    4130
 k-point 96 :  -0.0000-0.3333 0.1111  plane waves:    4122
 k-point 97 :   0.1111-0.3333 0.1111  plane waves:    4146
 k-point 98 :   0.2222-0.3333 0.1111  plane waves:    4130
 k-point 99 :   0.3333-0.3333 0.1111  plane waves:    4164
 k-point ** :   0.4444-0.3333 0.1111  plane waves:    4162
 k-point ** :  -0.4444-0.3333 0.1111  plane waves:    4162
 k-point ** :  -0.3333-0.3333 0.1111  plane waves:    4134
 k-point ** :  -0.2222-0.3333 0.1111  plane waves:    4148
 k-point ** :  -0.1111-0.3333 0.1111  plane waves:    4130
 k-point ** :  -0.0000-0.2222 0.1111  plane waves:    4118
 k-point ** :   0.1111-0.2222 0.1111  plane waves:    4124
 k-point ** :   0.2222-0.2222 0.1111  plane waves:    4130
 k-point ** :   0.3333-0.2222 0.1111  plane waves:    4150
 k-point ** :   0.4444-0.2222 0.1111  plane waves:    4164
 k-point ** :  -0.4444-0.2222 0.1111  plane waves:    4154
 k-point ** :  -0.3333-0.2222 0.1111  plane waves:    4148
 k-point ** :  -0.2222-0.2222 0.1111  plane waves:    4114
 k-point ** :  -0.1111-0.2222 0.1111  plane waves:    4128
 k-point ** :  -0.0000-0.1111 0.1111  plane waves:    4118
 k-point ** :   0.1111-0.1111 0.1111  plane waves:    4124
 k-point ** :   0.2222-0.1111 0.1111  plane waves:    4128
 k-point ** :   0.3333-0.1111 0.1111  plane waves:    4130
 k-point ** :   0.4444-0.1111 0.1111  plane waves:    4130
 k-point ** :  -0.4444-0.1111 0.1111  plane waves:    4130
 k-point ** :  -0.3333-0.1111 0.1111  plane waves:    4130
 k-point ** :  -0.2222-0.1111 0.1111  plane waves:    4128
 k-point ** :  -0.1111-0.1111 0.1111  plane waves:    4124
 k-point ** :   0.0000 0.0000 0.2222  plane waves:    4146
 k-point ** :   0.1111 0.0000 0.2222  plane waves:    4124
 k-point ** :   0.2222 0.0000 0.2222  plane waves:    4106
 k-point ** :   0.3333 0.0000 0.2222  plane waves:    4114
 k-point ** :   0.4444-0.0000 0.2222  plane waves:    4154
 k-point ** :  -0.4444-0.0000 0.2222  plane waves:    4150
 k-point ** :  -0.3333-0.0000 0.2222  plane waves:    4134
 k-point ** :  -0.2222 0.0000 0.2222  plane waves:    4150
 k-point ** :  -0.1111-0.0000 0.2222  plane waves:    4118
 k-point ** :   0.0000 0.1111 0.2222  plane waves:    4124
 k-point ** :   0.1111 0.1111 0.2222  plane waves:    4118
 k-point ** :   0.2222 0.1111 0.2222  plane waves:    4124
 k-point ** :   0.3333 0.1111 0.2222  plane waves:    4128
 k-point ** :   0.4444 0.1111 0.2222  plane waves:    4130
 k-point ** :  -0.4444 0.1111 0.2222  plane waves:    4130
 k-point ** :  -0.3333 0.1111 0.2222  plane waves:    4130
 k-point ** :  -0.2222 0.1111 0.2222  plane waves:    4130
 k-point ** :  -0.1111 0.1111 0.2222  plane waves:    4128
 k-point ** :   0.0000 0.2222 0.2222  plane waves:    4106
 k-point ** :   0.1111 0.2222 0.2222  plane waves:    4124
 k-point ** :   0.2222 0.2222 0.2222  plane waves:    4146
 k-point ** :   0.3333 0.2222 0.2222  plane waves:    4118
 k-point ** :   0.4444 0.2222 0.2222  plane waves:    4150
 k-point ** :  -0.4444 0.2222 0.2222  plane waves:    4134
 k-point ** :  -0.3333 0.2222 0.2222  plane waves:    4150
 k-point ** :  -0.2222 0.2222 0.2222  plane waves:    4154
 k-point ** :  -0.1111 0.2222 0.2222  plane waves:    4114
 k-point ** :   0.0000 0.3333 0.2222  plane waves:    4114
 k-point ** :   0.1111 0.3333 0.2222  plane waves:    4128
 k-point ** :   0.2222 0.3333 0.2222  plane waves:    4118
 k-point ** :   0.3333 0.3333 0.2222  plane waves:    4124
 k-point ** :   0.4444 0.3333 0.2222  plane waves:    4130
 k-point ** :  -0.4444 0.3333 0.2222  plane waves:    4150
 k-point ** :  -0.3333 0.3333 0.2222  plane waves:    4164
 k-point ** :  -0.2222 0.3333 0.2222  plane waves:    4154
 k-point ** :  -0.1111 0.3333 0.2222  plane waves:    4148
 k-point ** :  -0.0000 0.4444 0.2222  plane waves:    4154
[...]
 k-point ** :   0.3333-0.2222 0.4444  plane waves:    4162
 k-point ** :   0.4444-0.2222 0.4444  plane waves:    4158
 k-point ** :  -0.4444-0.2222 0.4444  plane waves:    4154
 k-point ** :  -0.3333-0.2222 0.4444  plane waves:    4150
 k-point ** :  -0.2222-0.2222 0.4444  plane waves:    4134
 k-point ** :  -0.1111-0.2222 0.4444  plane waves:    4130
 k-point ** :   0.0000-0.1111 0.4444  plane waves:    4140
 k-point ** :   0.1111-0.1111 0.4444  plane waves:    4130
 k-point ** :   0.2222-0.1111 0.4444  plane waves:    4154
 k-point ** :   0.3333-0.1111 0.4444  plane waves:    4162
 k-point ** :   0.4444-0.1111 0.4444  plane waves:    4160
 k-point ** :  -0.4444-0.1111 0.4444  plane waves:    4162
 k-point ** :  -0.3333-0.1111 0.4444  plane waves:    4154
 k-point ** :  -0.2222-0.1111 0.4444  plane waves:    4130
 k-point ** :  -0.1111-0.1111 0.4444  plane waves:    4140

 maximum and minimum number of plane-waves per node :      1098      946

 maximum number of plane-waves:      4170
 maximum index in each direction:
   IXMAX=    9   IYMAX=    9   IZMAX=    8
   IXMIN=   -9   IYMIN=   -9   IZMIN=   -9

 parallel 3D FFT for wavefunctions:
    minimum data exchange during FFTs selected (reduces bandwidth)
 parallel 3D FFT for charge:
    minimum data exchange during FFTs selected (reduces bandwidth)

 Broyden mixing: mesh for mixing (old mesh)
   NGX = 17   NGY = 17   NGZ = 17
  (NGX  = 72   NGY  = 72   NGZ  = 72)
  gives a total of   4913 points

 initial charge density was supplied:
 charge density of overlapping atoms calculated
 number of electron      18.0000000 magnetization       1.0000000      1.0000000      1.0000000
 keeping initial charge density in first step

 Maximum index for augmentation-charges        87475 (set IRDMAX)

 First call to EWALD:  gamma=   0.448
 Maximum number of real-space cells 3x 3x 3
 Maximum number of reciprocal cells 3x 3x 3

--------------------------------------- Iteration      1(   1)  ---------------------------------------

 eigenvalue-minimisations  : 20912
 total energy-change (2. order) : 0.1529325E+03  (-0.9675920E+03)
 number of electron      18.0000000 magnetization       1.0000000      1.0000000      1.0000000
 augmentation part       18.0000000 magnetization       1.0000000      1.0000000      1.0000000

 Free energy of the ion-electron system (eV)
  alpha Z        PSCENC =        61.49725476
  Ewald energy   TEWEN  =     -1701.98093727
  -Hartree energ DENC   =      -686.13321964
  -exchange      EXHF   =         0.00000000
  -V(xc)+E(xc)   XCENC  =       -43.20293453
  PAW double counting   =      2249.54693127    -2316.95582243
  entropy T*S    EENTRO =        -0.00007794
  eigenvalues    EBANDS =       -50.36740818
  atomic energy  EATOM  =      2640.52872706
  Solvation  Ediel_sol  =         0.00000000
  free energy    TOTEN  =       152.93251311 eV

  energy without entropy =      152.93259105  energy(sigma->0) =      152.93253909

[...]

 eigenvalue-minimisations  : 25984
 total energy-change (2. order) :-0.2939547E+03  (-0.2860716E+03)
 number of electron      18.0000000 magnetization       1.0000000      1.0000000      1.0000000
 augmentation part       18.0000000 magnetization       1.0000000      1.0000000      1.0000000

[...]

 Broyden mixing:
  rms(total) = 0.64750E+00    rms(broyden)= 0.64744E+00
  rms(prec ) = 0.97518E+00
  weight for this iteration     100.00

[...]

 eigenvalues of (default mixing * dielectric matrix)
  average eigenvalue GAMMA=   0.7512
  0.7512

[...]

WARNING in EDDRMM: call to ZHEGV failed, returncode =   6  3     15

[...]

 eigenvalue-minimisations  : 31744
 total energy-change (2. order) :-0.5357506E-06  (-0.7692095E-05)
 number of electron      18.0000000 magnetization       0.0002413      0.0003788      0.0003759
 augmentation part        2.8002039 magnetization       0.0002668      0.0004305      0.0004246

[...]

WARNING in EDDRMM: call to ZHEGV failed, returncode =   8  4     15
WARNING in EDDRMM: call to ZHEGV failed, returncode =   6  3     15

[...]

 Broyden mixing:
  rms(total) = 0.43300E-04    rms(broyden)= 0.43300E-04
  rms(prec ) = 0.44040E-04
  weight for this iteration     100.00

 eigenvalues of (default mixing * dielectric matrix)
  average eigenvalue GAMMA=   1.0241
  3.2139  2.4485  2.2600  2.2600  1.1907  0.9710  0.9710  1.0341  1.0341  0.8175
  0.6610  0.6610  0.3104  0.3104  0.7203  0.6246  0.6246  0.3629  0.5725  0.5176
  0.5176  0.4475

[...]

--------------------------------------- Iteration      1(  28)  ---------------------------------------

 eigenvalue-minimisations  : 19276
 total energy-change (2. order) : 0.5791799E-07  (-0.5396944E-08)
 number of electron      18.0000000 magnetization       0.0000046     -0.0000069     -0.0000066
 augmentation part        2.8004033 magnetization       0.0000101     -0.0000056     -0.0000052

 Free energy of the ion-electron system (eV)
  alpha Z        PSCENC =        61.49725476
  Ewald energy   TEWEN  =     -1701.98093727
  -Hartree energ DENC   =      -697.94104884
  -exchange      EXHF   =         0.00000000
  -V(xc)+E(xc)   XCENC  =       -50.84696600
  PAW double counting   =      2393.86029946    -2469.90491440
  entropy T*S    EENTRO =         0.00010837
  eigenvalues    EBANDS =      -325.12639908
  atomic energy  EATOM  =      2640.52872706
  Solvation  Ediel_sol  =         0.00000000
  free energy    TOTEN  =      -149.91387595 eV

  energy without entropy =     -149.91398432  energy(sigma->0) =     -149.91391208

 average (electrostatic) potential at core
  the test charge radii are     1.2024
  (the norm of the test charge is              1.0000)
       1-112.8861

 E-fermi :   2.8854     XC(G=0):  -8.3053     alpha+bet : -7.0733

 k-point     1 :       0.0000    0.0000    0.0000
  band No.  band energies     occupation
      1     -31.2565      1.00000
      2     -31.2565      1.00000
      3     -31.2565      1.00000
      4     -31.2565      1.00000
      5     -24.5668      1.00000
      6     -24.5668      1.00000
      7     -24.5636      1.00000
      8     -24.5636      1.00000
      9     -24.5636      1.00000
     10     -24.5636      1.00000
     11     -20.9186      1.00000
     12     -20.9185      1.00000
     13      -7.2013      1.00000
     14      -7.2013      1.00000
     15       2.8371      0.86053
     16       2.8371      0.86043
     17       2.8372      0.86023
     18       2.8372      0.86014
     19       3.1647     -0.00028
     20       3.1647     -0.00028
     21      10.2151      0.00000
     22      10.2151      0.00000
     23      10.2151      0.00000
     24      10.2151      0.00000
     25      10.6305      0.00000
     26      10.6305      0.00000
     27      10.8508      0.00000
     28      10.8508      0.00000

[...]

 k-point   365 :      -0.1111   -0.1111    0.4444
  band No.  band energies     occupation
      1     -31.2557      1.00000
      2     -31.2556      1.00000
      3     -31.2540      1.00000
      4     -31.2539      1.00000
      5     -24.5651      1.00000
      6     -24.5651      1.00000
      7     -24.5597      1.00000
      8     -24.5597      1.00000
      9     -24.5574      1.00000
     10     -24.5574      1.00000
     11     -20.8202      1.00000
     12     -20.8201      1.00000
     13      -7.5551      1.00000
     14      -7.5551      1.00000
     15       0.0049      1.00000
     16       0.0049      1.00000
     17       2.0241      1.00000
     18       2.0242      1.00000
     19       6.1356      0.00000
     20       6.1357      0.00000
     21       8.7742      0.00000
     22       8.7742      0.00000
     23      10.0659      0.00000
     24      10.0659      0.00000
     25      10.8172      0.00000
     26      10.8172      0.00000
     27      12.0008      0.00000
     28      12.0008      0.00000

 soft charge-density along one line, spin component           1
         0         1         2         3         4         5         6         7         8         9
 total charge-density along one line

[...]

 soft charge-density along one line, spin component           4
         0         1         2         3         4         5         6         7         8         9
 total charge-density along one line

------------------------ aborting loop because EDIFF is reached ----------------------------------------

  FORCE on cell =-STRESS in cart. coord.  units (eV):
  Direction    XX          YY          ZZ          XY          YZ          ZX
  Alpha Z    61.49725    61.49725    61.49725
  Ewald    -567.32700  -567.32700  -567.32700    -0.00000    -0.00000     0.00000
  Hartree   232.64696   232.64695   232.64695     0.00001     0.00000     0.00000
  E(xc)    -112.58150  -112.58150  -112.58150    -0.00000    -0.00000    -0.00000
  Local    -186.07088  -186.07088  -186.07088    -0.00001    -0.00001    -0.00000
  n-local   102.99562   102.99560   102.99560    -0.00001    -0.00003    -0.00002
  augment    71.63665    71.63666    71.63666    -0.00001    -0.00000    -0.00000
  Kinetic   397.10232   397.10233   397.10233     0.00002     0.00003     0.00002
  Fock        0.00000     0.00000     0.00000     0.00000     0.00000     0.00000
  Total      -0.10058    -0.10058    -0.10058     0.00000    -0.00001     0.00000
  in kB      -2.59742    -2.59756    -2.59757     0.00003    -0.00021     0.00001

 VOLUME and BASIS-vectors are now :
  energy-cutoff  :      600.00
  volume of cell :       62.04
      direct lattice vectors                 reciprocal lattice vectors
     4.443525468  0.000000000  0.000000000     0.225046533 -0.129930676 -0.091874862
     2.221762734  3.848205937 -0.000000000     0.000000000  0.259861353 -0.091874862
     2.221762734  1.282735312  3.628123352    -0.000000000  0.000000000  0.275624587

  length of vectors
     4.443525468  4.443525467  4.443525468     0.275624587  0.275624587  0.275624587

 FORCES acting on ions
    electron-ion (+dipol)            ewald-force                    non-local-force                 convergence-correction
   0.155E-13 0.395E-13 -.670E-14   0.181E-14 0.186E-15 0.260E-14   0.371E-21 0.212E-21 0.000E+00   -.270E-12 -.378E-13 -.151E-12
   0.152E-13 0.373E-13 -.543E-14   0.181E-14 0.186E-15 0.260E-14   0.371E-21 0.212E-21 0.000E+00   -.270E-12 -.378E-13 -.151E-12

 POSITION                                       TOTAL-FORCE (eV/Angst)
      0.00000      0.00000      0.00000         0.000000      0.000000      0.000000
    total drift:                               -0.000000     -0.000000     -0.000000

  FREE ENERGIE OF THE ION-ELECTRON SYSTEM (eV)
  free  energy   TOTEN  =      -149.91387595 eV

  energy  without entropy=     -149.91398432  energy(sigma->0) =     -149.91391208

 Spin-Orbit-Coupling matrix elements

 Ion:    1  E_soc:    -32.4503684
 l=   1
     0.0000000    -4.9824545    -4.9824538
    -4.9824545     0.0000000    -4.9824541
    -4.9824538    -4.9824541     0.0000000
 l=   2
     0.0000000    -0.0851910     0.0000000    -0.0851910    -0.3407447
    -0.0851910     0.0000000    -0.2555586    -0.0851958    -0.0851910
     0.0000000    -0.2555586     0.0000000    -0.2555585     0.0000000
    -0.0851910    -0.0851958    -0.2555585     0.0000000    -0.0851910
    -0.3407447    -0.0851910     0.0000000    -0.0851910     0.0000000
 l=   3
     0.0000000     0.0000000     0.0000000     0.0000000     0.0000000     0.0000000     0.0000000
     0.0000000     0.0000000     0.0000000     0.0000000     0.0000000     0.0000000     0.0000000
     0.0000000     0.0000000     0.0000000     0.0000000     0.0000000     0.0000000     0.0000000
     0.0000000     0.0000000     0.0000000     0.0000000     0.0000000     0.0000000     0.0000000
     0.0000000     0.0000000     0.0000000     0.0000000     0.0000000     0.0000000     0.0000000
     0.0000000     0.0000000     0.0000000     0.0000000     0.0000000     0.0000000     0.0000000
     0.0000000     0.0000000     0.0000000     0.0000000     0.0000000     0.0000000     0.0000000