 vasp.5.4.4.18Apr17-6-g9f103f2a35 (build Nov 03 2018 10:20:46) complex

 executed on             LinuxIFC date 2018.12.14  08:01:30

 INCAR:
 POTCAR:    PAW_PBE He_GW 13May2007

 POTCAR:    PAW_PBE He_GW 13May2007
   VRHFIN =He: 1s

   TITEL  = PAW_PBE He_GW 13May2007
   POMASS =    4.000; ZVAL   =    2.000    mass and valenz
   ENMAX  =  405.780; ENMIN  =  304.335 eV

  PAW_PBE He_GW 13May2007               :

 POSCAR: He_FCC
  positions in direct lattice
  velocities in cartesian coordinates
 exchange correlation table for  LEXCH =        8
   RHO(1)=    0.500       N(1)  =     2000
   RHO(2)=  100.500       N(2)  =     4000

 ion  position               nearest neighbor table
   1  0.000  0.000  0.000-

IMPORTANT INFORMATION: All symmetrisations will be switched off!
NOSYMM: (Re-)initialisation of all symmetry stuff for point group C_1.

 KPOINTS: k-points

Automatic generation of k-mesh.
Space group operators:
 irot       det(A)        alpha          n_x          n_y          n_z        tau_x        tau_y        tau_z
    1     1.000000     0.000000     1.000000     0.000000     0.000000     0.000000     0.000000     0.000000

 Subroutine IBZKPT returns following result:

 Found    172 irreducible k-points:

 Following reciprocal coordinates:
            Coordinates               Weight
  0.000000  0.000000  0.000000      1.000000
  0.142857  0.000000  0.000000      2.000000
  0.285714  0.000000  0.000000      2.000000
  0.428571  0.000000  0.000000      2.000000
  0.000000  0.142857  0.000000      2.000000
  0.142857  0.142857  0.000000      2.000000
  0.285714  0.142857  0.000000      2.000000
  0.428571  0.142857  0.000000      2.000000
 -0.428571  0.142857  0.000000      2.000000
 -0.285714  0.142857 -0.000000      2.000000
 -0.142857  0.142857  0.000000      2.000000
  0.000000  0.285714  0.000000      2.000000
  0.142857  0.285714  0.000000      2.000000
  0.285714  0.285714  0.000000      2.000000
  0.428571  0.285714 -0.000000      2.000000
 -0.428571  0.285714 -0.000000      2.000000
 -0.285714  0.285714 -0.000000      2.000000
 -0.142857  0.285714 -0.000000      2.000000
  0.000000  0.428571  0.000000      2.000000
  0.142857  0.428571  0.000000      2.000000
  0.285714  0.428571  0.000000      2.000000
  0.428571  0.428571  0.000000      2.000000
 -0.428571  0.428571  0.000000      2.000000
 -0.285714  0.428571 -0.000000      2.000000
 -0.142857  0.428571 -0.000000      2.000000
  0.000000  0.000000  0.142857      2.000000
  0.142857  0.000000  0.142857      2.000000
  0.285714  0.000000  0.142857      2.000000
  0.428571  0.000000  0.142857      2.000000
 -0.428571 -0.000000  0.142857      2.000000
 -0.285714 -0.000000  0.142857      2.000000
 -0.142857 -0.000000  0.142857      2.000000
  0.000000  0.142857  0.142857      2.000000
  0.142857  0.142857  0.142857      2.000000
  0.285714  0.142857  0.142857      2.000000
  0.428571  0.142857  0.142857      2.000000
 -0.428571  0.142857  0.142857      2.000000
 -0.285714  0.142857  0.142857      2.000000
 -0.142857  0.142857  0.142857      2.000000
  0.000000  0.285714  0.142857      2.000000
  0.142857  0.285714  0.142857      2.000000
  0.285714  0.285714  0.142857      2.000000
  0.428571  0.285714  0.142857      2.000000
 -0.428571  0.285714  0.142857      2.000000
 -0.285714  0.285714  0.142857      2.000000
 -0.142857  0.285714  0.142857      2.000000
  0.000000  0.428571  0.142857      2.000000
  0.142857  0.428571  0.142857      2.000000
  0.285714  0.428571  0.142857      2.000000
  0.428571  0.428571  0.142857      2.000000
 -0.428571  0.428571  0.142857      2.000000
 -0.285714  0.428571  0.142857      2.000000
 -0.142857  0.428571  0.142857      2.000000
  0.000000 -0.428571  0.142857      2.000000
  0.142857 -0.428571  0.142857      2.000000
  0.285714 -0.428571  0.142857      2.000000
  0.428571 -0.428571  0.142857      2.000000
 -0.428571 -0.428571  0.142857      2.000000
 -0.285714 -0.428571  0.142857      2.000000
 -0.142857 -0.428571  0.142857      2.000000
[...]
 -0.142857 -0.428571  0.428571      2.000000
  0.000000 -0.285714  0.428571      2.000000
  0.142857 -0.285714  0.428571      2.000000
  0.285714 -0.285714  0.428571      2.000000
  0.428571 -0.285714  0.428571      2.000000
 -0.428571 -0.285714  0.428571      2.000000
 -0.285714 -0.285714  0.428571      2.000000
 -0.142857 -0.285714  0.428571      2.000000
  0.000000 -0.142857  0.428571      2.000000
  0.142857 -0.142857  0.428571      2.000000
  0.285714 -0.142857  0.428571      2.000000
  0.428571 -0.142857  0.428571      2.000000
 -0.428571 -0.142857  0.428571      2.000000
 -0.285714 -0.142857  0.428571      2.000000
 -0.142857 -0.142857  0.428571      2.000000

 Following cartesian coordinates:
            Coordinates               Weight
  0.000000  0.000000  0.000000      1.000000
  0.050211 -0.028990 -0.020499      2.000000
  0.100423 -0.057979 -0.040997      2.000000
  0.150634 -0.086969 -0.061496      2.000000
  0.000000  0.057979 -0.020499      2.000000
  0.050211  0.028990 -0.040997      2.000000
  0.100423  0.000000 -0.061496      2.000000
  0.150634 -0.028990 -0.081995      2.000000
 -0.150634  0.144948  0.040997      2.000000
 -0.100423  0.115958  0.020499      2.000000
 -0.050211  0.086969 -0.000000      2.000000
  0.000000  0.115958 -0.040997      2.000000
  0.050211  0.086969 -0.061496      2.000000
  0.100423  0.057979 -0.081995      2.000000
  0.150634  0.028990 -0.102494      2.000000
 -0.150634  0.202927  0.020499      2.000000
 -0.100423  0.173937 -0.000000      2.000000
 -0.050211  0.144948 -0.020499      2.000000
  0.000000  0.173937 -0.061496      2.000000
  0.050211  0.144948 -0.081995      2.000000
  0.100423  0.115958 -0.102494      2.000000
  0.150634  0.086969 -0.122992      2.000000
 -0.150634  0.260906 -0.000000      2.000000
 -0.100423  0.231916 -0.020499      2.000000
 -0.050211  0.202927 -0.040997      2.000000
  0.000000  0.000000  0.061496      2.000000
  0.050211 -0.028990  0.040997      2.000000
  0.100423 -0.057979  0.020499      2.000000
  0.150634 -0.086969  0.000000      2.000000
 -0.150634  0.086969  0.122992      2.000000
 -0.100423  0.057979  0.102494      2.000000
 -0.050211  0.028990  0.081995      2.000000
  0.000000  0.057979  0.040997      2.000000
  0.050211  0.028990  0.020499      2.000000
  0.100423  0.000000  0.000000      2.000000
  0.150634 -0.028990 -0.020499      2.000000
 -0.150634  0.144948  0.102494      2.000000
 -0.100423  0.115958  0.081995      2.000000
 -0.050211  0.086969  0.061496      2.000000
  0.000000  0.115958  0.020499      2.000000
  0.050211  0.086969 -0.000000      2.000000
  0.100423  0.057979 -0.020499      2.000000
  0.150634  0.028990 -0.040997      2.000000
 -0.150634  0.202927  0.081995      2.000000
 -0.100423  0.173937  0.061496      2.000000
 -0.050211  0.144948  0.040997      2.000000
  0.000000  0.173937 -0.000000      2.000000
  0.050211  0.144948 -0.020499      2.000000
  0.100423  0.115958 -0.040997      2.000000
  0.150634  0.086969 -0.061496      2.000000
 -0.150634  0.260906  0.061496      2.000000
 -0.100423  0.231916  0.040997      2.000000
 -0.050211  0.202927  0.020499      2.000000
  0.000000 -0.173937  0.122992      2.000000
  0.050211 -0.202927  0.102494      2.000000
  0.100423 -0.231916  0.081995      2.000000
  0.150634 -0.260906  0.061496      2.000000
 -0.150634 -0.086969  0.184488      2.000000
 -0.100423 -0.115958  0.163990      2.000000
 -0.050211 -0.144948  0.143491      2.000000
[...]
 -0.050211 -0.144948  0.266483      2.000000
  0.000000 -0.115958  0.225486      2.000000
  0.050211 -0.144948  0.204987      2.000000
  0.100423 -0.173937  0.184488      2.000000
  0.150634 -0.202927  0.163990      2.000000
 -0.150634 -0.028990  0.286982      2.000000
 -0.100423 -0.057979  0.266483      2.000000
 -0.050211 -0.086969  0.245985      2.000000
  0.000000 -0.057979  0.204987      2.000000
  0.050211 -0.086969  0.184488      2.000000
  0.100423 -0.115958  0.163990      2.000000
  0.150634 -0.144948  0.143491      2.000000
 -0.150634  0.028990  0.266483      2.000000
 -0.100423  0.000000  0.245985      2.000000
 -0.050211 -0.028990  0.225486      2.000000

 SYSTEM =  Og_FCC
 POSCAR =  He_FCC

 Startparameter for this run:
   NWRITE =      2    write-flag & timer
   PREC   = accura    normal or accurate (medium, high low for compatibility)
   ISTART =      1    job   : 0-new  1-cont  2-samecut
   ICHARG =      0    charge: 1-file 2-atom 10-const
   ISPIN  =      1    spin polarized calculation?
   LNONCOLLINEAR =      F non collinear calculations
   LSORBIT =      F    spin-orbit coupling
   INIWAV =      1    electr: 0-lowe 1-rand  2-diag
   LASPH  =      F    aspherical Exc in radial PAW
   METAGGA=      F    non-selfconsistent MetaGGA calc.

 Electronic Relaxation 1
   ENCUT  =  300.0 eV  22.05 Ry    4.70 a.u.   4.02  4.02  4.02*2*pi/ulx,y,z
   ENINI  =  300.0     initial cutoff
   ENAUG  = 1514.2 eV  augmentation charge cutoff
   NELM   =     50;   NELMIN=  2; NELMDL= -5     # of ELM steps
   EDIFF  = 0.1E-07   stopping-criterion for ELM
   LREAL  =      F    real-space projection
   NLSPLINE    = F    spline interpolate recip. space projectors
   LCOMPAT=      F    compatible to vasp.4.4
   GGA_COMPAT  = F    GGA compatible to vasp.4.4-vasp.4.6
   LMAXPAW     = -100 max onsite density
   LMAXMIX     =    2 max onsite mixed and CHGCAR
   VOSKOWN=      0    Vosko Wilk Nusair interpolation
   ROPT   =    0.00000
 Ionic relaxation
   EDIFFG = 0.1E-04   stopping-criterion for IOM
   NSW    =      1    number of steps for IOM
   NBLOCK =      1;   KBLOCK =      1    inner block; outer block
   IBRION =     -1    ionic relax: 0-MD 1-quasi-New 2-CG
   NFREE  =      5    steps in history (QN), initial steepest desc. (CG)
   ISIF   =      3    stress and relaxation
   IWAVPR =     10    prediction:  0-non 1-charg 2-wave 3-comb
   ISYM   =      0    0-nonsym 1-usesym 2-fastsym
   LCORR  =      T    Harris-Foulkes like correction to forces

   POTIM  = 0.1000    time-step for ionic-motion
   TEIN   =    0.0    initial temperature
   TEBEG  =    0.0;   TEEND  =   0.0 temperature during run
   SMASS  =  -3.00    Nose mass-parameter (am)
   estimated Nose-frequenzy (Omega)   =  0.10E-29 period in steps =****** mass=  -0.185E-27a.u.
   SCALEE = 1.0000    scale energy and forces
   NPACO  =    256;   APACO  = 16.0  distance and # of slots for P.C.
   PSTRESS=    0.0 pullay stress

  Mass of Ions in am
   POMASS =   4.00
  Ionic Valenz
   ZVAL   =   2.00
  Atomic Wigner-Seitz radii
  virtual crystal weights
   VCA    =   1.00
   NELECT =       2.0000    total number of electrons
   NUPDOWN=      -1.0000    fix difference up-down

 DOS related values:
   EMIN   =  10.00;   EMAX   =-10.00  energy-range for DOS
   EFERMI =   0.00
   ISMEAR =     0;   SIGMA  =   0.00  broadening in eV -4-tet -1-fermi 0-gaus

 Electronic relaxation 2 (details)
   IALGO  =     90    algorithm
   LDIAG  =      T    sub-space diagonalisation (order eigenvalues)
   LSUBROT=      F    optimize rotation matrix (better conditioning)
   TURBO    =      0    0=normal 1=particle mesh
   IRESTART =      0    0=no restart 2=restart with 2 vectors
   NREBOOT  =      0    no. of reboots
[...]
  100.715332    0.977771    0.977771    0.977771    0.000000    0.000000    0.000000
  103.677548    0.984222    0.984222    0.984222   -0.000000   -0.000000   -0.000000
  106.639764    0.983518    0.983518    0.983518   -0.000000   -0.000000   -0.000000
  109.601979    0.984985    0.984985    0.984985   -0.000000   -0.000000   -0.000000
  112.564195    0.986278    0.986278    0.986278   -0.000000   -0.000000   -0.000000
  115.526411    0.986035    0.986035    0.986035   -0.000000   -0.000000   -0.000000
  118.488626    0.986639    0.986639    0.986639    0.000000    0.000000    0.000000
  121.450842    0.987039    0.987039    0.987039   -0.000000   -0.000000   -0.000000
  124.413058    0.986810    0.986810    0.986810    0.000000    0.000000    0.000000
  127.375273    0.988132    0.988132    0.988132    0.000000    0.000000    0.000000
  130.337489    0.989198    0.989198    0.989198    0.000000    0.000000    0.000000
  133.299705    0.989459    0.989459    0.989459    0.000000    0.000000    0.000000
  136.261920    0.989447    0.989447    0.989447    0.000000    0.000000    0.000000
  139.224136    0.990170    0.990170    0.990170    0.000000    0.000000    0.000000
  142.186352    0.990459    0.990459    0.990459   -0.000000   -0.000000   -0.000000
  145.148567    0.991675    0.991675    0.991675    0.000000    0.000000    0.000000
  148.110783    0.991112    0.991112    0.991112    0.000000    0.000000    0.000000
  151.072998    0.991607    0.991607    0.991607    0.000000    0.000000    0.000000
  154.035214    0.991906    0.991906    0.991906    0.000000    0.000000    0.000000
  156.997430    0.992875    0.992875    0.992875    0.000000    0.000000    0.000000
  159.959645    0.992831    0.992831    0.992831    0.000000    0.000000    0.000000
  162.921861    0.993366    0.993366    0.993366    0.000000    0.000000    0.000000
  165.884077    0.993406    0.993406    0.993406   -0.000000   -0.000000   -0.000000
  168.846292    0.993528    0.993528    0.993528   -0.000000   -0.000000   -0.000000
  171.808508    0.993706    0.993706    0.993706   -0.000000   -0.000000   -0.000000
  174.770724    0.993949    0.993949    0.993949    0.000000    0.000000    0.000000
[...]
  251.788331    0.997162    0.997162    0.997162   -0.000000    0.000000   -0.000000
  254.750546    0.997241    0.997241    0.997241   -0.000000    0.000000   -0.000000
  257.712762    0.997314    0.997314    0.997314   -0.000000    0.000000   -0.000000
  260.674978    0.997384    0.997384    0.997384   -0.000000    0.000000   -0.000000
  263.637193    0.997450    0.997450    0.997450   -0.000000    0.000000   -0.000000
  266.599409    0.997513    0.997513    0.997513   -0.000000    0.000000   -0.000000
  269.561625    0.997573    0.997573    0.997573   -0.000000    0.000000   -0.000000
  272.523840    0.997630    0.997630    0.997630   -0.000000    0.000000   -0.000000
  275.486056    0.997686    0.997686    0.997686   -0.000000    0.000000   -0.000000
  278.448272    0.997739    0.997739    0.997739   -0.000000    0.000000   -0.000000
  281.410487    0.997790    0.997790    0.997790   -0.000000    0.000000   -0.000000
  284.372703    0.997839    0.997839    0.997839   -0.000000    0.000000   -0.000000
  287.334919    0.997887    0.997887    0.997887   -0.000000    0.000000   -0.000000
  290.297134    0.997932    0.997932    0.997932   -0.000000    0.000000   -0.000000
  293.259350    0.997977    0.997977    0.997977   -0.000000    0.000000   -0.000000

  frequency dependent IMAGINARY DIELECTRIC FUNCTION (independent particle, no local field effects) current-current (2nd set in vasprun.xml)
     E(ev)      X         Y         Z        XY        YZ        ZX
    0.000000    0.000000    0.000000    0.000000    0.000000    0.000000    0.000000
    2.962216    0.000000    0.000000    0.000000    0.000000    0.000000    0.000000
    5.924431    0.000000    0.000000    0.000000    0.000000    0.000000    0.000000
    8.886647    0.000000    0.000000    0.000000    0.000000    0.000000    0.000000
   11.848863    0.000000    0.000000    0.000000    0.000000    0.000000    0.000000
   14.811078    0.000000    0.000000    0.000000    0.000000    0.000000    0.000000
   17.773294    0.000000    0.000000    0.000000    0.000000    0.000000    0.000000
   20.735510    0.000000    0.000000    0.000000    0.000000    0.000000    0.000000
   23.697725    0.000000    0.000000    0.000000    0.000000    0.000000    0.000000
   26.659941    0.000000    0.000000    0.000000    0.000000    0.000000    0.000000
   29.622157    0.488304    0.488303    0.488303    0.000000    0.000000    0.000000
   32.584372    0.299348    0.299348    0.299348   -0.000000   -0.000000   -0.000000
   35.546588    0.000000    0.000000    0.000000   -0.000000   -0.000000   -0.000000
   38.508804    0.000000    0.000000    0.000000    0.000000    0.000000    0.000000
   41.471019    0.107362    0.107362    0.107362   -0.000000   -0.000000   -0.000000
   44.433235    0.077352    0.077352    0.077352    0.000000    0.000000    0.000000
   47.395451    0.000000    0.000000    0.000000    0.000000    0.000000    0.000000
   50.357666    0.005988    0.005988    0.005988   -0.000000   -0.000000   -0.000000
   53.319882    0.001453    0.001453    0.001453    0.000000    0.000000    0.000000
   56.282097    0.025672    0.025672    0.025672   -0.000000   -0.000000   -0.000000
   59.244313    0.041060    0.041060    0.041060    0.000000    0.000000    0.000000
   62.206529    0.002545    0.002545    0.002545    0.000000    0.000000    0.000000
   65.168744    0.010767    0.010767    0.010767   -0.000000   -0.000000   -0.000000
   68.130960    0.018105    0.018105    0.018105    0.000000    0.000000    0.000000
   71.093176    0.021219    0.021218    0.021218    0.000000    0.000000    0.000000
   74.055391    0.008438    0.008438    0.008438    0.000000    0.000000    0.000000
   77.017607    0.006101    0.006101    0.006101   -0.000000   -0.000000   -0.000000
   79.979823    0.015586    0.015586    0.015586    0.000000    0.000000    0.000000
   82.942038    0.004638    0.004638    0.004638   -0.000000   -0.000000   -0.000000
   85.904254    0.009516    0.009516    0.009516    0.000000    0.000000    0.000000
   88.866470    0.011554    0.011554    0.011554    0.000000    0.000000    0.000000
   91.828685    0.003488    0.003488    0.003488    0.000000    0.000000    0.000000
   94.790901    0.011058    0.011058    0.011058    0.000000    0.000000    0.000000
   97.753117    0.015215    0.015215    0.015215   -0.000000   -0.000000   -0.000000
  100.715332    0.004630    0.004630    0.004630    0.000000    0.000000    0.000000
  103.677548    0.003313    0.003313    0.003313    0.000000    0.000000    0.000000
  106.639764    0.000923    0.000923    0.000923    0.000000    0.000000    0.000000
  109.601979    0.003996    0.003996    0.003996    0.000000    0.000000    0.000000
  112.564195    0.002915    0.002915    0.002915    0.000000    0.000000    0.000000
  115.526411    0.001254    0.001254    0.001254   -0.000000   -0.000000   -0.000000
  118.488626    0.001343    0.001343    0.001343    0.000000    0.000000    0.000000
  121.450842    0.000000    0.000000    0.000000    0.000000    0.000000    0.000000
  124.413058    0.005595    0.005595    0.005595   -0.000000   -0.000000   -0.000000
  127.375273    0.001002    0.001002    0.001002    0.000000    0.000000    0.000000
  130.337489    0.000261    0.000261    0.000261    0.000000    0.000000    0.000000
  133.299705    0.002803    0.002803    0.002803    0.000000    0.000000    0.000000
  136.261920    0.002061    0.002061    0.002062   -0.000000   -0.000000   -0.000000
  139.224136    0.000369    0.000369    0.000369   -0.000000   -0.000000   -0.000000
  142.186352    0.000127    0.000127    0.000127    0.000000    0.000000    0.000000
  145.148567    0.001718    0.001718    0.001718   -0.000000   -0.000000   -0.000000
  148.110783    0.002091    0.002091    0.002091   -0.000000   -0.000000   -0.000000
  151.072998    0.001157    0.001157    0.001157    0.000000    0.000000    0.000000
  154.035214    0.000484    0.000484    0.000484   -0.000000   -0.000000   -0.000000
  156.997430    0.000241    0.000241    0.000241   -0.000000   -0.000000   -0.000000
  159.959645    0.000162    0.000162    0.000162    0.000000    0.000000    0.000000
  162.921861    0.001158    0.001158    0.001158   -0.000000   -0.000000   -0.000000
  165.884077    0.000192    0.000192    0.000192    0.000000    0.000000    0.000000
  168.846292    0.000766    0.000766    0.000766   -0.000000   -0.000000   -0.000000
  171.808508    0.000134    0.000134    0.000134    0.000000    0.000000    0.000000
  174.770724    0.001274    0.001274    0.001274    0.000000    0.000000    0.000000
[...]
  251.788331    0.000000    0.000000    0.000000    0.000000    0.000000    0.000000
  254.750546    0.000000    0.000000    0.000000    0.000000    0.000000    0.000000
  257.712762    0.000000    0.000000    0.000000    0.000000    0.000000    0.000000
  260.674978    0.000000    0.000000    0.000000    0.000000    0.000000    0.000000
  263.637193    0.000000    0.000000    0.000000    0.000000    0.000000    0.000000
  266.599409    0.000000    0.000000    0.000000    0.000000    0.000000    0.000000
  269.561625    0.000000    0.000000    0.000000    0.000000    0.000000    0.000000
  272.523840    0.000000    0.000000    0.000000    0.000000    0.000000    0.000000
  275.486056    0.000000    0.000000    0.000000    0.000000    0.000000    0.000000
  278.448272    0.000000    0.000000    0.000000    0.000000    0.000000    0.000000
  281.410487    0.000000    0.000000    0.000000    0.000000    0.000000    0.000000
  284.372703    0.000000    0.000000    0.000000    0.000000    0.000000    0.000000
  287.334919    0.000000    0.000000    0.000000    0.000000    0.000000    0.000000
  290.297134    0.000000    0.000000    0.000000    0.000000    0.000000    0.000000
  293.259350    0.000000    0.000000    0.000000    0.000000    0.000000    0.000000

  frequency dependent      REAL DIELECTRIC FUNCTION (independent particle, no local field effects) current-current (2nd set in vasprun.xml)
     E(ev)        X           Y           Z          XY          YZ          ZX
    0.000000    1.197892    1.197892    1.197892   -0.000000   -0.000000   -0.000000
    2.962216    1.201367    1.201367    1.201367   -0.000000   -0.000000   -0.000000
    5.924431    1.212680    1.212680    1.212680   -0.000000   -0.000000   -0.000000
    8.886647    1.235480    1.235480    1.235480   -0.000000   -0.000000   -0.000000
   11.848863    1.280234    1.280234    1.280234   -0.000000   -0.000000   -0.000000
   14.811078    1.386736    1.386736    1.386736   -0.000000   -0.000000   -0.000000
   17.773294    2.092255    2.092255    2.092255   -0.000000   -0.000000   -0.000000
   20.735510    0.954270    0.954270    0.954270   -0.000000   -0.000000   -0.000000
   23.697725    0.810776    0.810776    0.810776   -0.000000   -0.000000   -0.000000
   26.659941    0.902644    0.902644    0.902644   -0.000000   -0.000000   -0.000000
   29.622157    0.909396    0.909396    0.909396   -0.000000   -0.000000   -0.000000
   32.584372    0.859690    0.859690    0.859690   -0.000000   -0.000000   -0.000000
   35.546588    0.917021    0.917022    0.917022   -0.000000   -0.000000   -0.000000
   38.508804    0.839563    0.839563    0.839563   -0.000000   -0.000000   -0.000000
   41.471019    0.857372    0.857372    0.857372   -0.000000   -0.000000   -0.000000
   44.433235    0.888478    0.888478    0.888478   -0.000000   -0.000000   -0.000000
   47.395451    0.905582    0.905582    0.905582   -0.000000   -0.000000   -0.000000
   50.357666    0.928533    0.928533    0.928533    0.000000    0.000000    0.000000
   53.319882    0.936482    0.936482    0.936482    0.000000    0.000000    0.000000
   56.282097    0.927606    0.927606    0.927606   -0.000000   -0.000000   -0.000000
   59.244313    0.948810    0.948810    0.948810   -0.000000   -0.000000   -0.000000
   62.206529    0.939910    0.939910    0.939910    0.000000    0.000000    0.000000
   65.168744    0.942501    0.942501    0.942501    0.000000    0.000000    0.000000
   68.130960    0.958959    0.958959    0.958959    0.000000    0.000000    0.000000
   71.093176    0.956532    0.956532    0.956532    0.000000    0.000000    0.000000
   74.055391    0.968618    0.968618    0.968618    0.000000    0.000000    0.000000
   77.017607    0.973789    0.973789    0.973789    0.000000    0.000000    0.000000
   79.979823    0.967596    0.967596    0.967596    0.000000    0.000000    0.000000
   82.942038    0.976716    0.976716    0.976716    0.000000    0.000000    0.000000
   85.904254    0.978205    0.978205    0.978205    0.000000    0.000000    0.000000
   88.866470    0.971585    0.971585    0.971585    0.000000    0.000000    0.000000
   91.828685    0.979438    0.979438    0.979438   -0.000000   -0.000000   -0.000000
   94.790901    0.982938    0.982938    0.982938   -0.000000   -0.000000   -0.000000
   97.753117    0.975334    0.975334    0.975334   -0.000000   -0.000000   -0.000000
  100.715332    0.977751    0.977751    0.977751    0.000000    0.000000    0.000000
  103.677548    0.984208    0.984208    0.984208   -0.000000   -0.000000   -0.000000
  106.639764    0.983505    0.983505    0.983505   -0.000000   -0.000000   -0.000000
  109.601979    0.984971    0.984971    0.984971   -0.000000   -0.000000   -0.000000
  112.564195    0.986268    0.986268    0.986268   -0.000000   -0.000000   -0.000000
  115.526411    0.986028    0.986028    0.986028   -0.000000   -0.000000   -0.000000
  118.488626    0.986633    0.986633    0.986633    0.000000    0.000000    0.000000
  121.450842    0.987035    0.987035    0.987035   -0.000000   -0.000000   -0.000000
  124.413058    0.986798    0.986798    0.986798    0.000000    0.000000    0.000000
  127.375273    0.988127    0.988127    0.988127    0.000000    0.000000    0.000000
  130.337489    0.989195    0.989195    0.989195    0.000000    0.000000    0.000000
  133.299705    0.989451    0.989451    0.989451    0.000000    0.000000    0.000000
  136.261920    0.989440    0.989440    0.989440    0.000000    0.000000    0.000000
  139.224136    0.990167    0.990167    0.990167    0.000000    0.000000    0.000000
  142.186352    0.990456    0.990456    0.990456   -0.000000   -0.000000   -0.000000
  145.148567    0.991670    0.991670    0.991670    0.000000    0.000000    0.000000
  148.110783    0.991107    0.991107    0.991107    0.000000    0.000000    0.000000
  151.072998    0.991603    0.991603    0.991603    0.000000    0.000000    0.000000
  154.035214    0.991904    0.991904    0.991904    0.000000    0.000000    0.000000
  156.997430    0.992873    0.992873    0.992873    0.000000    0.000000    0.000000
  159.959645    0.992830    0.992830    0.992830    0.000000    0.000000    0.000000
  162.921861    0.993363    0.993363    0.993363    0.000000    0.000000    0.000000
  165.884077    0.993404    0.993404    0.993404   -0.000000   -0.000000   -0.000000
  168.846292    0.993526    0.993526    0.993526   -0.000000   -0.000000   -0.000000
  171.808508    0.993705    0.993705    0.993705   -0.000000   -0.000000   -0.000000
  174.770724    0.993946    0.993946    0.993946    0.000000    0.000000    0.000000
[...]
  251.788331    0.997161    0.997161    0.997161   -0.000000    0.000000   -0.000000
  254.750546    0.997240    0.997240    0.997240   -0.000000    0.000000   -0.000000
  257.712762    0.997314    0.997314    0.997314   -0.000000    0.000000   -0.000000
  260.674978    0.997383    0.997383    0.997383   -0.000000    0.000000   -0.000000
  263.637193    0.997449    0.997449    0.997449   -0.000000    0.000000   -0.000000
  266.599409    0.997512    0.997512    0.997512   -0.000000    0.000000   -0.000000
  269.561625    0.997572    0.997572    0.997572   -0.000000    0.000000   -0.000000
  272.523840    0.997630    0.997630    0.997630   -0.000000    0.000000   -0.000000
  275.486056    0.997685    0.997685    0.997685   -0.000000    0.000000   -0.000000
  278.448272    0.997738    0.997738    0.997738   -0.000000    0.000000   -0.000000
  281.410487    0.997789    0.997789    0.997789   -0.000000    0.000000   -0.000000
  284.372703    0.997839    0.997839    0.997839   -0.000000    0.000000   -0.000000
  287.334919    0.997886    0.997886    0.997886   -0.000000    0.000000   -0.000000
  290.297134    0.997932    0.997932    0.997932   -0.000000    0.000000   -0.000000
  293.259350    0.997976    0.997976    0.997976   -0.000000    0.000000   -0.000000

 The outermost node in the dielectric function lies at epsilon=  -1.0