 vasp.5.4.4.18Apr17-6-g9f103f2a35 (build Jul 09 2018 16:43:14) complex

 executed on             LinuxIFC date 2018.11.22  03:10:13

 INCAR:
 POTCAR:    PAW_PBE He_GW 13May2007

 POTCAR:    PAW_PBE He_GW 13May2007
   VRHFIN =He: 1s

   TITEL  = PAW_PBE He_GW 13May2007
   POMASS =    4.000; ZVAL   =    2.000    mass and valenz
   ENMAX  =  405.780; ENMIN  =  304.335 eV

  PAW_PBE He_GW 13May2007               :

 POSCAR: He_FCC
  positions in direct lattice
  velocities in cartesian coordinates
 exchange correlation table for  LEXCH =        8
   RHO(1)=    0.500       N(1)  =     2000
   RHO(2)=  100.500       N(2)  =     4000

 ion  position               nearest neighbor table
   1  0.000  0.000  0.000-

IMPORTANT INFORMATION: All symmetrisations will be switched off!
NOSYMM: (Re-)initialisation of all symmetry stuff for point group C_1.

 KPOINTS: k-points

Automatic generation of k-mesh.
Space group operators:
 irot       det(A)        alpha          n_x          n_y          n_z        tau_x        tau_y        tau_z
    1     1.000000     0.000000     1.000000     0.000000     0.000000     0.000000     0.000000     0.000000

 Subroutine IBZKPT returns following result:

 Found    216 irreducible k-points:

 Following reciprocal coordinates:
            Coordinates               Weight
  0.000000  0.000000  0.000000      1.000000
  0.166667 -0.000000  0.000000      1.000000
  0.333333 -0.000000  0.000000      1.000000
  0.500000 -0.000000  0.000000      1.000000
 -0.333333  0.000000 -0.000000      1.000000
 -0.166667  0.000000 -0.000000      1.000000
  0.000000  0.166667 -0.000000      1.000000
  0.166667  0.166667  0.000000      1.000000
  0.333333  0.166667  0.000000      1.000000
  0.500000  0.166667  0.000000      1.000000
 -0.333333  0.166667 -0.000000      1.000000
 -0.166667  0.166667 -0.000000      1.000000
  0.000000  0.333333  0.000000      1.000000
  0.166667  0.333333  0.000000      1.000000
  0.333333  0.333333  0.000000      1.000000
  0.500000  0.333333  0.000000      1.000000
 -0.333333  0.333333 -0.000000      1.000000
 -0.166667  0.333333  0.000000      1.000000
  0.000000  0.500000  0.000000      1.000000
  0.166667  0.500000  0.000000      1.000000
  0.333333  0.500000  0.000000      1.000000
  0.500000  0.500000  0.000000      1.000000
 -0.333333  0.500000 -0.000000      1.000000
 -0.166667  0.500000 -0.000000      1.000000
  0.000000 -0.333333  0.000000      1.000000
  0.166667 -0.333333 -0.000000      1.000000
  0.333333 -0.333333  0.000000      1.000000
  0.500000 -0.333333 -0.000000      1.000000
 -0.333333 -0.333333 -0.000000      1.000000
 -0.166667 -0.333333  0.000000      1.000000
  0.000000 -0.166667  0.000000      1.000000
  0.166667 -0.166667  0.000000      1.000000
  0.333333 -0.166667  0.000000      1.000000
  0.500000 -0.166667  0.000000      1.000000
 -0.333333 -0.166667 -0.000000      1.000000
 -0.166667 -0.166667 -0.000000      1.000000
  0.000000  0.000000  0.166667      1.000000
  0.166667 -0.000000  0.166667      1.000000
  0.333333 -0.000000  0.166667      1.000000
  0.500000 -0.000000  0.166667      1.000000
 -0.333333  0.000000  0.166667      1.000000
 -0.166667  0.000000  0.166667      1.000000
  0.000000  0.166667  0.166667      1.000000
  0.166667  0.166667  0.166667      1.000000
  0.333333  0.166667  0.166667      1.000000
  0.500000  0.166667  0.166667      1.000000
 -0.333333  0.166667  0.166667      1.000000
 -0.166667  0.166667  0.166667      1.000000
  0.000000  0.333333  0.166667      1.000000
  0.166667  0.333333  0.166667      1.000000
  0.333333  0.333333  0.166667      1.000000
  0.500000  0.333333  0.166667      1.000000
 -0.333333  0.333333  0.166667      1.000000
 -0.166667  0.333333  0.166667      1.000000
  0.000000  0.500000  0.166667      1.000000
  0.166667  0.500000  0.166667      1.000000
  0.333333  0.500000  0.166667      1.000000
  0.500000  0.500000  0.166667      1.000000
 -0.333333  0.500000  0.166667      1.000000
 -0.166667  0.500000  0.166667      1.000000
[...]
  0.500000  0.500000 -0.166667      1.000000
 -0.333333  0.500000 -0.166667      1.000000
 -0.166667  0.500000 -0.166667      1.000000
  0.000000 -0.333333 -0.166667      1.000000
  0.166667 -0.333333 -0.166667      1.000000
  0.333333 -0.333333 -0.166667      1.000000
  0.500000 -0.333333 -0.166667      1.000000
 -0.333333 -0.333333 -0.166667      1.000000
 -0.166667 -0.333333 -0.166667      1.000000
  0.000000 -0.166667 -0.166667      1.000000
  0.166667 -0.166667 -0.166667      1.000000
  0.333333 -0.166667 -0.166667      1.000000
  0.500000 -0.166667 -0.166667      1.000000
 -0.333333 -0.166667 -0.166667      1.000000
 -0.166667 -0.166667 -0.166667      1.000000

 Following cartesian coordinates:
            Coordinates               Weight
  0.000000  0.000000  0.000000      1.000000
  0.058580 -0.033821 -0.023915      1.000000
  0.117160 -0.067642 -0.047830      1.000000
  0.175740 -0.101463 -0.071745      1.000000
 -0.117160  0.067642  0.047830      1.000000
 -0.058580  0.033821  0.023915      1.000000
  0.000000  0.067642 -0.023915      1.000000
  0.058580  0.033821 -0.047830      1.000000
  0.117160  0.000000 -0.071745      1.000000
  0.175740 -0.033821 -0.095661      1.000000
 -0.117160  0.135285  0.023915      1.000000
 -0.058580  0.101463 -0.000000      1.000000
  0.000000  0.135285 -0.047830      1.000000
  0.058580  0.101463 -0.071745      1.000000
  0.117160  0.067642 -0.095661      1.000000
  0.175740  0.033821 -0.119576      1.000000
 -0.117160  0.202927 -0.000000      1.000000
 -0.058580  0.169106 -0.023915      1.000000
  0.000000  0.202927 -0.071745      1.000000
  0.058580  0.169106 -0.095661      1.000000
  0.117160  0.135285 -0.119576      1.000000
  0.175740  0.101463 -0.143491      1.000000
 -0.117160  0.270569 -0.023915      1.000000
 -0.058580  0.236748 -0.047830      1.000000
  0.000000 -0.135285  0.047830      1.000000
  0.058580 -0.169106  0.023915      1.000000
  0.117160 -0.202927  0.000000      1.000000
  0.175740 -0.236748 -0.023915      1.000000
 -0.117160 -0.067642  0.095661      1.000000
 -0.058580 -0.101463  0.071745      1.000000
  0.000000 -0.067642  0.023915      1.000000
  0.058580 -0.101463  0.000000      1.000000
  0.117160 -0.135285 -0.023915      1.000000
  0.175740 -0.169106 -0.047830      1.000000
 -0.117160 -0.000000  0.071745      1.000000
 -0.058580 -0.033821  0.047830      1.000000
  0.000000  0.000000  0.071745      1.000000
  0.058580 -0.033821  0.047830      1.000000
  0.117160 -0.067642  0.023915      1.000000
  0.175740 -0.101463  0.000000      1.000000
 -0.117160  0.067642  0.119576      1.000000
 -0.058580  0.033821  0.095661      1.000000
  0.000000  0.067642  0.047830      1.000000
  0.058580  0.033821  0.023915      1.000000
  0.117160  0.000000  0.000000      1.000000
  0.175740 -0.033821 -0.023915      1.000000
 -0.117160  0.135285  0.095661      1.000000
 -0.058580  0.101463  0.071745      1.000000
  0.000000  0.135285  0.023915      1.000000
  0.058580  0.101463 -0.000000      1.000000
  0.117160  0.067642 -0.023915      1.000000
  0.175740  0.033821 -0.047830      1.000000
 -0.117160  0.202927  0.071745      1.000000
 -0.058580  0.169106  0.047830      1.000000
  0.000000  0.202927 -0.000000      1.000000
  0.058580  0.169106 -0.023915      1.000000
  0.117160  0.135285 -0.047830      1.000000
  0.175740  0.101463 -0.071745      1.000000
 -0.117160  0.270569  0.047830      1.000000
 -0.058580  0.236748  0.023915      1.000000
[...]
  0.175740  0.101463 -0.215236      1.000000
 -0.117160  0.270569 -0.095661      1.000000
 -0.058580  0.236748 -0.119576      1.000000
  0.000000 -0.135285 -0.023915      1.000000
  0.058580 -0.169106 -0.047830      1.000000
  0.117160 -0.202927 -0.071745      1.000000
  0.175740 -0.236748 -0.095661      1.000000
 -0.117160 -0.067642  0.023915      1.000000
 -0.058580 -0.101463  0.000000      1.000000
  0.000000 -0.067642 -0.047830      1.000000
  0.058580 -0.101463 -0.071745      1.000000
  0.117160 -0.135285 -0.095661      1.000000
  0.175740 -0.169106 -0.119576      1.000000
 -0.117160 -0.000000 -0.000000      1.000000
 -0.058580 -0.033821 -0.023915      1.000000

 Subroutine IBZKPT_HF returns following result:

 Found    216 k-points in 1st BZ
 the following    216 k-points will be used (e.g. in the exchange kernel)
 Following reciprocal coordinates:   # in IRBZ
  0.000000  0.000000  0.000000    0.00462963   1 t-inv F
  0.166667 -0.000000  0.000000    0.00462963   2 t-inv F
  0.333333 -0.000000  0.000000    0.00462963   3 t-inv F
  0.500000 -0.000000  0.000000    0.00462963   4 t-inv F
 -0.333333  0.000000 -0.000000    0.00462963   5 t-inv F
 -0.166667  0.000000 -0.000000    0.00462963   6 t-inv F
  0.000000  0.166667 -0.000000    0.00462963   7 t-inv F
  0.166667  0.166667  0.000000    0.00462963   8 t-inv F
  0.333333  0.166667  0.000000    0.00462963   9 t-inv F
  0.500000  0.166667  0.000000    0.00462963  10 t-inv F
 -0.333333  0.166667 -0.000000    0.00462963  11 t-inv F
 -0.166667  0.166667 -0.000000    0.00462963  12 t-inv F
  0.000000  0.333333  0.000000    0.00462963  13 t-inv F
  0.166667  0.333333  0.000000    0.00462963  14 t-inv F
  0.333333  0.333333  0.000000    0.00462963  15 t-inv F
  0.500000  0.333333  0.000000    0.00462963  16 t-inv F
 -0.333333  0.333333 -0.000000    0.00462963  17 t-inv F
 -0.166667  0.333333  0.000000    0.00462963  18 t-inv F
  0.000000  0.500000  0.000000    0.00462963  19 t-inv F
  0.166667  0.500000  0.000000    0.00462963  20 t-inv F
  0.333333  0.500000  0.000000    0.00462963  21 t-inv F
  0.500000  0.500000  0.000000    0.00462963  22 t-inv F
 -0.333333  0.500000 -0.000000    0.00462963  23 t-inv F
 -0.166667  0.500000 -0.000000    0.00462963  24 t-inv F
  0.000000 -0.333333  0.000000    0.00462963  25 t-inv F
  0.166667 -0.333333 -0.000000    0.00462963  26 t-inv F
  0.333333 -0.333333  0.000000    0.00462963  27 t-inv F
  0.500000 -0.333333 -0.000000    0.00462963  28 t-inv F
 -0.333333 -0.333333 -0.000000    0.00462963  29 t-inv F
 -0.166667 -0.333333  0.000000    0.00462963  30 t-inv F
  0.000000 -0.166667  0.000000    0.00462963  31 t-inv F
  0.166667 -0.166667  0.000000    0.00462963  32 t-inv F
  0.333333 -0.166667  0.000000    0.00462963  33 t-inv F
  0.500000 -0.166667  0.000000    0.00462963  34 t-inv F
 -0.333333 -0.166667 -0.000000    0.00462963  35 t-inv F
 -0.166667 -0.166667 -0.000000    0.00462963  36 t-inv F
  0.000000  0.000000  0.166667    0.00462963  37 t-inv F
  0.166667 -0.000000  0.166667    0.00462963  38 t-inv F
  0.333333 -0.000000  0.166667    0.00462963  39 t-inv F
  0.500000 -0.000000  0.166667    0.00462963  40 t-inv F
 -0.333333  0.000000  0.166667    0.00462963  41 t-inv F
 -0.166667  0.000000  0.166667    0.00462963  42 t-inv F
  0.000000  0.166667  0.166667    0.00462963  43 t-inv F
  0.166667  0.166667  0.166667    0.00462963  44 t-inv F
  0.333333  0.166667  0.166667    0.00462963  45 t-inv F
  0.500000  0.166667  0.166667    0.00462963  46 t-inv F
 -0.333333  0.166667  0.166667    0.00462963  47 t-inv F
 -0.166667  0.166667  0.166667    0.00462963  48 t-inv F
  0.000000  0.333333  0.166667    0.00462963  49 t-inv F
[...]
 k-point 22 :   0.5000 0.5000 0.0000  plane waves:     380
 k-point 23 :  -0.3333 0.5000-0.0000  plane waves:     392
 k-point 24 :  -0.1667 0.5000-0.0000  plane waves:     380
 k-point 25 :   0.0000-0.3333 0.0000  plane waves:     372
 k-point 26 :   0.1667-0.3333-0.0000  plane waves:     380
 k-point 27 :   0.3333-0.3333 0.0000  plane waves:     372
 k-point 28 :   0.5000-0.3333-0.0000  plane waves:     392
 k-point 29 :  -0.3333-0.3333-0.0000  plane waves:     388
 k-point 30 :  -0.1667-0.3333 0.0000  plane waves:     380
 k-point 31 :   0.0000-0.1667 0.0000  plane waves:     368
 k-point 32 :   0.1667-0.1667 0.0000  plane waves:     384
 k-point 33 :   0.3333-0.1667 0.0000  plane waves:     380
 k-point 34 :   0.5000-0.1667 0.0000  plane waves:     380
 k-point 35 :  -0.3333-0.1667-0.0000  plane waves:     380
 k-point 36 :  -0.1667-0.1667-0.0000  plane waves:     372
 k-point 37 :   0.0000 0.0000 0.1667  plane waves:     368
 k-point 38 :   0.1667-0.0000 0.1667  plane waves:     372
 k-point 39 :   0.3333-0.0000 0.1667  plane waves:     380
 k-point 40 :   0.5000-0.0000 0.1667  plane waves:     380
 k-point 41 :  -0.3333 0.0000 0.1667  plane waves:     380
 k-point 42 :  -0.1667 0.0000 0.1667  plane waves:     384
 k-point 43 :   0.0000 0.1667 0.1667  plane waves:     372
 k-point 44 :   0.1667 0.1667 0.1667  plane waves:     368
 k-point 45 :   0.3333 0.1667 0.1667  plane waves:     384
 k-point 46 :   0.5000 0.1667 0.1667  plane waves:     380
 k-point 47 :  -0.3333 0.1667 0.1667  plane waves:     380
 k-point 48 :  -0.1667 0.1667 0.1667  plane waves:     380
 k-point 49 :   0.0000 0.3333 0.1667  plane waves:     380
 k-point 50 :   0.1667 0.3333 0.1667  plane waves:     384
 k-point 51 :   0.3333 0.3333 0.1667  plane waves:     380
 k-point 52 :   0.5000 0.3333 0.1667  plane waves:     390
 k-point 53 :  -0.3333 0.3333 0.1667  plane waves:     388
 k-point 54 :  -0.1667 0.3333 0.1667  plane waves:     390
 k-point 55 :   0.0000 0.5000 0.1667  plane waves:     380
 k-point 56 :   0.1667 0.5000 0.1667  plane waves:     380
 k-point 57 :   0.3333 0.5000 0.1667  plane waves:     390
 k-point 58 :   0.5000 0.5000 0.1667  plane waves:     392
 k-point 59 :  -0.3333 0.5000 0.1667  plane waves:     404
 k-point 60 :  -0.1667 0.5000 0.1667  plane waves:     388
[...]
 k-point 85 :   0.0000 0.3333 0.3333  plane waves:     388
 k-point 86 :   0.1667 0.3333 0.3333  plane waves:     380
 k-point 87 :   0.3333 0.3333 0.3333  plane waves:     372
 k-point 88 :   0.5000 0.3333 0.3333  plane waves:     380
 k-point 89 :  -0.3333 0.3333 0.3333  plane waves:     372
 k-point 90 :  -0.1667 0.3333 0.3333  plane waves:     392
 k-point 91 :   0.0000 0.5000 0.3333  plane waves:     392
 k-point 92 :   0.1667 0.5000 0.3333  plane waves:     390
 k-point 93 :   0.3333 0.5000 0.3333  plane waves:     380
 k-point 94 :   0.5000 0.5000 0.3333  plane waves:     380
 k-point 95 :  -0.3333 0.5000 0.3333  plane waves:     388
 k-point 96 :  -0.1667 0.5000 0.3333  plane waves:     404
 k-point 97 :   0.0000-0.3333 0.3333  plane waves:     372
 k-point 98 :   0.1667-0.3333 0.3333  plane waves:     388
 k-point 99 :   0.3333-0.3333 0.3333  plane waves:     372
 k-point ** :   0.5000-0.3333 0.3333  plane waves:     388
 k-point ** :  -0.3333-0.3333 0.3333  plane waves:     372
 k-point ** :  -0.1667-0.3333 0.3333  plane waves:     388
 k-point ** :   0.0000-0.1667 0.3333  plane waves:     380
 k-point ** :   0.1667-0.1667 0.3333  plane waves:     390
 k-point ** :   0.3333-0.1667 0.3333  plane waves:     392
 k-point ** :   0.5000-0.1667 0.3333  plane waves:     404
 k-point ** :  -0.3333-0.1667 0.3333  plane waves:     388
 k-point ** :  -0.1667-0.1667 0.3333  plane waves:     380
 k-point ** :   0.0000 0.0000 0.5000  plane waves:     360
 k-point ** :   0.1667-0.0000 0.5000  plane waves:     380
 k-point ** :   0.3333-0.0000 0.5000  plane waves:     392
 k-point ** :   0.5000-0.0000 0.5000  plane waves:     380
 k-point ** :  -0.3333 0.0000 0.5000  plane waves:     392
 k-point ** :  -0.1667 0.0000 0.5000  plane waves:     380
 k-point ** :   0.0000 0.1667 0.5000  plane waves:     380
 k-point ** :   0.1667 0.1667 0.5000  plane waves:     380
 k-point ** :   0.3333 0.1667 0.5000  plane waves:     390
 k-point ** :   0.5000 0.1667 0.5000  plane waves:     392
 k-point ** :  -0.3333 0.1667 0.5000  plane waves:     404
 k-point ** :  -0.1667 0.1667 0.5000  plane waves:     388
 k-point ** :   0.0000 0.3333 0.5000  plane waves:     392
 k-point ** :   0.1667 0.3333 0.5000  plane waves:     390
 k-point ** :   0.3333 0.3333 0.5000  plane waves:     380
 k-point ** :   0.5000 0.3333 0.5000  plane waves:     380
 k-point ** :  -0.3333 0.3333 0.5000  plane waves:     388
 k-point ** :  -0.1667 0.3333 0.5000  plane waves:     404
 k-point ** :   0.0000 0.5000 0.5000  plane waves:     380
 k-point ** :   0.1667 0.5000 0.5000  plane waves:     392
 k-point ** :   0.3333 0.5000 0.5000  plane waves:     380
 k-point ** :   0.5000 0.5000 0.5000  plane waves:     360
 k-point ** :  -0.3333 0.5000 0.5000  plane waves:     380
 k-point ** :  -0.1667 0.5000 0.5000  plane waves:     392
 k-point ** :   0.0000-0.3333 0.5000  plane waves:     392
 k-point ** :   0.1667-0.3333 0.5000  plane waves:     404
 k-point ** :   0.3333-0.3333 0.5000  plane waves:     388
 k-point ** :   0.5000-0.3333 0.5000  plane waves:     380
 k-point ** :  -0.3333-0.3333 0.5000  plane waves:     380
 k-point ** :  -0.1667-0.3333 0.5000  plane waves:     390
 k-point ** :   0.0000-0.1667 0.5000  plane waves:     380
 k-point ** :   0.1667-0.1667 0.5000  plane waves:     388
 k-point ** :   0.3333-0.1667 0.5000  plane waves:     404
 k-point ** :   0.5000-0.1667 0.5000  plane waves:     392
 k-point ** :  -0.3333-0.1667 0.5000  plane waves:     390
 k-point ** :  -0.1667-0.1667 0.5000  plane waves:     380
 k-point ** :   0.0000 0.0000-0.3333  plane waves:     372
 k-point ** :   0.1667-0.0000-0.3333  plane waves:     380
 k-point ** :   0.3333-0.0000-0.3333  plane waves:     372
 k-point ** :   0.5000-0.0000-0.3333  plane waves:     392
 k-point ** :  -0.3333 0.0000-0.3333  plane waves:     388
 k-point ** :  -0.1667 0.0000-0.3333  plane waves:     380
 k-point ** :   0.0000 0.1667-0.3333  plane waves:     380
 k-point ** :   0.1667 0.1667-0.3333  plane waves:     380
 k-point ** :   0.3333 0.1667-0.3333  plane waves:     388
 k-point ** :   0.5000 0.1667-0.3333  plane waves:     404
 k-point ** :  -0.3333 0.1667-0.3333  plane waves:     392
 k-point ** :  -0.1667 0.1667-0.3333  plane waves:     390
 k-point ** :   0.0000 0.3333-0.3333  plane waves:     372
 k-point ** :   0.1667 0.3333-0.3333  plane waves:     388
 k-point ** :   0.3333 0.3333-0.3333  plane waves:     372
[...]
 k-point ** :   0.5000 0.5000-0.1667  plane waves:     392
 k-point ** :  -0.3333 0.5000-0.1667  plane waves:     390
 k-point ** :  -0.1667 0.5000-0.1667  plane waves:     380
 k-point ** :   0.0000-0.3333-0.1667  plane waves:     380
 k-point ** :   0.1667-0.3333-0.1667  plane waves:     390
 k-point ** :   0.3333-0.3333-0.1667  plane waves:     388
 k-point ** :   0.5000-0.3333-0.1667  plane waves:     390
 k-point ** :  -0.3333-0.3333-0.1667  plane waves:     380
 k-point ** :  -0.1667-0.3333-0.1667  plane waves:     384
 k-point ** :   0.0000-0.1667-0.1667  plane waves:     372
 k-point ** :   0.1667-0.1667-0.1667  plane waves:     380
 k-point ** :   0.3333-0.1667-0.1667  plane waves:     380
 k-point ** :   0.5000-0.1667-0.1667  plane waves:     380
 k-point ** :  -0.3333-0.1667-0.1667  plane waves:     384
 k-point ** :  -0.1667-0.1667-0.1667  plane waves:     368

 maximum and minimum number of plane-waves per node :       220      164

 maximum number of plane-waves:       404
 maximum index in each direction:
   IXMAX=    4   IYMAX=    4   IZMAX=    4
   IXMIN=   -4   IYMIN=   -4   IZMIN=   -4

 parallel 3D FFT for wavefunctions:
    minimum data exchange during FFTs selected (reduces bandwidth)
 parallel 3D FFT for charge:
    minimum data exchange during FFTs selected (reduces bandwidth)

 FFT grid for exact exchange (Hartree Fock)
  NGX = 14; NGY = 14; NGZ = 14

 Radii for the augmentation spheres in the non-local exchange
 for species   1 augmentation radius   0.734 (default was   0.587)
       energy cutoff for augmentation   1200.0

 real space projection operators:
  max/ min on nodes  :         31.84         30.86

 Maximum index for augmentation-charges in exchange          163
  SETUP_FOCK is finished

 Broyden mixing: mesh for mixing (old mesh)
   NGX =  9   NGY =  9   NGZ =  9
  (NGX  = 32   NGY  = 32   NGZ  = 32)
  gives a total of    729 points

 charge density for first step will be calculated from the start-wavefunctions

 Maximum index for augmentation-charges         6803 (set IRDMAX)

 initial charge from wavefunction
 First call to EWALD:  gamma=   0.699
 Maximum number of real-space cells 3x 3x 3
 Maximum number of reciprocal cells 3x 3x 3

--------------------------------------- Iteration      1(   1)  ---------------------------------------

 eigenvalue-minimisations  :  5896
 total energy-change (2. order) : 0.5576485E+01  (-0.1588776E+00)
 number of electron       2.0000001 magnetization       0.0000000      0.0000000     -0.0000000
 augmentation part        0.2997026 magnetization      -0.0000000     -0.0000000     -0.0000000

 Free energy of the ion-electron system (eV)
  alpha Z        PSCENC =         0.62263337
  Ewald energy   TEWEN  =       -32.81689722
  -Hartree energ DENC   =       -22.76044198
  -exchange      EXHF   =         0.00000000
  -V(xc)+E(xc)   XCENC  =         5.87704808
  PAW double counting   =        50.11119777      -51.37094712
  entropy T*S    EENTRO =        -0.00000000
  eigenvalues    EBANDS =       -22.53491536
  atomic energy  EATOM  =        78.44880706
  free energy    TOTEN  =         5.57648459 eV

  energy without entropy =        5.57648459  energy(sigma->0) =        5.57648459
  exchange ACFDT corr.  =         0.00000000  see jH, gK, PRB 81, 115126

[...]

 eigenvalue-minimisations  :  9972
 total energy-change (2. order) :-0.1562415E-02  (-0.1562381E-02)
 number of electron       2.0000001 magnetization       0.0000000      0.0000000     -0.0000000
 augmentation part        0.2997026 magnetization      -0.0000000     -0.0000000     -0.0000000

[...]

--------------------------------------- Iteration      1(  19)  ---------------------------------------

 eigenvalue-minimisations  :     0
 total energy-change (2. order) :-0.9725987E-07  (-0.5221941E-07)
 number of electron       2.0000001 magnetization       0.0000000      0.0000000     -0.0000000
 augmentation part        0.3011600 magnetization       0.0000000      0.0000000      0.0000000

 Free energy of the ion-electron system (eV)
  alpha Z        PSCENC =         0.62263337
  Ewald energy   TEWEN  =       -32.81689722
  -Hartree energ DENC   =       -22.95801067
  -exchange      EXHF   =         5.88639784
  -V(xc)+E(xc)   XCENC  =         5.90163836
  PAW double counting   =        50.62272321      -51.89050253
  entropy T*S    EENTRO =        -0.00000000
  eigenvalues    EBANDS =       -33.91430742
  atomic energy  EATOM  =        78.44880706
  free energy    TOTEN  =        -0.09747944 eV

  energy without entropy =       -0.09747944  energy(sigma->0) =       -0.09747944
  exchange ACFDT corr.  =         0.00000000  see jH, gK, PRB 81, 115126

  average scaling for gradient   0.8777

 average (electrostatic) potential at core
  the test charge radii are     0.5871
  (the norm of the test charge is              1.0000)
       1 -45.1605

 E-fermi : -16.3735     XC(G=0):  -4.4357     alpha+bet : -0.9963

 k-point     1 :       0.0000    0.0000    0.0000
  band No.  band energies     occupation
      1     -17.8586      1.00000
      2     -17.8586      1.00000
      3       4.2392      0.00000
      4       4.2392      0.00000
      5      21.6216      0.00000
      6      21.6216      0.00000
      7      21.6221      0.00000
      8      21.6221      0.00000
      9      21.6221      0.00000
     10      21.6221      0.00000
     11      24.6360      0.00000
     12      24.6360      0.00000

[...]

 k-point   216 :      -0.1667   -0.1667   -0.1667
  band No.  band energies     occupation
      1     -17.6400      1.00000
      2     -17.6400      1.00000
      3       4.0584      0.00000
      4       4.0584      0.00000
      5      16.7889      0.00000
      6      16.7889      0.00000
      7      20.3905      0.00000
      8      20.3905      0.00000
      9      20.3908      0.00000
     10      20.3908      0.00000
     11      24.8760      0.00000
     12      24.8760      0.00000

 soft charge-density along one line, spin component           1
         0         1         2         3         4         5         6         7         8         9
 total charge-density along one line

[...]

 soft charge-density along one line, spin component           4
         0         1         2         3         4         5         6         7         8         9
 total charge-density along one line

------------------------ aborting loop because EDIFF is reached ----------------------------------------

  FORCE on cell =-STRESS in cart. coord.  units (eV):
  Direction    XX          YY          ZZ          XY          YZ          ZX
  Alpha Z     0.62263     0.62263     0.62263
  Ewald     -10.93897   -10.93897   -10.93897     0.00000    -0.00000     0.00000
  Hartree     7.65259     7.65259     7.65259     0.00000     0.00000     0.00000
  E(xc)      -6.56780    -6.56780    -6.56780    -0.00000    -0.00000    -0.00000
  Local     -10.64916   -10.64916   -10.64916    -0.00000    -0.00000    -0.00000
  n-local   -10.66750   -10.66750   -10.66750    -0.00000    -0.00000    -0.00000
  augment     3.30909     3.30908     3.30908     0.00001     0.00000     0.00001
  Kinetic    29.04364    29.04365    29.04365    -0.00001    -0.00000    -0.00000
  Fock       -2.58695    -2.58683    -2.58680    -0.00010    -0.00004    -0.00007
  Total      -0.78243    -0.78231    -0.78228    -0.00010    -0.00004    -0.00007
  in kB     -76.97854   -76.96710   -76.96424    -0.00991    -0.00404    -0.00701

 VOLUME and BASIS-vectors are now :
  energy-cutoff  :      300.00
  volume of cell :       16.28
      direct lattice vectors                 reciprocal lattice vectors
     2.845115027  0.000000000  0.000000000     0.351479638 -0.202926864 -0.143490961
     1.422557513  2.463941890  0.000000000     0.000000000  0.405853727 -0.143490961
     1.422557513  0.821313963  2.323026692     0.000000000  0.000000000  0.430472884

  length of vectors
     2.845115027  2.845115027  2.845115027     0.430472884  0.430472884  0.430472884

 FORCES acting on ions:
    Electron-Ion                     Ewald-Force                    Non-Local-Force
   0.183E-05 -.228E-05 -.812E-06   -.213E-15 -.672E-17 0.753E-16   0.908E-05 -.927E-05 -.319E-05
   0.183E-05 -.228E-05 -.812E-06   -.213E-15 -.672E-17 0.753E-16   0.908E-05 -.927E-05 -.319E-05

 POSITION                                       TOTAL-FORCE (eV/Angst)
      0.00000      0.00000      0.00000         0.000011     -0.000012     -0.000004
    total drift:                                0.000011     -0.000012     -0.000004

  FREE ENERGIE OF THE ION-ELECTRON SYSTEM (eV)
  free  energy   TOTEN  =        -0.09747944 eV

  energy  without entropy=       -0.09747944  energy(sigma->0) =       -0.09747944

 writing wavefunctions

 Spin-Orbit-Coupling matrix elements

 Ion:    1  E_soc:     -0.0000000
 l=   1
     0.0000000    -0.0000000    -0.0000000
    -0.0000000     0.0000000    -0.0000000
    -0.0000000    -0.0000000     0.0000000
 l=   2
     0.0000000    -0.0000000     0.0000000    -0.0000000    -0.0000000
    -0.0000000     0.0000000    -0.0000000    -0.0000000    -0.0000000
     0.0000000    -0.0000000     0.0000000    -0.0000000     0.0000000
    -0.0000000    -0.0000000    -0.0000000     0.0000000    -0.0000000
    -0.0000000    -0.0000000     0.0000000    -0.0000000     0.0000000
 l=   3
     0.0000000     0.0000000     0.0000000     0.0000000     0.0000000     0.0000000     0.0000000
     0.0000000     0.0000000     0.0000000     0.0000000     0.0000000     0.0000000     0.0000000
     0.0000000     0.0000000     0.0000000     0.0000000     0.0000000     0.0000000     0.0000000
     0.0000000     0.0000000     0.0000000     0.0000000     0.0000000     0.0000000     0.0000000
     0.0000000     0.0000000     0.0000000     0.0000000     0.0000000     0.0000000     0.0000000
     0.0000000     0.0000000     0.0000000     0.0000000     0.0000000     0.0000000     0.0000000
     0.0000000     0.0000000     0.0000000     0.0000000     0.0000000     0.0000000     0.0000000