 vasp.5.4.4.18Apr17-6-g9f103f2a35 (build Nov 03 2018 10:20:46) complex

 executed on             LinuxIFC date 2018.12.21  13:25:47

 INCAR:
 POTCAR:    PAW_PBE Xe_GW 08Jan2009

 POTCAR:    PAW_PBE Xe_GW 08Jan2009
   VRHFIN =Xe: s2p6

   TITEL  = PAW_PBE Xe_GW 08Jan2009
   POMASS =  131.294; ZVAL   =    8.000    mass and valenz
   ENMAX  =  179.547; ENMIN  =  134.660 eV

  PAW_PBE Xe_GW 08Jan2009               :

 POSCAR: Xe_FCC
  positions in direct lattice
  velocities in cartesian coordinates

 METAGGA = SCAN     LMAXTAU =  0    LMIXTAU =  F

 ion  position               nearest neighbor table
   1  0.000  0.000  0.000-

IMPORTANT INFORMATION: All symmetrisations will be switched off!
NOSYMM: (Re-)initialisation of all symmetry stuff for point group C_1.

 KPOINTS: Automatically generated mesh + R-points
  k-points in reciprocal lattice
Space group operators:
 irot       det(A)        alpha          n_x          n_y          n_z        tau_x        tau_y        tau_z
    1     1.000000     0.000000     1.000000     0.000000     0.000000     0.000000     0.000000     0.000000

 SYSTEM =  Xe_FCC
 POSCAR =  Xe_FCC

 Startparameter for this run:
   NWRITE =      2    write-flag & timer
   PREC   = accura    normal or accurate (medium, high low for compatibility)
   ISTART =      0    job   : 0-new  1-cont  2-samecut
   ICHARG =      2    charge: 1-file 2-atom 10-const
   ISPIN  =      1    spin polarized calculation?
   LNONCOLLINEAR =      T non collinear calculations
   LSORBIT =      T    spin-orbit coupling
   INIWAV =      1    electr: 0-lowe 1-rand  2-diag
   LASPH  =      F    aspherical Exc in radial PAW
   METAGGA=      F    non-selfconsistent MetaGGA calc.

 Electronic Relaxation 1
   ENCUT  =  300.0 eV  22.05 Ry    4.70 a.u.   6.12  6.12  6.12*2*pi/ulx,y,z
   ENINI  =  300.0     initial cutoff
   ENAUG  =  605.9 eV  augmentation charge cutoff
   NELM   =     50;   NELMIN=  2; NELMDL= -5     # of ELM steps
   EDIFF  = 0.1E-07   stopping-criterion for ELM
   LREAL  =      F    real-space projection
   NLSPLINE    = F    spline interpolate recip. space projectors
   LCOMPAT=      F    compatible to vasp.4.4
   GGA_COMPAT  = F    GGA compatible to vasp.4.4-vasp.4.6
   LMAXPAW     = -100 max onsite density
   LMAXMIX     =    2 max onsite mixed and CHGCAR
   VOSKOWN=      0    Vosko Wilk Nusair interpolation
   ROPT   =    0.00000
 Ionic relaxation
   EDIFFG = 0.1E-04   stopping-criterion for IOM
   NSW    =      1    number of steps for IOM
   NBLOCK =      1;   KBLOCK =      1    inner block; outer block
   IBRION =     -1    ionic relax: 0-MD 1-quasi-New 2-CG
   NFREE  =      5    steps in history (QN), initial steepest desc. (CG)
   ISIF   =      3    stress and relaxation
   IWAVPR =     10    prediction:  0-non 1-charg 2-wave 3-comb
   ISYM   =      0    0-nonsym 1-usesym 2-fastsym
   LCORR  =      T    Harris-Foulkes like correction to forces

   POTIM  = 0.1000    time-step for ionic-motion
   TEIN   =    0.0    initial temperature
   TEBEG  =    0.0;   TEEND  =   0.0 temperature during run
   SMASS  =  -3.00    Nose mass-parameter (am)
   estimated Nose-frequenzy (Omega)   =  0.10E-29 period in steps =****** mass=  -0.430E-27a.u.
   SCALEE = 1.0000    scale energy and forces
   NPACO  =    256;   APACO  = 16.0  distance and # of slots for P.C.
   PSTRESS=    0.0 pullay stress

  Mass of Ions in am
   POMASS = 131.29
  Ionic Valenz
   ZVAL   =   8.00
  Atomic Wigner-Seitz radii
  virtual crystal weights
   VCA    =   1.00
   NELECT =       8.0000    total number of electrons
   NUPDOWN=      -1.0000    fix difference up-down

 DOS related values:
   EMIN   =  10.00;   EMAX   =-10.00  energy-range for DOS
   EFERMI =   0.00
   ISMEAR =     0;   SIGMA  =   0.05  broadening in eV -4-tet -1-fermi 0-gaus

 Electronic relaxation 2 (details)
   IALGO  =     38    algorithm
   LDIAG  =      T    sub-space diagonalisation (order eigenvalues)
   LSUBROT=      F    optimize rotation matrix (better conditioning)
   TURBO    =      0    0=normal 1=particle mesh
   IRESTART =      0    0=no restart 2=restart with 2 vectors
   NREBOOT  =      0    no. of reboots
   NMIN     =      0    reboot dimension
   EREF     =   0.00    reference energy to select bands
   IMIX   =      4    mixing-type and parameters
     AMIX     =   0.40;   BMIX     =  1.00
     AMIX_MAG =   1.60;   BMIX_MAG =  1.00
     AMIN     =   0.10
     WC   =   100.;   INIMIX=   1;  MIXPRE=   1;  MAXMIX=  50

 Intra band minimization:
   WEIMIN = 0.0000     energy-eigenvalue tresh-hold
   EBREAK =  0.78E-10  absolut break condition
   DEPER  =   0.30     relativ break condition

   TIME   =   0.40     timestep for ELM

  volume/ion in A,a.u.               =      57.64       389.00
  Fermi-wavevector in a.u.,A,eV,Ry     =   0.847594  1.601720  9.774627  0.718415
  Thomas-Fermi vector in A             =   1.963124

 Write flags
   LWAVE        =      T    write WAVECAR
   LDOWNSAMPLE  =      F    k-point downsampling of WAVECAR
   LCHARG       =      T    write CHGCAR
   LVTOT        =      F    write LOCPOT, total local potential
   LVHAR        =      F    write LOCPOT, Hartree potential only
   LELF         =      F    write electronic localiz. function (ELF)
   LORBIT       =      0    0 simple, 1 ext, 2 COOP (PROOUT), +10 PAW based schemes

 Dipole corrections
   LMONO  =      F    monopole corrections only (constant potential shift)
   LDIPOL =      F    correct potential (dipole corrections)
   IDIPOL =      0    1-x, 2-y, 3-z, 4-all directions
   EPSILON=  1.0000000 bulk dielectric constant

 Exchange correlation treatment:
   GGA     =    --    GGA type
   VOSKOWN=      0    Vosko Wilk Nusair interpolation
   LHFCALC =     F    Hartree Fock is set to
   LHFONE  =     F    Hartree Fock one center treatment
   AEXX    =    0.0000 exact exchange contribution

 Linear response parameters
   LEPSILON=     F    determine dielectric tensor
   LRPA    =     F    only Hartree local field effects (RPA)
   LNABLA  =     F    use nabla operator in PAW spheres
   LVEL    =     F    velocity operator in full k-point grid
   LINTERFAST=   F  fast interpolation
   KINTER  =     0    interpolate to denser k-point grid
   CSHIFT  =0.1000    complex shift for real part using Kramers Kronig
   OMEGAMAX=  -1.0    maximum frequency
   DEG_THRESHOLD= 0.2000000E-02 threshold for treating states as degnerate
   RTIME   =   -0.100 relaxation time in fs
  (WPLASMAI=    0.000 imaginary part of plasma frequency in eV, 0.658/RTIME)
   DFIELD  = 0.0000000 0.0000000 0.0000000 field for delta impulse in time

 Orbital magnetization related:
   ORBITALMAG=     F  switch on orbital magnetization
   LCHIMAG   =     F  perturbation theory with respect to B field
   DQ        =  0.001000  dq finite difference perturbation B field
   LLRAUG    =     F  two centre corrections for induced B field

 Static calculation
 charge density and potential will be updated during run
 non collinear spin polarized calculation
 Variant of blocked Davidson
 Davidson routine will perform the subspace rotation
 perform sub-space diagonalisation
    after iterative eigenvector-optimisation
 modified Broyden-mixing scheme, WC =      100.0
 initial mixing is a Kerker type mixing with AMIX =  0.4000 and BMIX =      1.0000
 Hartree-type preconditioning will be used
 using additional bands           28
 reciprocal scheme for non local part
 use partial core corrections
 calculate Harris-corrections to forces
   (improved forces if not selfconsistent)
 use gradient corrections
 use of overlap-Matrix (Vanderbilt PP)
 Gauss-broadening in eV      SIGMA  =   0.05

  energy-cutoff  :      300.00
  volume of cell :       57.64
      direct lattice vectors                 reciprocal lattice vectors
     4.335995782  0.000000000  0.000000000     0.230627531 -0.133152867 -0.094153295
     2.167997891  3.755082498 -0.000000000     0.000000000  0.266305734 -0.094153295
     2.167997891  1.251694166  3.540325731    -0.000000000  0.000000000  0.282459885

  length of vectors
     4.335995782  4.335995782  4.335995782     0.282459885  0.282459885  0.282459885

 k-points in units of 2pi/SCALE and weight: Automatically generated mesh + R-points
   0.11281079  0.06513134  0.04605481       0.000
   0.10717025  0.06187477  0.04375207       0.000
   0.10152971  0.05861821  0.04144933       0.000
   0.09588917  0.05536164  0.03914659       0.000
   0.09024863  0.05210507  0.03684385       0.000
   0.08460809  0.04884851  0.03454111       0.000
   0.07896755  0.04559194  0.03223837       0.000
   0.07332701  0.04233537  0.02993563       0.000
   0.06768647  0.03907880  0.02763289       0.000
   0.06204593  0.03582224  0.02533015       0.000
   0.05640540  0.03256567  0.02302741       0.000
   0.05076486  0.02930910  0.02072467       0.000
   0.04512432  0.02605254  0.01842192       0.000
   0.03948378  0.02279597  0.01611918       0.000
   0.03384324  0.01953940  0.01381644       0.000
   0.02820270  0.01628284  0.01151370       0.000
   0.02256216  0.01302627  0.00921096       0.000
   0.01692162  0.00976970  0.00690822       0.000
   0.01128108  0.00651313  0.00460548       0.000
   0.00564054  0.00325657  0.00230274       0.000
   0.00000000  0.00000000  0.00000000       0.000
  -0.00000000  0.00651313  0.00460548       0.000
  -0.00000000  0.01302627  0.00921096       0.000
  -0.00000000  0.01953940  0.01381644       0.000
  -0.00000000  0.02605254  0.01842192       0.000
  -0.00000000  0.03256567  0.02302741       0.000
  -0.00000000  0.03907880  0.02763289       0.000
  -0.00000000  0.04559194  0.03223837       0.000
  -0.00000000  0.05210507  0.03684385       0.000
  -0.00000000  0.05861821  0.04144933       0.000
  -0.00000000  0.06513134  0.04605481       0.000
  -0.00000000  0.07164447  0.05066029       0.000
  -0.00000000  0.07815761  0.05526577       0.000
  -0.00000000  0.08467074  0.05987126       0.000
  -0.00000000  0.09118388  0.06447674       0.000
  -0.00000000  0.09769701  0.06908222       0.000
  -0.00000000  0.10421014  0.07368770       0.000
  -0.00000000  0.11072328  0.07829318       0.000
  -0.00000000  0.11723641  0.08289866       0.000
  -0.00000000  0.12374955  0.08750414       0.000
  -0.00000000  0.13026268  0.09210962       0.000
   0.00000000  0.00000000  0.00000000       0.005
   0.03760360 -0.02171045 -0.01535160       0.005
   0.07520719 -0.04342089 -0.03070321       0.005
   0.11281079 -0.06513134 -0.04605481       0.005
  -0.07520719  0.04342089  0.03070321       0.005
  -0.03760360  0.02171045  0.01535160       0.005
   0.00000000  0.04342089 -0.01535160       0.005
   0.03760360  0.02171045 -0.03070321       0.005
   0.07520719  0.00000000 -0.04605481       0.005
   0.11281079 -0.02171045 -0.06140642       0.005
  -0.07520719  0.08684179  0.01535160       0.005
  -0.03760360  0.06513134  0.00000000       0.005
   0.00000000  0.08684179 -0.03070321       0.005
   0.03760360  0.06513134 -0.04605481       0.005
   0.07520719  0.04342089 -0.06140642       0.005
   0.11281079  0.02171045 -0.07675802       0.005
  -0.07520719  0.13026268  0.00000000       0.005
  -0.03760360  0.10855223 -0.01535160       0.005
   0.00000000  0.13026268 -0.04605481       0.005
[...]
[...]
 k-point 55 :   0.1667 0.3333 0.0000  plane waves:    1360
 k-point 56 :   0.3333 0.3333 0.0000  plane waves:    1360
 k-point 57 :   0.5000 0.3333 0.0000  plane waves:    1372
 k-point 58 :  -0.3333 0.3333 0.0000  plane waves:    1360
 k-point 59 :  -0.1667 0.3333 0.0000  plane waves:    1354
 k-point 60 :   0.0000 0.5000 0.0000  plane waves:    1400
[...]
 k-point 85 :   0.1667 0.1667 0.1667  plane waves:    1346
 k-point 86 :   0.3333 0.1667 0.1667  plane waves:    1348
 k-point 87 :   0.5000 0.1667 0.1667  plane waves:    1354
 k-point 88 :  -0.3333 0.1667 0.1667  plane waves:    1356
 k-point 89 :  -0.1667 0.1667 0.1667  plane waves:    1360
 k-point 90 :   0.0000 0.3333 0.1667  plane waves:    1360
 k-point 91 :   0.1667 0.3333 0.1667  plane waves:    1348
 k-point 92 :   0.3333 0.3333 0.1667  plane waves:    1360
 k-point 93 :   0.5000 0.3333 0.1667  plane waves:    1352
 k-point 94 :  -0.3333 0.3333 0.1667  plane waves:    1384
 k-point 95 :  -0.1667 0.3333 0.1667  plane waves:    1352
 k-point 96 :   0.0000 0.5000 0.1667  plane waves:    1356
 k-point 97 :   0.1667 0.5000 0.1667  plane waves:    1354
 k-point 98 :   0.3333 0.5000 0.1667  plane waves:    1352
 k-point 99 :   0.5000 0.5000 0.1667  plane waves:    1372
 k-point ** :  -0.3333 0.5000 0.1667  plane waves:    1380
 k-point ** :  -0.1667 0.5000 0.1667  plane waves:    1384
 k-point ** :   0.0000-0.3333 0.1667  plane waves:    1354
 k-point ** :   0.1667-0.3333 0.1667  plane waves:    1356
 k-point ** :   0.3333-0.3333 0.1667  plane waves:    1384
 k-point ** :   0.5000-0.3333 0.1667  plane waves:    1380
 k-point ** :  -0.3333-0.3333 0.1667  plane waves:    1372
 k-point ** :  -0.1667-0.3333 0.1667  plane waves:    1352
 k-point ** :   0.0000-0.1667 0.1667  plane waves:    1348
 k-point ** :   0.1667-0.1667 0.1667  plane waves:    1360
 k-point ** :   0.3333-0.1667 0.1667  plane waves:    1352
 k-point ** :   0.5000-0.1667 0.1667  plane waves:    1384
 k-point ** :  -0.3333-0.1667 0.1667  plane waves:    1352
 k-point ** :  -0.1667-0.1667 0.1667  plane waves:    1360
 k-point ** :   0.0000 0.0000 0.3333  plane waves:    1328
 k-point ** :   0.1667 0.0000 0.3333  plane waves:    1360
 k-point ** :   0.3333 0.0000 0.3333  plane waves:    1360
 k-point ** :   0.5000 0.0000 0.3333  plane waves:    1372
 k-point ** :  -0.3333 0.0000 0.3333  plane waves:    1360
 k-point ** :  -0.1667 0.0000 0.3333  plane waves:    1354
 k-point ** :   0.0000 0.1667 0.3333  plane waves:    1360
 k-point ** :   0.1667 0.1667 0.3333  plane waves:    1348
 k-point ** :   0.3333 0.1667 0.3333  plane waves:    1360
 k-point ** :   0.5000 0.1667 0.3333  plane waves:    1352
 k-point ** :  -0.3333 0.1667 0.3333  plane waves:    1384
 k-point ** :  -0.1667 0.1667 0.3333  plane waves:    1352
 k-point ** :   0.0000 0.3333 0.3333  plane waves:    1360
 k-point ** :   0.1667 0.3333 0.3333  plane waves:    1360
 k-point ** :   0.3333 0.3333 0.3333  plane waves:    1328
 k-point ** :   0.5000 0.3333 0.3333  plane waves:    1354
 k-point ** :  -0.3333 0.3333 0.3333  plane waves:    1360
 k-point ** :  -0.1667 0.3333 0.3333  plane waves:    1372
 k-point ** :   0.0000 0.5000 0.3333  plane waves:    1372
 k-point ** :   0.1667 0.5000 0.3333  plane waves:    1352
 k-point ** :   0.3333 0.5000 0.3333  plane waves:    1354
 k-point ** :   0.5000 0.5000 0.3333  plane waves:    1356
 k-point ** :  -0.3333 0.5000 0.3333  plane waves:    1384
 k-point ** :  -0.1667 0.5000 0.3333  plane waves:    1380
 k-point ** :   0.0000-0.3333 0.3333  plane waves:    1360
 k-point ** :   0.1667-0.3333 0.3333  plane waves:    1384
 k-point ** :   0.3333-0.3333 0.3333  plane waves:    1360
 k-point ** :   0.5000-0.3333 0.3333  plane waves:    1384
 k-point ** :  -0.3333-0.3333 0.3333  plane waves:    1360
 k-point ** :  -0.1667-0.3333 0.3333  plane waves:    1384
 k-point ** :   0.0000-0.1667 0.3333  plane waves:    1354
 k-point ** :   0.1667-0.1667 0.3333  plane waves:    1352
 k-point ** :   0.3333-0.1667 0.3333  plane waves:    1372
 k-point ** :   0.5000-0.1667 0.3333  plane waves:    1380
 k-point ** :  -0.3333-0.1667 0.3333  plane waves:    1384
 k-point ** :  -0.1667-0.1667 0.3333  plane waves:    1356
 k-point ** :   0.0000 0.0000 0.5000  plane waves:    1400
 k-point ** :   0.1667 0.0000 0.5000  plane waves:    1356
 k-point ** :   0.3333 0.0000 0.5000  plane waves:    1372
 k-point ** :   0.5000 0.0000 0.5000  plane waves:    1384
 k-point ** :  -0.3333 0.0000 0.5000  plane waves:    1372
 k-point ** :  -0.1667 0.0000 0.5000  plane waves:    1356
 k-point ** :   0.0000 0.1667 0.5000  plane waves:    1356
 k-point ** :   0.1667 0.1667 0.5000  plane waves:    1354
 k-point ** :   0.3333 0.1667 0.5000  plane waves:    1352
 k-point ** :   0.5000 0.1667 0.5000  plane waves:    1372
[...]
 k-point ** :   0.3333 0.5000-0.1667  plane waves:    1380
 k-point ** :   0.5000 0.5000-0.1667  plane waves:    1372
 k-point ** :  -0.3333 0.5000-0.1667  plane waves:    1352
 k-point ** :  -0.1667 0.5000-0.1667  plane waves:    1354
 k-point ** :   0.0000-0.3333-0.1667  plane waves:    1360
 k-point ** :   0.1667-0.3333-0.1667  plane waves:    1352
 k-point ** :   0.3333-0.3333-0.1667  plane waves:    1384
 k-point ** :   0.5000-0.3333-0.1667  plane waves:    1352
 k-point ** :  -0.3333-0.3333-0.1667  plane waves:    1360
 k-point ** :  -0.1667-0.3333-0.1667  plane waves:    1348
 k-point ** :   0.0000-0.1667-0.1667  plane waves:    1362
 k-point ** :   0.1667-0.1667-0.1667  plane waves:    1360
 k-point ** :   0.3333-0.1667-0.1667  plane waves:    1356
 k-point ** :   0.5000-0.1667-0.1667  plane waves:    1354
 k-point ** :  -0.3333-0.1667-0.1667  plane waves:    1348

 maximum and minimum number of plane-waves per node :       372      310

 maximum number of plane-waves:      1400
 maximum index in each direction:
   IXMAX=    6   IYMAX=    6   IZMAX=    6
   IXMIN=   -6   IYMIN=   -6   IZMIN=   -6

 parallel 3D FFT for wavefunctions:
    minimum data exchange during FFTs selected (reduces bandwidth)
 parallel 3D FFT for charge:
    minimum data exchange during FFTs selected (reduces bandwidth)

 Broyden mixing: mesh for mixing (old mesh)
   NGX = 13   NGY = 13   NGZ = 13
  (NGX  = 48   NGY  = 48   NGZ  = 48)
  gives a total of   2197 points

 initial charge density was supplied:
 charge density of overlapping atoms calculated
 number of electron       8.0000000 magnetization       1.0000000      1.0000000      1.0000000
 keeping initial charge density in first step

 Maximum index for augmentation-charges        23021 (set IRDMAX)

 First call to EWALD:  gamma=   0.459
 Maximum number of real-space cells 3x 3x 3
 Maximum number of reciprocal cells 3x 3x 3

--------------------------------------- Iteration      1(   1)  ---------------------------------------

 eigenvalue-minimisations  : 16392
 total energy-change (2. order) :-0.7240286E+01  (-0.1882011E+03)
 number of electron       8.0000000 magnetization       1.0000000      1.0000000      1.0000000
 augmentation part        8.0000000 magnetization       1.0000000      1.0000000      1.0000000

 Free energy of the ion-electron system (eV)
  alpha Z        PSCENC =        22.61767795
  Ewald energy   TEWEN  =      -344.53113738
  -Hartree energ DENC   =       -64.52406707
  -exchange      EXHF   =         0.00000000
  -V(xc)+E(xc)   XCENC  =       -57.35687117
  PAW double counting   =       413.00176589     -372.52262559
  entropy T*S    EENTRO =        -0.00007097
  eigenvalues    EBANDS =       -33.42773863
  atomic energy  EATOM  =       429.50278051
  Solvation  Ediel_sol  =         0.00000000
  free energy    TOTEN  =        -7.24028647 eV

  energy without entropy =       -7.24021549  energy(sigma->0) =       -7.24025098

[...]

 Broyden mixing:
  rms(total) = 0.43205E+00    rms(broyden)= 0.43205E+00
  rms(prec ) = 0.43935E+00
  weight for this iteration     100.00

[...]

 eigenvalue-minimisations  : 18784
 total energy-change (2. order) : 0.1073069E+01  (-0.1602290E-01)
 number of electron       8.0000000 magnetization      -0.0090041     -0.0090066     -0.0090071
 augmentation part       -1.3396228 magnetization      -0.0071977     -0.0071922     -0.0071684

[...]

 eigenvalues of (default mixing * dielectric matrix)
  average eigenvalue GAMMA=   0.7884
  0.7884

[...]

 eigenvalue-minimisations  : 20128
 total energy-change (2. order) :-0.8001319E-07  (-0.2421330E-08)
 number of electron       8.0000000 magnetization       0.0000014      0.0000015      0.0000015
 augmentation part       -1.3392876 magnetization       0.0000007      0.0000005      0.0000000

[...]

 Broyden mixing:
  rms(total) = 0.95966E-05    rms(broyden)= 0.95958E-05
  rms(prec ) = 0.96339E-05
  weight for this iteration     100.00

 eigenvalues of (default mixing * dielectric matrix)
  average eigenvalue GAMMA=   1.0327
  3.0256  2.6639  1.6371  1.6371  1.0056  1.0056  0.8281  0.7653  0.7653  0.6495
  0.5864  0.5864  0.5492  0.4737  0.2082  0.1368

[...]

--------------------------------------- Iteration      1(  22)  ---------------------------------------

 eigenvalue-minimisations  : 13272
 total energy-change (2. order) : 0.9431631E-08  (-0.6942859E-09)
 number of electron       8.0000000 magnetization      -0.0000001     -0.0000001     -0.0000001
 augmentation part       -1.3392875 magnetization      -0.0000006     -0.0000007     -0.0000004

 Free energy of the ion-electron system (eV)
  alpha Z        PSCENC =        22.61767795
  Ewald energy   TEWEN  =      -344.53113738
  -Hartree energ DENC   =       -64.49373590
  -exchange      EXHF   =         0.00000000
  -V(xc)+E(xc)   XCENC  =       -57.17021913
  PAW double counting   =       418.13687562     -377.80806800
  entropy T*S    EENTRO =        -0.00000000
  eigenvalues    EBANDS =       -62.64822999
  atomic energy  EATOM  =       429.50278051
  Solvation  Ediel_sol  =         0.00000000
  free energy    TOTEN  =       -36.39405633 eV

  energy without entropy =      -36.39405633  energy(sigma->0) =      -36.39405633

 average (electrostatic) potential at core
  the test charge radii are     1.1266
  (the norm of the test charge is              1.0000)
       1 -62.8941

 E-fermi :  -3.3994     XC(G=0):  -7.3117     alpha+bet : -3.7983

 k-point     1 :       0.5000    0.5000    0.5000
  band No.  band energies     occupation
      1     -16.7222      1.00000
      2     -16.7222      1.00000
      3      -6.0729      1.00000
      4      -6.0729      1.00000
      5      -4.5533      1.00000
      6      -4.5533      1.00000
      7      -3.8884      1.00000
      8      -3.8884      1.00000
      9       4.2628      0.00000
     10       4.2628      0.00000
     11       6.9812      0.00000
     12       6.9812      0.00000
     13       7.0422      0.00000
     14       7.0422      0.00000
     15       7.5925      0.00000
     16       7.5925      0.00000
     17      10.2198      0.00000
     18      10.2198      0.00000
     19      11.6427      0.00000
     20      11.6427      0.00000
     21      11.6931      0.00000
     22      11.6931      0.00000
     23      13.4930      0.00000
     24      13.4930      0.00000
     25      13.5883      0.00000
     26      13.5883      0.00000
     27      13.8219      0.00000
     28      13.8219      0.00000
     29      18.2168      0.00000
     30      18.2168      0.00000
     31      18.7461      0.00000
     32      18.7603      0.00000

[...]

 k-point   256 :      -0.3333   -0.1667   -0.1667
  band No.  band energies     occupation
      1     -16.8303      1.00000
      2     -16.8303      1.00000
      3      -5.5069      1.00000
      4      -5.5069      1.00000
      5      -4.3607      1.00000
      6      -4.3607      1.00000
      7      -3.8713      1.00000
      8      -3.8713      1.00000
      9       4.4424      0.00000
     10       4.4424      0.00000
     11       6.2785      0.00000
     12       6.2785      0.00000
     13       7.0326      0.00000
     14       7.0326      0.00000
     15       8.0787      0.00000
     16       8.0787      0.00000
     17       8.1583      0.00000
     18       8.1583      0.00000
     19      10.4704      0.00000
     20      10.4704      0.00000
     21      12.1355      0.00000
     22      12.1355      0.00000
     23      12.4866      0.00000
     24      12.4866      0.00000
     25      14.5235      0.00000
     26      14.5235      0.00000
     27      15.6045      0.00000
     28      15.6045      0.00000
     29      16.2049      0.00000
     30      16.2049      0.00000
     31      18.7758      0.00000
     32      18.8700      0.00000

 soft charge-density along one line, spin component           1
         0         1         2         3         4         5         6         7         8         9
 total charge-density along one line

[...]

 soft charge-density along one line, spin component           4
         0         1         2         3         4         5         6         7         8         9
 total charge-density along one line

------------------------ aborting loop because EDIFF is reached ----------------------------------------

  FORCE on cell =-STRESS in cart. coord.  units (eV):
  Direction    XX          YY          ZZ          XY          YZ          ZX
  Alpha Z    22.61768    22.61768    22.61768
  Ewald    -114.84372  -114.84372  -114.84372    -0.00000    -0.00000    -0.00000
  Hartree    21.49637    21.49843    21.49894    -0.00178    -0.00073    -0.00126
  E(xc)     -39.96872   -39.96811   -39.96795    -0.00053    -0.00022    -0.00038
  Local     -14.68598   -14.68475   -14.68444    -0.00107    -0.00044    -0.00075
  n-local    44.73012    44.72829    44.72783     0.00159     0.00065     0.00112
  augment   -11.71429   -11.71304   -11.71272    -0.00109    -0.00044    -0.00077
  Kinetic    92.44804    92.43794    92.43541     0.00875     0.00356     0.00619
  Fock        0.00000     0.00000     0.00000     0.00000     0.00000     0.00000
  Total       0.07950     0.07273     0.07104     0.00587     0.00239     0.00415
  in kB       2.20977     2.02138     1.97443     0.16308     0.06637     0.11536

 VOLUME and BASIS-vectors are now :
  energy-cutoff  :      300.00
  volume of cell :       57.64
      direct lattice vectors                 reciprocal lattice vectors
     4.335995782  0.000000000  0.000000000     0.230627531 -0.133152867 -0.094153295
     2.167997891  3.755082498 -0.000000000     0.000000000  0.266305734 -0.094153295
     2.167997891  1.251694166  3.540325731    -0.000000000  0.000000000  0.282459885

  length of vectors
     4.335995782  4.335995782  4.335995782     0.282459885  0.282459885  0.282459885

 FORCES acting on ions
    electron-ion (+dipol)            ewald-force                    non-local-force                 convergence-correction
   -.222E-07 0.522E-07 0.825E-07   0.118E-15 0.307E-16 0.152E-15   0.358E-07 -.369E-07 -.844E-07   0.138E-08 -.304E-07 -.429E-08
   -.180E-07 0.457E-07 0.709E-07   0.118E-15 0.307E-16 0.152E-15   0.358E-07 -.369E-07 -.844E-07   0.138E-08 -.304E-07 -.429E-08

 POSITION                                       TOTAL-FORCE (eV/Angst)
      0.00000      0.00000      0.00000         0.000000     -0.000000     -0.000000
    total drift:                                0.000000     -0.000000     -0.000000

  FREE ENERGIE OF THE ION-ELECTRON SYSTEM (eV)
  free  energy   TOTEN  =       -36.39405633 eV

  energy  without entropy=      -36.39405633  energy(sigma->0) =      -36.39405633

 writing wavefunctions

 Spin-Orbit-Coupling matrix elements

 Ion:    1  E_soc:     -0.2841599
 l=   1
     0.0000000    -0.0473590    -0.0473508
    -0.0473590     0.0000000    -0.0473524
    -0.0473508    -0.0473524     0.0000000
 l=   2
     0.0000000    -0.0000011     0.0000000    -0.0000011    -0.0000048
    -0.0000011     0.0000000    -0.0000036    -0.0000011    -0.0000011
     0.0000000    -0.0000036     0.0000000    -0.0000036     0.0000000
    -0.0000011    -0.0000011    -0.0000036     0.0000000    -0.0000011
    -0.0000048    -0.0000011     0.0000000    -0.0000011     0.0000000
 l=   3
     0.0000000     0.0000000     0.0000000     0.0000000     0.0000000     0.0000000    -0.0000000
     0.0000000     0.0000000    -0.0000000     0.0000000    -0.0000000    -0.0000000    -0.0000000
     0.0000000    -0.0000000     0.0000000    -0.0000000    -0.0000000    -0.0000000     0.0000000
     0.0000000     0.0000000    -0.0000000     0.0000000    -0.0000000     0.0000000     0.0000000
     0.0000000    -0.0000000    -0.0000000    -0.0000000     0.0000000    -0.0000000     0.0000000
     0.0000000    -0.0000000    -0.0000000     0.0000000    -0.0000000     0.0000000    -0.0000000
    -0.0000000    -0.0000000     0.0000000     0.0000000     0.0000000    -0.0000000     0.0000000