 vasp.5.4.4.18Apr17-6-g9f103f2a35 (build Nov 03 2018 10:20:46) complex

 executed on             LinuxIFC date 2018.11.13  16:21:41

 INCAR:
 POTCAR:    PAW Og, JanMewes Oct 18

 POTCAR:    PAW Og, JanMewes Oct 18
   VRHFIN =Og : 10d 2s 6p, PE

   TITEL  = PAW Og, JanMewes Oct 18
   POMASS =    0.010; ZVAL   =   18.000    mass and valenz
   ENMAX  =  339.336; ENMIN  =  254.502 eV
   QCUT   =   -4.994; QGAM   =    9.988    optimization parameters

  PAW Og, JanMewes Oct 18               :

 POSCAR: Og_FCC
  positions in direct lattice
  velocities in cartesian coordinates
 exchange correlation table for  LEXCH =        8
   RHO(1)=    0.500       N(1)  =     2000
   RHO(2)=  100.500       N(2)  =     4000

 ion  position               nearest neighbor table
   1  0.000  0.000  0.000-

IMPORTANT INFORMATION: All symmetrisations will be switched off!
NOSYMM: (Re-)initialisation of all symmetry stuff for point group C_1.

 KPOINTS: k-points

Automatic generation of k-mesh.
Space group operators:
 irot       det(A)        alpha          n_x          n_y          n_z        tau_x        tau_y        tau_z
    1     1.000000     0.000000     1.000000     0.000000     0.000000     0.000000     0.000000     0.000000

 Subroutine IBZKPT returns following result:

 Found     27 irreducible k-points:

 Following reciprocal coordinates:
            Coordinates               Weight
  0.000000  0.000000  0.000000      1.000000
  0.333333  0.000000  0.000000      1.000000
 -0.333333 -0.000000  0.000000      1.000000
  0.000000  0.333333 -0.000000      1.000000
  0.333333  0.333333  0.000000      1.000000
 -0.333333  0.333333 -0.000000      1.000000
 -0.000000 -0.333333  0.000000      1.000000
  0.333333 -0.333333  0.000000      1.000000
 -0.333333 -0.333333 -0.000000      1.000000
  0.000000  0.000000  0.333333      1.000000
  0.333333  0.000000  0.333333      1.000000
 -0.333333  0.000000  0.333333      1.000000
 -0.000000  0.333333  0.333333      1.000000
  0.333333  0.333333  0.333333      1.000000
 -0.333333  0.333333  0.333333      1.000000
  0.000000 -0.333333  0.333333      1.000000
  0.333333 -0.333333  0.333333      1.000000
 -0.333333 -0.333333  0.333333      1.000000
  0.000000  0.000000 -0.333333      1.000000
  0.333333 -0.000000 -0.333333      1.000000
 -0.333333 -0.000000 -0.333333      1.000000
  0.000000  0.333333 -0.333333      1.000000
  0.333333  0.333333 -0.333333      1.000000
 -0.333333  0.333333 -0.333333      1.000000
  0.000000 -0.333333 -0.333333      1.000000
  0.333333 -0.333333 -0.333333      1.000000
 -0.333333 -0.333333 -0.333333      1.000000

 Following cartesian coordinates:
            Coordinates               Weight
  0.000000  0.000000  0.000000      1.000000
  0.076763 -0.044319 -0.031339      1.000000
 -0.076763  0.044319  0.031339      1.000000
  0.000000  0.088639 -0.031339      1.000000
  0.076763  0.044319 -0.062677      1.000000
 -0.076763  0.132958  0.000000      1.000000
 -0.000000 -0.088639  0.031339      1.000000
  0.076763 -0.132958 -0.000000      1.000000
 -0.076763 -0.044319  0.062677      1.000000
 -0.000000  0.000000  0.094016      1.000000
  0.076763 -0.044319  0.062677      1.000000
 -0.076763  0.044319  0.125354      1.000000
 -0.000000  0.088639  0.062677      1.000000
  0.076763  0.044319  0.031339      1.000000
 -0.076763  0.132958  0.094016      1.000000
 -0.000000 -0.088639  0.125354      1.000000
  0.076763 -0.132958  0.094016      1.000000
 -0.076763 -0.044319  0.156693      1.000000
  0.000000 -0.000000 -0.094016      1.000000
  0.076763 -0.044319 -0.125354      1.000000
 -0.076763  0.044319 -0.062677      1.000000
  0.000000  0.088639 -0.125354      1.000000
  0.076763  0.044319 -0.156693      1.000000
 -0.076763  0.132958 -0.094016      1.000000
  0.000000 -0.088639 -0.062677      1.000000
  0.076763 -0.132958 -0.094016      1.000000
 -0.076763 -0.044319 -0.031339      1.000000

 SYSTEM =  Og_FCC
 POSCAR =  Og_FCC

 Startparameter for this run:
   NWRITE =      2    write-flag & timer
   PREC   = accura    normal or accurate (medium, high low for compatibility)
   ISTART =      1    job   : 0-new  1-cont  2-samecut
   ICHARG =      0    charge: 1-file 2-atom 10-const
   ISPIN  =      1    spin polarized calculation?
   LNONCOLLINEAR =      T non collinear calculations
   LSORBIT =      T    spin-orbit coupling
   INIWAV =      1    electr: 0-lowe 1-rand  2-diag
   LASPH  =      F    aspherical Exc in radial PAW
   METAGGA=      F    non-selfconsistent MetaGGA calc.

 Electronic Relaxation 1
   ENCUT  =  300.0 eV  22.05 Ry    4.70 a.u.   6.13  6.13  6.13*2*pi/ulx,y,z
   ENINI  =  300.0     initial cutoff
   ENAUG  =  361.0 eV  augmentation charge cutoff
   NELM   =     50;   NELMIN=  2; NELMDL= -5     # of ELM steps
   EDIFF  = 0.1E-07   stopping-criterion for ELM
   LREAL  =      F    real-space projection
   NLSPLINE    = F    spline interpolate recip. space projectors
   LCOMPAT=      F    compatible to vasp.4.4
   GGA_COMPAT  = F    GGA compatible to vasp.4.4-vasp.4.6
   LMAXPAW     = -100 max onsite density
   LMAXMIX     =    2 max onsite mixed and CHGCAR
   VOSKOWN=      0    Vosko Wilk Nusair interpolation
   ROPT   =    0.00000
 Ionic relaxation
   EDIFFG = 0.1E-04   stopping-criterion for IOM
   NSW    =      1    number of steps for IOM
   NBLOCK =      1;   KBLOCK =      1    inner block; outer block
   IBRION =     -1    ionic relax: 0-MD 1-quasi-New 2-CG
   NFREE  =      5    steps in history (QN), initial steepest desc. (CG)
   ISIF   =      3    stress and relaxation
   IWAVPR =     10    prediction:  0-non 1-charg 2-wave 3-comb
   ISYM   =      0    0-nonsym 1-usesym 2-fastsym
   LCORR  =      T    Harris-Foulkes like correction to forces

   POTIM  = 0.1000    time-step for ionic-motion
   TEIN   =    0.0    initial temperature
   TEBEG  =    0.0;   TEEND  =   0.0 temperature during run
   SMASS  =  -3.00    Nose mass-parameter (am)
   estimated Nose-frequenzy (Omega)   =  0.10E-29 period in steps =****** mass=  -0.431E-27a.u.
   SCALEE = 1.0000    scale energy and forces
   NPACO  =    256;   APACO  = 16.0  distance and # of slots for P.C.
   PSTRESS=    0.0 pullay stress

  Mass of Ions in am
   POMASS =   0.01
  Ionic Valenz
   ZVAL   =  18.00
  Atomic Wigner-Seitz radii
  virtual crystal weights
   VCA    =   1.00
   NELECT =      18.0000    total number of electrons
   NUPDOWN=      -1.0000    fix difference up-down

 DOS related values:
   EMIN   =  10.00;   EMAX   =-10.00  energy-range for DOS
   EFERMI =   0.00
   ISMEAR =     0;   SIGMA  =   0.00  broadening in eV -4-tet -1-fermi 0-gaus

 Electronic relaxation 2 (details)
   IALGO  =     90    algorithm
   LDIAG  =      T    sub-space diagonalisation (order eigenvalues)
   LSUBROT=      F    optimize rotation matrix (better conditioning)
   TURBO    =      0    0=normal 1=particle mesh
   IRESTART =      0    0=no restart 2=restart with 2 vectors
   NREBOOT  =      0    no. of reboots
   NMIN     =      0    reboot dimension
   EREF     =   0.00    reference energy to select bands
   IMIX   =      4    mixing-type and parameters
     AMIX     =   0.40;   BMIX     =  1.00
     AMIX_MAG =   1.60;   BMIX_MAG =  1.00
     AMIN     =   0.10
     WC   =   100.;   INIMIX=   1;  MIXPRE=   1;  MAXMIX=  50

 Intra band minimization:
   WEIMIN = 0.0000     energy-eigenvalue tresh-hold
   EBREAK =  0.26E-10  absolut break condition
   DEPER  =   0.30     relativ break condition

   TIME   =   0.40     timestep for ELM

  volume/ion in A,a.u.               =      57.90       390.71
  Fermi-wavevector in a.u.,A,eV,Ry     =   1.109038  2.095777 16.734680  1.229964
  Thomas-Fermi vector in A             =   2.245572

 Write flags
   LWAVE        =      T    write WAVECAR
   LDOWNSAMPLE  =      F    k-point downsampling of WAVECAR
   LCHARG       =      F    write CHGCAR
   LVTOT        =      F    write LOCPOT, total local potential
   LVHAR        =      F    write LOCPOT, Hartree potential only
   LELF         =      F    write electronic localiz. function (ELF)
   LORBIT       =      0    0 simple, 1 ext, 2 COOP (PROOUT), +10 PAW based schemes

 Dipole corrections
   LMONO  =      F    monopole corrections only (constant potential shift)
   LDIPOL =      F    correct potential (dipole corrections)
   IDIPOL =      0    1-x, 2-y, 3-z, 4-all directions
   EPSILON=  1.0000000 bulk dielectric constant

 Exchange correlation treatment:
   GGA     =    PE    GGA type
   VOSKOWN=      0    Vosko Wilk Nusair interpolation
   LHFCALC =     F    Hartree Fock is set to
   LHFONE  =     F    Hartree Fock one center treatment
   AEXX    =    0.0000 exact exchange contribution

 Linear response parameters
   LEPSILON=     F    determine dielectric tensor
   LRPA    =     F    only Hartree local field effects (RPA)
   LNABLA  =     F    use nabla operator in PAW spheres
   LVEL    =     F    velocity operator in full k-point grid
   LINTERFAST=   F  fast interpolation
   KINTER  =     0    interpolate to denser k-point grid
   CSHIFT  =0.1000    complex shift for real part using Kramers Kronig
   OMEGAMAX=  -1.0    maximum frequency
   DEG_THRESHOLD= 0.2000000E-02 threshold for treating states as degnerate
   RTIME   =   -0.100 relaxation time in fs
  (WPLASMAI=    0.000 imaginary part of plasma frequency in eV, 0.658/RTIME)
   DFIELD  = 0.0000000 0.0000000 0.0000000 field for delta impulse in time

 Orbital magnetization related:
   ORBITALMAG=     F  switch on orbital magnetization
   LCHIMAG   =     F  perturbation theory with respect to B field
   DQ        =  0.001000  dq finite difference perturbation B field
   LLRAUG    =     F  two centre corrections for induced B field

 Static calculation
 charge density and potential will be updated during run
 non collinear spin polarized calculation
 Exact diagonalization
 preconditioned conjugated gradient (Jacobi prec)
    charged. constant during bandupdate
    band-by band algorithm
 perform sub-space diagonalisation
    after iterative eigenvector-optimisation
 modified Broyden-mixing scheme, WC =      100.0
 initial mixing is a Kerker type mixing with AMIX =  0.4000 and BMIX =      1.0000
 Hartree-type preconditioning will be used
 using additional bands           87
 reciprocal scheme for non local part
 use partial core corrections
 calculate Harris-corrections to forces
   (improved forces if not selfconsistent)
 use gradient corrections
 use of overlap-Matrix (Vanderbilt PP)
 Gauss-broadening in eV      SIGMA  =   0.00

  energy-cutoff  :      300.00
  volume of cell :       57.90
      direct lattice vectors                 reciprocal lattice vectors
     4.342345876  0.000000000  0.000000000     0.230290269 -0.132958149 -0.094015609
     2.171172938  3.760581840 -0.000000000     0.000000000  0.265916298 -0.094015609
     2.171172938  1.253527280  3.545510561    -0.000000000  0.000000000  0.282046826

  length of vectors
     4.342345876  4.342345876  4.342345876     0.282046826  0.282046826  0.282046826

 old parameters found on file WAVECAR:
  energy-cutoff  :      300.00
  volume of cell :       57.90
      direct lattice vectors                 reciprocal lattice vectors
[...]
   43.856309    0.639918    0.638480    0.638345    0.000058   -0.003492   -0.000031
   44.751336    0.639463    0.638956    0.639000    0.000062   -0.000008    0.000049
   45.646363    0.558117    0.558018    0.558164    0.000013   -0.000000    0.000014
   46.541389    1.156185    1.155966    1.156041    0.000005   -0.001943    0.000007
   47.436416    1.038327    1.036124    1.036097    0.000062    0.002199    0.000071
   48.331443    0.737913    0.747634    0.749882   -0.000147   -0.007553   -0.000183
   49.226470    0.699241    0.707753    0.712154    0.000401   -0.009668    0.000130
   50.121496    0.609000    0.603223    0.603097   -0.000480   -0.025722   -0.000611
   51.016523    0.471906    0.471022    0.470942   -0.000031    0.000615   -0.000009
   51.911550    0.586277    0.586158    0.586176   -0.000002    0.000279    0.000002
   52.806577    0.767837    0.767830    0.767866   -0.000019    0.000013   -0.000014
[...]
   76.077271    0.854823    0.854828    0.854867   -0.000001   -0.000055   -0.000000
   76.972298    0.861490    0.861495    0.861533   -0.000001   -0.000054   -0.000000
   77.867325    0.867283    0.867288    0.867325   -0.000001   -0.000052   -0.000000
   78.762351    0.872477    0.872483    0.872519   -0.000001   -0.000051   -0.000000
   79.657378    0.877211    0.877216    0.877251   -0.000001   -0.000050   -0.000000
   80.552405    0.881568    0.881573    0.881607   -0.000001   -0.000049   -0.000000
   81.447432    0.885607    0.885612    0.885646   -0.000001   -0.000048   -0.000000
   82.342458    0.889371    0.889377    0.889410   -0.000001   -0.000047   -0.000000
   83.237485    0.892896    0.892901    0.892933   -0.000001   -0.000046   -0.000000
   84.132512    0.896207    0.896212    0.896244   -0.000000   -0.000045   -0.000000
   85.027538    0.899327    0.899332    0.899363   -0.000000   -0.000044   -0.000000
   85.922565    0.902275    0.902280    0.902310   -0.000000   -0.000043   -0.000000
   86.817592    0.905066    0.905072    0.905101   -0.000000   -0.000042   -0.000000
   87.712619    0.907715    0.907720    0.907749   -0.000000   -0.000041   -0.000000
   88.607645    0.910233    0.910238    0.910267   -0.000000   -0.000041   -0.000000

  frequency dependent IMAGINARY DIELECTRIC FUNCTION (independent particle, no local field effects) current-current (2nd set in vasprun.xml)
     E(ev)      X         Y         Z        XY        YZ        ZX
    0.000000  920.993906  921.170604  920.864245    4.831369  326.479113    6.152566
    0.895027    2.966937    2.969426    2.969096   -0.071067   -4.792193   -0.090521
    1.790053    2.039930    2.041496    2.041502   -0.008651   -0.586122   -0.011021
    2.685080   58.706412   58.708632   58.710043   -0.003316   -0.208450   -0.004172
    3.580107    1.155495    1.158871    1.158849   -0.001951   -0.115435   -0.002535
    4.475134    2.106857    2.122823    2.122772   -0.001195   -0.081183   -0.001628
    5.370160   21.847672   24.180720   24.185650    0.060917    1.092751    0.065908
    6.265187    1.023783    1.021426    1.015982   -0.002214   -0.095211   -0.002877
    7.160214    2.892201    2.975926    2.974121    0.020397    0.607538    0.027274
    8.055240    4.037954    4.038616    4.038239   -0.001359   -0.023803   -0.001655
    8.950267    0.503832    0.510168    0.507837   -0.001068   -0.030110   -0.001372
    9.845294    0.891802    0.891963    0.892086   -0.000955   -0.038283   -0.001266
   10.740321    1.117172    1.115113    1.116479    0.000820    0.041760    0.001083
   11.635347    0.847153    0.851873    0.850026    0.000144    0.012041    0.000196
   12.530374    0.588143    0.589551    0.588834    0.000614   -0.003040    0.000609
   13.425401    0.921536    1.038888    1.059525   -0.003934   -0.071693   -0.004162
   14.320428    0.431553    0.413351    0.410722    0.002804    0.012535    0.002043
   15.215454    0.957101    0.926517    0.936034    0.000051   -0.007857    0.000150
   16.110481    0.219696    0.219095    0.218981    0.000029    0.003720    0.000032
   17.005508    0.574867    0.573243    0.575151    0.000207    0.001271    0.000247
   17.900534    1.490198    1.493605    1.493624    0.000690    0.013660    0.000646
   18.795561    1.188256    1.183908    1.184644   -0.000493   -0.012001   -0.000563
   19.690588    0.244126    0.242931    0.242830   -0.000160   -0.014128   -0.000322
   20.585615    0.273929    0.273105    0.272995    0.000145    0.004375    0.000186
   21.480641    0.062685    0.069550    0.069482   -0.000055    0.009395    0.000092
   22.375668    0.186747    0.192980    0.190720    0.000096    0.009117    0.000117
   23.270695    0.063401    0.062990    0.063074    0.000111    0.007764    0.000143
   24.165721    0.285381    0.282527    0.281914   -0.000217   -0.000429   -0.000235
   25.060748    0.251988    0.252014    0.251979    0.000026   -0.002986    0.000045
   25.955775    0.312246    0.313156    0.313656   -0.000134   -0.002063   -0.000115
   26.850802    0.271447    0.276558    0.275560   -0.000164   -0.004057   -0.000189
   27.745828    0.154690    0.154711    0.154797   -0.000040   -0.001719   -0.000050
   28.640855    0.198955    0.198893    0.198949    0.000013    0.001171    0.000020
   29.535882    0.049391    0.049329    0.049255    0.000015    0.001100    0.000018
   30.430908    0.194547    0.194527    0.194529    0.000012    0.000793    0.000015
   31.325935    0.256934    0.256875    0.256890   -0.000002    0.000373    0.000003
   32.220962    0.169645    0.166373    0.165343    0.000019    0.002268    0.000017
   33.115989    0.139298    0.139473    0.139633    0.000002   -0.000101    0.000003
   34.011015    0.161304    0.161303    0.161123    0.000023    0.000849    0.000024
   34.906042    0.292471    0.291932    0.292278   -0.000002   -0.001639   -0.000016
   35.801069    0.059925    0.059824    0.059726   -0.000023   -0.000074   -0.000022
   36.696096    0.115697    0.116073    0.116147    0.000009    0.000536    0.000013
   37.591122    0.196527    0.204940    0.203963    0.000258   -0.001352    0.000168
   38.486149    0.114290    0.114440    0.114245    0.000018    0.000204    0.000021
   39.381176    0.214659    0.214793    0.214791   -0.000019    0.000112   -0.000005
   40.276202    0.847266    0.879632    0.876549   -0.000850    0.026346   -0.000545
   41.171229    0.201998    0.202021    0.201660    0.000028   -0.001190    0.000044
   42.066256    1.014125    1.011746    1.009854    0.000751    0.005655    0.000644
   42.961283    0.590994    0.594839    0.595535   -0.000504   -0.000275   -0.000336
   43.856309    0.559404    0.558149    0.557908    0.000197   -0.001376    0.000148
   44.751336    0.152211    0.152368    0.152398   -0.000024   -0.000288   -0.000020
   45.646363    0.361920    0.361855    0.361778    0.000008    0.000796    0.000010
   46.541389    0.390709    0.390299    0.390290    0.000024    0.001264    0.000027
   47.436416    0.221610    0.222601    0.222409   -0.000145   -0.001425   -0.000168
   48.331443    0.911957    0.902242    0.900399   -0.000073    0.001237   -0.000118
   49.226470    0.818174    0.827520    0.832119    0.000808    0.000538    0.000827
   50.121496    0.754400    0.759237    0.758738   -0.000816   -0.030955   -0.000929
   51.016523    0.484965    0.485674    0.485737    0.000010   -0.000563    0.000004
   51.911550    0.074996    0.074888    0.074852   -0.000011   -0.000890   -0.000017
   52.806577    0.067122    0.067132    0.067126   -0.000016   -0.000858   -0.000016
[...]
   76.077271    0.000433    0.000433    0.000433   -0.000000   -0.000034   -0.000001
   76.972298    0.000329    0.000329    0.000329   -0.000000   -0.000032   -0.000001
   77.867325    0.000270    0.000270    0.000270   -0.000000   -0.000031   -0.000001
   78.762351    0.000229    0.000229    0.000229   -0.000000   -0.000030   -0.000000
   79.657378    0.000198    0.000198    0.000198   -0.000000   -0.000029   -0.000000
   80.552405    0.000174    0.000174    0.000174   -0.000000   -0.000027   -0.000000
   81.447432    0.000154    0.000154    0.000154   -0.000000   -0.000026   -0.000000
   82.342458    0.000138    0.000138    0.000138   -0.000000   -0.000025   -0.000000
   83.237485    0.000124    0.000124    0.000124   -0.000000   -0.000024   -0.000000
   84.132512    0.000112    0.000112    0.000112   -0.000000   -0.000023   -0.000000
   85.027538    0.000102    0.000102    0.000102   -0.000000   -0.000022   -0.000000
   85.922565    0.000093    0.000093    0.000093   -0.000000   -0.000021   -0.000000
   86.817592    0.000085    0.000085    0.000085   -0.000000   -0.000021   -0.000000
   87.712619    0.000078    0.000078    0.000078   -0.000000   -0.000020   -0.000000
   88.607645    0.000072    0.000072    0.000072   -0.000000   -0.000019   -0.000000

  frequency dependent      REAL DIELECTRIC FUNCTION (independent particle, no local field effects) current-current (2nd set in vasprun.xml)
     E(ev)        X           Y           Z          XY          YZ          ZX
    0.000000  176.593141  176.631494  176.574544   -1.936806 -130.511221   -2.466790
    0.895027  -30.296229  -30.293130  -30.279762    0.061677    4.125711    0.078512
    1.790053    3.196978    3.206905    3.210021    0.017313    1.154760    0.021991
    2.685080   -1.917754   -1.903268   -1.902206    0.005169    0.392341    0.006404
    3.580107   -0.631258   -0.606419   -0.606097    0.004733    0.296997    0.005866
    4.475134    0.338253    0.408784    0.408818    0.003788    0.195833    0.004416
    5.370160   11.253271    8.645136    8.638090    0.001688    0.968635    0.019476
    6.265187   -2.490821   -2.433838   -2.443037    0.003182    0.157463    0.003738
    7.160214   -1.059545   -1.053374   -1.057644    0.002094    0.055217    0.003180
    8.055240   -3.171405   -3.173518   -3.173121    0.000440    0.031513    0.000237
    8.950267   -0.733466   -0.727051   -0.729475    0.001008    0.065183    0.001295
    9.845294   -0.307148   -0.308465   -0.308002    0.000761    0.046190    0.000966
   10.740321   -1.099342   -1.104550   -1.101216    0.000606    0.038009    0.000813
   11.635347   -0.261121   -0.264768   -0.260651    0.000305    0.023289    0.000462
   12.530374   -0.264780   -0.248154   -0.247068    0.001447    0.085167    0.001889
   13.425401    0.136697    0.268271    0.291745   -0.000090    0.034510    0.001115
   14.320428    0.425803    0.425563    0.426326   -0.000168    0.012987    0.000126
   15.215454    0.616324    0.607507    0.609798   -0.000018   -0.009383   -0.000121
   16.110481    0.501622    0.500489    0.501111    0.000157    0.014257    0.000227
   17.005508    1.143970    1.139681    1.140950    0.000213    0.016980    0.000345
   17.900534   -0.171330   -0.167919   -0.170342   -0.000523    0.003476   -0.000376
   18.795561    0.271016    0.267838    0.268000   -0.000179    0.005836   -0.000100
   19.690588    0.431598    0.430768    0.430422    0.000617    0.026097    0.000790
   20.585615    0.475175    0.473770    0.473829    0.000160    0.008909    0.000191
   21.480641    0.452518    0.445303    0.445271    0.000572    0.015375    0.000616
   22.375668    0.571255    0.576826    0.574450    0.000085    0.009406    0.000080
   23.270695    0.876113    0.875733    0.875882    0.000099    0.005759    0.000127
   24.165721    0.812314    0.808265    0.807393   -0.000906   -0.061269   -0.001233
   25.060748    0.964368    0.964059    0.964049    0.000037    0.003019    0.000038
   25.955775    0.692723    0.691349    0.691200    0.000195    0.008047    0.000179
   26.850802    0.816272    0.811976    0.812873   -0.000042   -0.000012   -0.000103
   27.745828    0.783866    0.783519    0.783460    0.000457    0.028628    0.000580
   28.640855    0.959009    0.958664    0.958777    0.000078    0.005182    0.000104
   29.535882    0.842640    0.842265    0.842258    0.000065    0.004266    0.000086
   30.430908    1.038022    1.037827    1.037812    0.000064    0.004230    0.000080
   31.325935    1.009464    1.009515    1.009545    0.000087    0.004701    0.000109
   32.220962    0.977085    0.972824    0.971974    0.000038    0.004961    0.000055
   33.115989    0.896009    0.896020    0.896073    0.000075    0.004332    0.000096
   34.011015    0.991679    0.991585    0.991569    0.000039    0.003157    0.000046
   34.906042    1.116401    1.116182    1.116274    0.000073    0.005825    0.000086
   35.801069    0.994963    0.994105    0.994010    0.000104    0.003001    0.000098
   36.696096    1.059142    1.058147    1.057959    0.000087    0.003649    0.000079
   37.591122    0.923129    0.912660    0.913766   -0.000162   -0.000852   -0.000066
   38.486149    1.117774    1.118085    1.117806    0.000063    0.002773    0.000054
   39.381176    1.279224    1.279093    1.279215    0.000009    0.001286    0.000017
   40.276202    1.203250    1.195419    1.195783    0.000860    0.028610    0.001037
   41.171229    1.242238    1.242457    1.241996    0.000055    0.004683    0.000048
   42.066256    1.342299    1.341610    1.341034   -0.000330   -0.012437   -0.000574
   42.961283    0.647289    0.646117    0.645808   -0.000081   -0.004604   -0.000211
   43.856309    0.638459    0.636927    0.636680    0.000089   -0.001345    0.000007
   44.751336    0.640031    0.639461    0.639400    0.000089    0.002053    0.000084
   45.646363    0.557645    0.557474    0.557516    0.000040    0.001969    0.000047
   46.541389    1.155743    1.155449    1.155425    0.000032   -0.000005    0.000041
   47.436416    1.038251    1.035959    1.035834    0.000088    0.004056    0.000103
   48.331443    0.735415    0.745075    0.747238   -0.000122   -0.005803   -0.000152
   49.226470    0.696581    0.705026    0.709331    0.000425   -0.007938    0.000160
   50.121496    0.607187    0.601386    0.601166   -0.000458   -0.024072   -0.000583
   51.016523    0.470864    0.469939    0.469779   -0.000008    0.002199    0.000018
   51.911550    0.586755    0.586595    0.586534    0.000020    0.001816    0.000029
   52.806577    0.768389    0.768342    0.768300    0.000002    0.001500    0.000012
[...]
   76.077271    0.855230    0.855213    0.855214    0.000010    0.000658    0.000012
   76.972298    0.861888    0.861871    0.861872    0.000009    0.000643    0.000012
   77.867325    0.867671    0.867655    0.867657    0.000009    0.000628    0.000012
   78.762351    0.872857    0.872842    0.872843    0.000009    0.000614    0.000012
   79.657378    0.877582    0.877567    0.877568    0.000009    0.000600    0.000011
   80.552405    0.881931    0.881916    0.881917    0.000009    0.000587    0.000011
   81.447432    0.885962    0.885947    0.885949    0.000008    0.000574    0.000011
   82.342458    0.889719    0.889705    0.889706    0.000008    0.000561    0.000011
   83.237485    0.893236    0.893222    0.893223    0.000008    0.000549    0.000010
   84.132512    0.896540    0.896526    0.896528    0.000008    0.000538    0.000010
   85.027538    0.899653    0.899640    0.899641    0.000008    0.000527    0.000010
   85.922565    0.902594    0.902581    0.902583    0.000008    0.000516    0.000010
   86.817592    0.905379    0.905367    0.905368    0.000007    0.000505    0.000010
   87.712619    0.908021    0.908009    0.908011    0.000007    0.000495    0.000009
   88.607645    0.910533    0.910521    0.910522    0.000007    0.000485    0.000009

 The outermost node in the dielectric function lies at epsilon=  19.3

 Spin-Orbit-Coupling matrix elements

 Ion:    1  E_soc:    -33.0242949
 l=   1
     0.0000000    -5.0856992    -5.0856879
    -5.0856992     0.0000000    -5.0856983
    -5.0856879    -5.0856983     0.0000000
 l=   2
     0.0000000    -0.0836734     0.0000000    -0.0836734    -0.3346762
    -0.0836734     0.0000000    -0.2510072    -0.0836778    -0.0836735
     0.0000000    -0.2510072     0.0000000    -0.2510071     0.0000000
    -0.0836734    -0.0836778    -0.2510071     0.0000000    -0.0836735
    -0.3346762    -0.0836735     0.0000000    -0.0836735     0.0000000
 l=   3
     0.0000000     0.0000000     0.0000000     0.0000000     0.0000000     0.0000000     0.0000000
     0.0000000     0.0000000     0.0000000     0.0000000     0.0000000     0.0000000     0.0000000
     0.0000000     0.0000000     0.0000000     0.0000000     0.0000000     0.0000000     0.0000000
     0.0000000     0.0000000     0.0000000     0.0000000     0.0000000     0.0000000     0.0000000
     0.0000000     0.0000000     0.0000000     0.0000000     0.0000000     0.0000000     0.0000000
     0.0000000     0.0000000     0.0000000     0.0000000     0.0000000     0.0000000     0.0000000
     0.0000000     0.0000000     0.0000000     0.0000000     0.0000000     0.0000000     0.0000000