 vasp.5.4.4.18Apr17-6-g9f103f2a35 (build Nov 03 2018 10:20:46) complex

 executed on             LinuxIFC date 2018.11.29  09:25:06

 INCAR:
 POTCAR:    PAW Og, JanMewes Oct 18

 POTCAR:    PAW Og, JanMewes Oct 18
   VRHFIN =Og : 10d 2s 6p, PE

   TITEL  = PAW Og, JanMewes Oct 18
   POMASS =    0.010; ZVAL   =   18.000    mass and valenz
   ENMAX  =  339.336; ENMIN  =  254.502 eV
   QCUT   =   -4.994; QGAM   =    9.988    optimization parameters

  PAW Og, JanMewes Oct 18               :

 POSCAR: Og_FCC
  positions in direct lattice
  velocities in cartesian coordinates
 exchange correlation table for  LEXCH =        8
   RHO(1)=    0.500       N(1)  =     2000
   RHO(2)=  100.500       N(2)  =     4000

 ion  position               nearest neighbor table
   1  0.000  0.000  0.000-

  LATTYP: Found a face centered cubic cell.
 ALAT       =     6.1794330891

  Lattice vectors:

 A1 = (   4.3695190411,   0.0000000000,   0.0000000000)
 A2 = (   2.1847595206,   3.7841144919,  -0.0000000000)
 A3 = (   2.1847595206,   1.2613714973,   3.5676973575)

Analysis of symmetry for initial positions (statically):
 Subroutine PRICEL returns:
 Original cell was already a primitive cell.

 Routine SETGRP: Setting up the symmetry group for a
 face centered cubic supercell.

 Subroutine GETGRP returns: Found 48 space group operations
 (whereof 48 operations were pure point group operations)
 out of a pool of 48 trial point group operations.

The static configuration has the point symmetry O_h .

Analysis of symmetry for dynamics (positions and initial velocities):
 Subroutine PRICEL returns:
 Original cell was already a primitive cell.

[...]

The dynamic configuration has the point symmetry O_h .

Analysis of structural, dynamic, and magnetic symmetry:
 Subroutine PRICEL returns:
 Original cell was already a primitive cell.

 Routine SETGRP: Setting up the symmetry group for a
 face centered cubic supercell.

 Subroutine GETGRP returns: Found  2 space group operations
 (whereof  2 operations were pure point group operations)
 out of a pool of 48 trial point group operations.

The (compounded) configuration has the point symmetry S_2 .

 Subroutine INISYM returns: Found  2 space group operations
 (whereof  2 operations are pure point group operations),
 and found     1 'primitive' translations

Automatic generation of k-mesh.
 generate k-points for:    9    9    9
Space group operators:
 irot       det(A)        alpha          n_x          n_y          n_z        tau_x        tau_y        tau_z
    1     1.000000     0.000000     1.000000     0.000000     0.000000     0.000000     0.000000     0.000000
    2    -1.000000     0.000000     1.000000     0.000000     0.000000     0.000000     0.000000     0.000000

 Subroutine IBZKPT returns following result:

 Found    365 irreducible k-points:

 Following reciprocal coordinates:
            Coordinates               Weight
  0.000000  0.000000  0.000000      1.000000
  0.111111  0.000000  0.000000      2.000000
  0.222222  0.000000  0.000000      2.000000
  0.333333  0.000000 -0.000000      2.000000
  0.444444  0.000000  0.000000      2.000000
  0.000000  0.111111  0.000000      2.000000
  0.111111  0.111111  0.000000      2.000000
  0.222222  0.111111  0.000000      2.000000
  0.333333  0.111111  0.000000      2.000000
  0.444444  0.111111  0.000000      2.000000
 -0.444444  0.111111 -0.000000      2.000000
 -0.333333  0.111111  0.000000      2.000000
 -0.222222  0.111111 -0.000000      2.000000
 -0.111111  0.111111 -0.000000      2.000000
  0.000000  0.222222  0.000000      2.000000
  0.111111  0.222222 -0.000000      2.000000
  0.222222  0.222222 -0.000000      2.000000
  0.333333  0.222222  0.000000      2.000000
  0.444444  0.222222  0.000000      2.000000
 -0.444444  0.222222  0.000000      2.000000
 -0.333333  0.222222  0.000000      2.000000
 -0.222222  0.222222  0.000000      2.000000
 -0.111111  0.222222 -0.000000      2.000000
  0.000000  0.333333 -0.000000      2.000000
  0.111111  0.333333  0.000000      2.000000
  0.222222  0.333333  0.000000      2.000000
  0.333333  0.333333  0.000000      2.000000
  0.444444  0.333333  0.000000      2.000000
 -0.444444  0.333333 -0.000000      2.000000
 -0.333333  0.333333 -0.000000      2.000000
 -0.222222  0.333333 -0.000000      2.000000
 -0.111111  0.333333  0.000000      2.000000
  0.000000  0.444444  0.000000      2.000000
  0.111111  0.444444  0.000000      2.000000
  0.222222  0.444444 -0.000000      2.000000
  0.333333  0.444444 -0.000000      2.000000
  0.444444  0.444444 -0.000000      2.000000
 -0.444444  0.444444  0.000000      2.000000
 -0.333333  0.444444  0.000000      2.000000
 -0.222222  0.444444  0.000000      2.000000
 -0.111111  0.444444 -0.000000      2.000000
  0.000000 -0.000000  0.111111      2.000000
  0.111111  0.000000  0.111111      2.000000
  0.222222 -0.000000  0.111111      2.000000
  0.333333  0.000000  0.111111      2.000000
  0.444444  0.000000  0.111111      2.000000
 -0.444444 -0.000000  0.111111      2.000000
 -0.333333 -0.000000  0.111111      2.000000
 -0.222222 -0.000000  0.111111      2.000000
 -0.111111  0.000000  0.111111      2.000000
 -0.000000  0.111111  0.111111      2.000000
  0.111111  0.111111  0.111111      2.000000
  0.222222  0.111111  0.111111      2.000000
  0.333333  0.111111  0.111111      2.000000
  0.444444  0.111111  0.111111      2.000000
 -0.444444  0.111111  0.111111      2.000000
 -0.333333  0.111111  0.111111      2.000000
 -0.222222  0.111111  0.111111      2.000000
 -0.111111  0.111111  0.111111      2.000000
 -0.000000  0.222222  0.111111      2.000000
[...]
  0.333333 -0.222222  0.444444      2.000000
  0.444444 -0.222222  0.444444      2.000000
 -0.444444 -0.222222  0.444444      2.000000
 -0.333333 -0.222222  0.444444      2.000000
 -0.222222 -0.222222  0.444444      2.000000
 -0.111111 -0.222222  0.444444      2.000000
  0.000000 -0.111111  0.444444      2.000000
  0.111111 -0.111111  0.444444      2.000000
  0.222222 -0.111111  0.444444      2.000000
  0.333333 -0.111111  0.444444      2.000000
  0.444444 -0.111111  0.444444      2.000000
 -0.444444 -0.111111  0.444444      2.000000
 -0.333333 -0.111111  0.444444      2.000000
 -0.222222 -0.111111  0.444444      2.000000
 -0.111111 -0.111111  0.444444      2.000000

 Following cartesian coordinates:
            Coordinates               Weight
  0.000000  0.000000  0.000000      1.000000
  0.025556 -0.014755 -0.010433      2.000000
  0.051112 -0.029509 -0.020866      2.000000
  0.076667 -0.044264 -0.031299      2.000000
  0.102223 -0.059019 -0.041732      2.000000
  0.000000  0.029509 -0.010433      2.000000
  0.025556  0.014755 -0.020866      2.000000
  0.051112 -0.000000 -0.031299      2.000000
  0.076667 -0.014755 -0.041732      2.000000
  0.102223 -0.029509 -0.052166      2.000000
 -0.102223  0.088528  0.031299      2.000000
 -0.076667  0.073773  0.020866      2.000000
 -0.051112  0.059019  0.010433      2.000000
 -0.025556  0.044264  0.000000      2.000000
  0.000000  0.059019 -0.020866      2.000000
  0.025556  0.044264 -0.031299      2.000000
  0.051112  0.029509 -0.041732      2.000000
  0.076667  0.014755 -0.052166      2.000000
  0.102223  0.000000 -0.062599      2.000000
 -0.102223  0.118037  0.020866      2.000000
 -0.076667  0.103283  0.010433      2.000000
 -0.051112  0.088528  0.000000      2.000000
 -0.025556  0.073773 -0.010433      2.000000
  0.000000  0.088528 -0.031299      2.000000
  0.025556  0.073773 -0.041732      2.000000
  0.051112  0.059019 -0.052166      2.000000
  0.076667  0.044264 -0.062599      2.000000
  0.102223  0.029509 -0.073032      2.000000
 -0.102223  0.147547  0.010433      2.000000
 -0.076667  0.132792  0.000000      2.000000
 -0.051112  0.118037 -0.010433      2.000000
 -0.025556  0.103283 -0.020866      2.000000
  0.000000  0.118037 -0.041732      2.000000
  0.025556  0.103283 -0.052166      2.000000
  0.051112  0.088528 -0.062599      2.000000
  0.076667  0.073773 -0.073032      2.000000
  0.102223  0.059019 -0.083465      2.000000
 -0.102223  0.177056  0.000000      2.000000
 -0.076667  0.162301 -0.010433      2.000000
 -0.051112  0.147547 -0.020866      2.000000
 -0.025556  0.132792 -0.031299      2.000000
 -0.000000  0.000000  0.031299      2.000000
  0.025556 -0.014755  0.020866      2.000000
  0.051112 -0.029509  0.010433      2.000000
  0.076667 -0.044264 -0.000000      2.000000
  0.102223 -0.059019 -0.010433      2.000000
 -0.102223  0.059019  0.073032      2.000000
 -0.076667  0.044264  0.062599      2.000000
 -0.051112  0.029509  0.052166      2.000000
 -0.025556  0.014755  0.041732      2.000000
 -0.000000  0.029509  0.020866      2.000000
  0.025556  0.014755  0.010433      2.000000
  0.051112 -0.000000 -0.000000      2.000000
  0.076667 -0.014755 -0.010433      2.000000
  0.102223 -0.029509 -0.020866      2.000000
 -0.102223  0.088528  0.062599      2.000000
 -0.076667  0.073773  0.052166      2.000000
 -0.051112  0.059019  0.041732      2.000000
 -0.025556  0.044264  0.031299      2.000000
 -0.000000  0.059019  0.010433      2.000000
[...]
  0.076667 -0.103283  0.114764      2.000000
  0.102223 -0.118037  0.104331      2.000000
 -0.102223  0.000000  0.187796      2.000000
 -0.076667 -0.014755  0.177363      2.000000
 -0.051112 -0.029509  0.166930      2.000000
 -0.025556 -0.044264  0.156497      2.000000
 -0.000000 -0.029509  0.135631      2.000000
  0.025556 -0.044264  0.125197      2.000000
  0.051112 -0.059019  0.114764      2.000000
  0.076667 -0.073773  0.104331      2.000000
  0.102223 -0.088528  0.093898      2.000000
 -0.102223  0.029509  0.177363      2.000000
 -0.076667  0.014755  0.166930      2.000000
 -0.051112  0.000000  0.156497      2.000000
 -0.025556 -0.014755  0.146064      2.000000

 SYSTEM =  Og_FCC
 POSCAR =  Og_FCC

 Startparameter for this run:
   NWRITE =      2    write-flag & timer
   PREC   = accura    normal or accurate (medium, high low for compatibility)
   ISTART =      0    job   : 0-new  1-cont  2-samecut
   ICHARG =      2    charge: 1-file 2-atom 10-const
   ISPIN  =      1    spin polarized calculation?
   LNONCOLLINEAR =      T non collinear calculations
   LSORBIT =      T    spin-orbit coupling
   INIWAV =      1    electr: 0-lowe 1-rand  2-diag
   LASPH  =      F    aspherical Exc in radial PAW
   METAGGA=      F    non-selfconsistent MetaGGA calc.

 Electronic Relaxation 1
   ENCUT  =  600.0 eV  44.10 Ry    6.64 a.u.   8.73  8.73  8.73*2*pi/ulx,y,z
   ENINI  =  600.0     initial cutoff
   ENAUG  =  361.0 eV  augmentation charge cutoff
   NELM   =    100;   NELMIN=  5; NELMDL= -5     # of ELM steps
   EDIFF  = 0.1E-06   stopping-criterion for ELM
   LREAL  =      F    real-space projection
   NLSPLINE    = F    spline interpolate recip. space projectors
   LCOMPAT=      F    compatible to vasp.4.4
   GGA_COMPAT  = F    GGA compatible to vasp.4.4-vasp.4.6
   LMAXPAW     = -100 max onsite density
   LMAXMIX     =    2 max onsite mixed and CHGCAR
   VOSKOWN=      0    Vosko Wilk Nusair interpolation
   ROPT   =    0.00000
 Ionic relaxation
   EDIFFG = 0.1E-04   stopping-criterion for IOM
   NSW    =      1    number of steps for IOM
[...]
 k-point 57 :  -0.3333 0.1111 0.1111  plane waves:    3928
 k-point 58 :  -0.2222 0.1111 0.1111  plane waves:    3938
 k-point 59 :  -0.1111 0.1111 0.1111  plane waves:    3948
 k-point 60 :  -0.0000 0.2222 0.1111  plane waves:    3948
[...]
 k-point 85 :  -0.2222 0.4444 0.1111  plane waves:    3926
 k-point 86 :  -0.1111 0.4444 0.1111  plane waves:    3948
 k-point 87 :  -0.0000-0.4444 0.1111  plane waves:    3946
 k-point 88 :   0.1111-0.4444 0.1111  plane waves:    3946
 k-point 89 :   0.2222-0.4444 0.1111  plane waves:    3948
 k-point 90 :   0.3333-0.4444 0.1111  plane waves:    3932
 k-point 91 :   0.4444-0.4444 0.1111  plane waves:    3948
 k-point 92 :  -0.4444-0.4444 0.1111  plane waves:    3964
 k-point 93 :  -0.3333-0.4444 0.1111  plane waves:    3948
 k-point 94 :  -0.2222-0.4444 0.1111  plane waves:    3932
 k-point 95 :  -0.1111-0.4444 0.1111  plane waves:    3948
 k-point 96 :   0.0000-0.3333 0.1111  plane waves:    3928
 k-point 97 :   0.1111-0.3333 0.1111  plane waves:    3928
 k-point 98 :   0.2222-0.3333 0.1111  plane waves:    3948
 k-point 99 :   0.3333-0.3333 0.1111  plane waves:    3926
 k-point ** :   0.4444-0.3333 0.1111  plane waves:    3912
 k-point ** :  -0.4444-0.3333 0.1111  plane waves:    3948
 k-point ** :  -0.3333-0.3333 0.1111  plane waves:    3954
 k-point ** :  -0.2222-0.3333 0.1111  plane waves:    3934
 k-point ** :  -0.1111-0.3333 0.1111  plane waves:    3924
 k-point ** :  -0.0000-0.2222 0.1111  plane waves:    3938
 k-point ** :   0.1111-0.2222 0.1111  plane waves:    3938
 k-point ** :   0.2222-0.2222 0.1111  plane waves:    3924
 k-point ** :   0.3333-0.2222 0.1111  plane waves:    3944
 k-point ** :   0.4444-0.2222 0.1111  plane waves:    3926
 k-point ** :  -0.4444-0.2222 0.1111  plane waves:    3932
 k-point ** :  -0.3333-0.2222 0.1111  plane waves:    3934
 k-point ** :  -0.2222-0.2222 0.1111  plane waves:    3946
 k-point ** :  -0.1111-0.2222 0.1111  plane waves:    3946
 k-point ** :  -0.0000-0.1111 0.1111  plane waves:    3930
 k-point ** :   0.1111-0.1111 0.1111  plane waves:    3948
 k-point ** :   0.2222-0.1111 0.1111  plane waves:    3946
 k-point ** :   0.3333-0.1111 0.1111  plane waves:    3924
 k-point ** :   0.4444-0.1111 0.1111  plane waves:    3948
 k-point ** :  -0.4444-0.1111 0.1111  plane waves:    3948
 k-point ** :  -0.3333-0.1111 0.1111  plane waves:    3924
 k-point ** :  -0.2222-0.1111 0.1111  plane waves:    3946
 k-point ** :  -0.1111-0.1111 0.1111  plane waves:    3948
 k-point ** :   0.0000-0.0000 0.2222  plane waves:    3934
 k-point ** :   0.1111 0.0000 0.2222  plane waves:    3948
 k-point ** :   0.2222 0.0000 0.2222  plane waves:    3960
 k-point ** :   0.3333 0.0000 0.2222  plane waves:    3946
 k-point ** :   0.4444-0.0000 0.2222  plane waves:    3922
 k-point ** :  -0.4444-0.0000 0.2222  plane waves:    3928
 k-point ** :  -0.3333-0.0000 0.2222  plane waves:    3934
 k-point ** :  -0.2222-0.0000 0.2222  plane waves:    3930
 k-point ** :  -0.1111-0.0000 0.2222  plane waves:    3938
 k-point ** :   0.0000 0.1111 0.2222  plane waves:    3948
 k-point ** :   0.1111 0.1111 0.2222  plane waves:    3930
 k-point ** :   0.2222 0.1111 0.2222  plane waves:    3948
 k-point ** :   0.3333 0.1111 0.2222  plane waves:    3946
 k-point ** :   0.4444 0.1111 0.2222  plane waves:    3924
 k-point ** :  -0.4444 0.1111 0.2222  plane waves:    3948
 k-point ** :  -0.3333 0.1111 0.2222  plane waves:    3948
 k-point ** :  -0.2222 0.1111 0.2222  plane waves:    3924
 k-point ** :  -0.1111 0.1111 0.2222  plane waves:    3946
 k-point ** :   0.0000 0.2222 0.2222  plane waves:    3960
 k-point ** :   0.1111 0.2222 0.2222  plane waves:    3948
 k-point ** :   0.2222 0.2222 0.2222  plane waves:    3934
 k-point ** :   0.3333 0.2222 0.2222  plane waves:    3938
 k-point ** :   0.4444 0.2222 0.2222  plane waves:    3930
 k-point ** :  -0.4444 0.2222 0.2222  plane waves:    3934
 k-point ** :  -0.3333 0.2222 0.2222  plane waves:    3928
 k-point ** :  -0.2222 0.2222 0.2222  plane waves:    3922
 k-point ** :  -0.1111 0.2222 0.2222  plane waves:    3946
 k-point ** :   0.0000 0.3333 0.2222  plane waves:    3946
 k-point ** :   0.1111 0.3333 0.2222  plane waves:    3946
 k-point ** :   0.2222 0.3333 0.2222  plane waves:    3938
 k-point ** :   0.3333 0.3333 0.2222  plane waves:    3938
 k-point ** :   0.4444 0.3333 0.2222  plane waves:    3924
 k-point ** :  -0.4444 0.3333 0.2222  plane waves:    3944
 k-point ** :  -0.3333 0.3333 0.2222  plane waves:    3926
 k-point ** :  -0.2222 0.3333 0.2222  plane waves:    3932
 k-point ** :  -0.1111 0.3333 0.2222  plane waves:    3934
 k-point ** :   0.0000 0.4444 0.2222  plane waves:    3922
[...]
 k-point ** :   0.3333-0.2222 0.4444  plane waves:    3912
 k-point ** :   0.4444-0.2222 0.4444  plane waves:    3928
 k-point ** :  -0.4444-0.2222 0.4444  plane waves:    3932
 k-point ** :  -0.3333-0.2222 0.4444  plane waves:    3944
 k-point ** :  -0.2222-0.2222 0.4444  plane waves:    3934
 k-point ** :  -0.1111-0.2222 0.4444  plane waves:    3948
 k-point ** :   0.0000-0.1111 0.4444  plane waves:    3946
 k-point ** :   0.1111-0.1111 0.4444  plane waves:    3948
 k-point ** :   0.2222-0.1111 0.4444  plane waves:    3932
 k-point ** :   0.3333-0.1111 0.4444  plane waves:    3948
 k-point ** :   0.4444-0.1111 0.4444  plane waves:    3964
 k-point ** :  -0.4444-0.1111 0.4444  plane waves:    3948
 k-point ** :  -0.3333-0.1111 0.4444  plane waves:    3932
 k-point ** :  -0.2222-0.1111 0.4444  plane waves:    3948
 k-point ** :  -0.1111-0.1111 0.4444  plane waves:    3946

 maximum and minimum number of plane-waves per node :      2022     1930

 maximum number of plane-waves:      4000
 maximum index in each direction:
   IXMAX=    9   IYMAX=    9   IZMAX=    8
   IXMIN=   -9   IYMIN=   -9   IZMIN=   -9

 parallel 3D FFT for wavefunctions:
    minimum data exchange during FFTs selected (reduces bandwidth)
 parallel 3D FFT for charge:
    minimum data exchange during FFTs selected (reduces bandwidth)

 Broyden mixing: mesh for mixing (old mesh)
   NGX = 17   NGY = 17   NGZ = 17
  (NGX  = 72   NGY  = 72   NGZ  = 72)
  gives a total of   4913 points

 initial charge density was supplied:
 charge density of overlapping atoms calculated
 number of electron      18.0000000 magnetization       1.0000000      1.0000000      1.0000000
 keeping initial charge density in first step

 Maximum index for augmentation-charges       184205 (set IRDMAX)

 First call to EWALD:  gamma=   0.455
 Maximum number of real-space cells 3x 3x 3
 Maximum number of reciprocal cells 3x 3x 3

--------------------------------------- Iteration      1(   1)  ---------------------------------------

 eigenvalue-minimisations  : 20976
 total energy-change (2. order) : 0.3079391E+03  (-0.9619039E+03)
 number of electron      18.0000000 magnetization       1.0000000      1.0000000      1.0000000
 augmentation part       18.0000000 magnetization       1.0000000      1.0000000      1.0000000

 Free energy of the ion-electron system (eV)
  alpha Z        PSCENC =        64.67520910
  Ewald energy   TEWEN  =     -1730.80734261
  -Hartree energ DENC   =      -667.01099376
  -exchange      EXHF   =         0.00000000
  -V(xc)+E(xc)   XCENC  =       -69.17816120
  PAW double counting   =      2268.28454800    -2184.08492831
  entropy T*S    EENTRO =        -0.00008237
  eigenvalues    EBANDS =       -14.46782852
  atomic energy  EATOM  =      2640.52872706
  Solvation  Ediel_sol  =         0.00000000
  free energy    TOTEN  =       307.93914740 eV

  energy without entropy =      307.93922977  energy(sigma->0) =      307.93917486

[...]

 eigenvalue-minimisations  : 26868
 total energy-change (2. order) :-0.3060506E+03  (-0.2966888E+03)
 number of electron      18.0000000 magnetization       1.0000000      1.0000000      1.0000000
 augmentation part       18.0000000 magnetization       1.0000000      1.0000000      1.0000000

[...]

 Broyden mixing:
  rms(total) = 0.63174E+00    rms(broyden)= 0.63170E+00
  rms(prec ) = 0.86892E+00
  weight for this iteration     100.00

[...]

 eigenvalues of (default mixing * dielectric matrix)
  average eigenvalue GAMMA=   0.7693
  0.7693

[...]

 eigenvalue-minimisations  : 21766
 total energy-change (2. order) : 0.1304452E-06  (-0.1592426E-07)
 number of electron      18.0000000 magnetization       0.0000015      0.0000011      0.0000011
 augmentation part        2.7934426 magnetization       0.0000019      0.0000015      0.0000014

 Broyden mixing:
  rms(total) = 0.13593E-04    rms(broyden)= 0.13590E-04
  rms(prec ) = 0.34025E-04
  weight for this iteration     100.00

 eigenvalues of (default mixing * dielectric matrix)
  average eigenvalue GAMMA=   1.4255
  3.5411  2.7381  2.7381  1.2822  1.2822  1.0887  0.8942  0.8309  0.7441  0.6235
  0.6383  0.7042

[...]

--------------------------------------- Iteration      1(  18)  ---------------------------------------

 eigenvalue-minimisations  : 17372
 total energy-change (2. order) :-0.5424636E-07  (-0.3512741E-08)
 number of electron      18.0000000 magnetization       0.0000015      0.0000011      0.0000011
 augmentation part        2.7934426 magnetization       0.0000019      0.0000015      0.0000014

 Free energy of the ion-electron system (eV)
  alpha Z        PSCENC =        64.67520910
  Ewald energy   TEWEN  =     -1730.80734261
  -Hartree energ DENC   =      -679.60857626
  -exchange      EXHF   =         0.00000000
  -V(xc)+E(xc)   XCENC  =       -68.81387059
  PAW double counting   =      2321.01726322    -2245.59828849
  entropy T*S    EENTRO =        -0.00001877
  eigenvalues    EBANDS =      -314.68172943
  atomic energy  EATOM  =      2640.52872706
  Solvation  Ediel_sol  =         0.00000000
  free energy    TOTEN  =       -13.28862676 eV

  energy without entropy =      -13.28860799  energy(sigma->0) =      -13.28862050

 average (electrostatic) potential at core
  the test charge radii are     1.2024
  (the norm of the test charge is              1.0000)
       1-110.1294

 E-fermi :   3.7530     XC(G=0):  -8.1421     alpha+bet : -7.4388

 k-point     1 :       0.0000    0.0000    0.0000
  band No.  band energies     occupation
      1     -30.6340      1.00000
      2     -30.6340      1.00000
      3     -30.6340      1.00000
      4     -30.6340      1.00000
      5     -23.9456      1.00000
      6     -23.9456      1.00000
      7     -23.9419      1.00000
      8     -23.9419      1.00000
      9     -23.9419      1.00000
     10     -23.9419      1.00000
     11     -20.3588      1.00000
     12     -20.3588      1.00000
     13      -7.0636      1.00000
     14      -7.0636      1.00000
     15       3.5795      1.01708
     16       3.5796      1.01708
     17       3.7473      0.54754
     18       3.7473      0.54754
     19       3.7473      0.54754
     20       3.7473      0.54753
     21      10.6971      0.00000
     22      10.6971      0.00000
     23      10.6971      0.00000
     24      10.6971      0.00000
     25      10.9763      0.00000
     26      10.9763      0.00000
     27      11.1143      0.00000
     28      11.1143      0.00000

[...]

 k-point   365 :      -0.1111   -0.1111    0.4444
  band No.  band energies     occupation
      1     -30.6332      1.00000
      2     -30.6332      1.00000
      3     -30.6313      1.00000
      4     -30.6313      1.00000
      5     -23.9437      1.00000
      6     -23.9437      1.00000
      7     -23.9377      1.00000
      8     -23.9377      1.00000
      9     -23.9350      1.00000
     10     -23.9350      1.00000
     11     -20.2514      1.00000
     12     -20.2514      1.00000
     13      -7.4197      1.00000
     14      -7.4197      1.00000
     15       0.6259      1.00000
     16       0.6259      1.00000
     17       2.8306      1.00000
     18       2.8306      1.00000
     19       6.5872      0.00000
     20       6.5872      0.00000
     21       9.1640      0.00000
     22       9.1640      0.00000
     23      10.5254      0.00000
     24      10.5254      0.00000
     25      11.3545      0.00000
     26      11.3545      0.00000
     27      12.3017      0.00000
     28      12.3017      0.00000

 soft charge-density along one line, spin component           1
         0         1         2         3         4         5         6         7         8         9
 total charge-density along one line

[...]

 soft charge-density along one line, spin component           4
         0         1         2         3         4         5         6         7         8         9
 total charge-density along one line

------------------------ aborting loop because EDIFF is reached ----------------------------------------

         DFTD3 V3.0 Rev 1
 IVDW         = 12
 DF pbe
 parameters
 VDW_S6       =    1.0000
 VDW_S8       =    0.7875
 VDW_A1       =    0.4289
 VDW_A2       =    4.4407
 k1-k3        =   16.0000    1.3333   -4.0000
 VDW_RADIUS   =   50.2022 A
 VDW_CNRADIUS =   21.1671 A
 Edisp (eV)   -0.43160

 E6    (eV) :    -0.2133
 E8    (eV) :    -0.2182
 % E8        : 50.57

  FORCE on cell =-STRESS in cart. coord.  units (eV):
  Direction    XX          YY          ZZ          XY          YZ          ZX
  Alpha Z    64.67521    64.67521    64.67521
  Ewald    -576.93580  -576.93580  -576.93580     0.00000    -0.00000     0.00000
  Hartree   226.53617   226.53618   226.53618    -0.00000    -0.00000    -0.00000
  E(xc)    -111.76535  -111.76535  -111.76535     0.00000     0.00000     0.00000
  Local    -171.31498  -171.31499  -171.31500     0.00001     0.00001     0.00001
  n-local    97.82425    97.82425    97.82426    -0.00001    -0.00001    -0.00001
  augment    74.01759    74.01759    74.01760    -0.00001    -0.00000    -0.00000
  Kinetic   397.34685   397.34684   397.34683     0.00001     0.00000    -0.00000
  Fock        0.00000     0.00000     0.00000     0.00000     0.00000     0.00000
  vdW        -0.44418    -0.44418    -0.44418     0.00000    -0.00000    -0.00000
  Total      -0.06024    -0.06026    -0.06025     0.00000    -0.00001    -0.00000
  in kB      -1.63622    -1.63651    -1.63638     0.00004    -0.00017    -0.00012

 VOLUME and BASIS-vectors are now :
  energy-cutoff  :      600.00
  volume of cell :       58.99
      direct lattice vectors                 reciprocal lattice vectors
     4.369519041  0.000000000  0.000000000     0.228858140 -0.132131309 -0.093430944
     2.184759521  3.784114492 -0.000000000     0.000000000  0.264262617 -0.093430944
     2.184759521  1.261371497  3.567697357    -0.000000000  0.000000000  0.280292833

  length of vectors
     4.369519041  4.369519041  4.369519041     0.280292833  0.280292833  0.280292833

 FORCES acting on ions
    electron-ion (+dipol)            ewald-force                    non-local-force                 convergence-correction
   0.157E-13 0.360E-13 -.793E-15   -.215E-15 0.263E-15 0.557E-15   0.000E+00 0.000E+00 0.000E+00   -.111E-12 0.123E-14 -.507E-13
   0.157E-13 0.360E-13 -.793E-15   -.215E-15 0.263E-15 0.557E-15   0.000E+00 0.000E+00 0.000E+00   -.111E-12 0.123E-14 -.507E-13

 POSITION                                       TOTAL-FORCE (eV/Angst)
      0.00000      0.00000      0.00000        -0.000000      0.000000     -0.000000
    total drift:                               -0.000000      0.000000     -0.000000

  FREE ENERGIE OF THE ION-ELECTRON SYSTEM (eV)
  free  energy   TOTEN  =       -13.72022541 eV

  energy  without entropy=      -13.72020664  energy(sigma->0) =      -13.72021915

 Spin-Orbit-Coupling matrix elements

 Ion:    1  E_soc:    -33.0564857
 l=   1
     0.0000000    -5.0847132    -5.0847134
    -5.0847132     0.0000000    -5.0847135
    -5.0847134    -5.0847135     0.0000000
 l=   2
     0.0000000    -0.0849467     0.0000000    -0.0849467    -0.3397434
    -0.0849467     0.0000000    -0.2548076    -0.0849574    -0.0849467
     0.0000000    -0.2548076     0.0000000    -0.2548076     0.0000000
    -0.0849467    -0.0849574    -0.2548076     0.0000000    -0.0849466
    -0.3397434    -0.0849467     0.0000000    -0.0849466     0.0000000
 l=   3
     0.0000000     0.0000000     0.0000000     0.0000000     0.0000000     0.0000000     0.0000000
     0.0000000     0.0000000     0.0000000     0.0000000     0.0000000     0.0000000     0.0000000
     0.0000000     0.0000000     0.0000000     0.0000000     0.0000000     0.0000000     0.0000000
     0.0000000     0.0000000     0.0000000     0.0000000     0.0000000     0.0000000     0.0000000
     0.0000000     0.0000000     0.0000000     0.0000000     0.0000000     0.0000000     0.0000000
     0.0000000     0.0000000     0.0000000     0.0000000     0.0000000     0.0000000     0.0000000
     0.0000000     0.0000000     0.0000000     0.0000000     0.0000000     0.0000000     0.0000000