 vasp.5.4.4.18Apr17-6-g9f103f2a35 (build Nov 03 2018 10:20:43) complex

 executed on             LinuxIFC date 2018.12.21  13:08:15

 INCAR:
 POTCAR:    PAW_PBE Xe_GW 08Jan2009

 POTCAR:    PAW_PBE Xe_GW 08Jan2009
   VRHFIN =Xe: s2p6

   TITEL  = PAW_PBE Xe_GW 08Jan2009
   POMASS =  131.294; ZVAL   =    8.000    mass and valenz
   ENMAX  =  179.547; ENMIN  =  134.660 eV

  PAW_PBE Xe_GW 08Jan2009               :

 POSCAR: Xe_FCC
  positions in direct lattice
  velocities in cartesian coordinates

 METAGGA = SCAN     LMAXTAU =  0    LMIXTAU =  F

 ion  position               nearest neighbor table
   1  0.000  0.000  0.000-

IMPORTANT INFORMATION: All symmetrisations will be switched off!
NOSYMM: (Re-)initialisation of all symmetry stuff for point group C_1.

 KPOINTS: Automatically generated mesh + R-points
  k-points in reciprocal lattice
Space group operators:
 irot       det(A)        alpha          n_x          n_y          n_z        tau_x        tau_y        tau_z
    1     1.000000     0.000000     1.000000     0.000000     0.000000     0.000000     0.000000     0.000000

 SYSTEM =  Xe_FCC
 POSCAR =  Xe_FCC

 Startparameter for this run:
   NWRITE =      2    write-flag & timer
   PREC   = accura    normal or accurate (medium, high low for compatibility)
   ISTART =      0    job   : 0-new  1-cont  2-samecut
   ICHARG =      2    charge: 1-file 2-atom 10-const
   ISPIN  =      1    spin polarized calculation?
   LNONCOLLINEAR =      F non collinear calculations
   LSORBIT =      F    spin-orbit coupling
   INIWAV =      1    electr: 0-lowe 1-rand  2-diag
   LASPH  =      F    aspherical Exc in radial PAW
   METAGGA=      F    non-selfconsistent MetaGGA calc.

 Electronic Relaxation 1
   ENCUT  =  300.0 eV  22.05 Ry    4.70 a.u.   6.12  6.12  6.12*2*pi/ulx,y,z
   ENINI  =  300.0     initial cutoff
   ENAUG  =  605.9 eV  augmentation charge cutoff
   NELM   =     50;   NELMIN=  2; NELMDL= -5     # of ELM steps
   EDIFF  = 0.1E-07   stopping-criterion for ELM
   LREAL  =      F    real-space projection
   NLSPLINE    = F    spline interpolate recip. space projectors
   LCOMPAT=      F    compatible to vasp.4.4
   GGA_COMPAT  = F    GGA compatible to vasp.4.4-vasp.4.6
   LMAXPAW     = -100 max onsite density
   LMAXMIX     =    2 max onsite mixed and CHGCAR
   VOSKOWN=      0    Vosko Wilk Nusair interpolation
   ROPT   =    0.00000
 Ionic relaxation
   EDIFFG = 0.1E-04   stopping-criterion for IOM
   NSW    =      1    number of steps for IOM
   NBLOCK =      1;   KBLOCK =      1    inner block; outer block
   IBRION =     -1    ionic relax: 0-MD 1-quasi-New 2-CG
   NFREE  =      5    steps in history (QN), initial steepest desc. (CG)
   ISIF   =      3    stress and relaxation
   IWAVPR =     10    prediction:  0-non 1-charg 2-wave 3-comb
   ISYM   =      0    0-nonsym 1-usesym 2-fastsym
   LCORR  =      T    Harris-Foulkes like correction to forces

   POTIM  = 0.1000    time-step for ionic-motion
   TEIN   =    0.0    initial temperature
   TEBEG  =    0.0;   TEEND  =   0.0 temperature during run
   SMASS  =  -3.00    Nose mass-parameter (am)
   estimated Nose-frequenzy (Omega)   =  0.10E-29 period in steps =****** mass=  -0.430E-27a.u.
   SCALEE = 1.0000    scale energy and forces
   NPACO  =    256;   APACO  = 16.0  distance and # of slots for P.C.
   PSTRESS=    0.0 pullay stress

  Mass of Ions in am
   POMASS = 131.29
  Ionic Valenz
   ZVAL   =   8.00
  Atomic Wigner-Seitz radii
  virtual crystal weights
   VCA    =   1.00
   NELECT =       8.0000    total number of electrons
   NUPDOWN=      -1.0000    fix difference up-down

 DOS related values:
   EMIN   =  10.00;   EMAX   =-10.00  energy-range for DOS
   EFERMI =   0.00
   ISMEAR =     0;   SIGMA  =   0.05  broadening in eV -4-tet -1-fermi 0-gaus

 Electronic relaxation 2 (details)
   IALGO  =     38    algorithm
   LDIAG  =      T    sub-space diagonalisation (order eigenvalues)
   LSUBROT=      F    optimize rotation matrix (better conditioning)
   TURBO    =      0    0=normal 1=particle mesh
   IRESTART =      0    0=no restart 2=restart with 2 vectors
   NREBOOT  =      0    no. of reboots
   NMIN     =      0    reboot dimension
   EREF     =   0.00    reference energy to select bands
   IMIX   =      4    mixing-type and parameters
     AMIX     =   0.40;   BMIX     =  1.00
     AMIX_MAG =   1.60;   BMIX_MAG =  1.00
     AMIN     =   0.10
     WC   =   100.;   INIMIX=   1;  MIXPRE=   1;  MAXMIX=  50

 Intra band minimization:
   WEIMIN = 0.0000     energy-eigenvalue tresh-hold
   EBREAK =  0.78E-10  absolut break condition
   DEPER  =   0.30     relativ break condition

   TIME   =   0.40     timestep for ELM

  volume/ion in A,a.u.               =      57.64       389.00
  Fermi-wavevector in a.u.,A,eV,Ry     =   0.847594  1.601720  9.774627  0.718415
  Thomas-Fermi vector in A             =   1.963124

 Write flags
   LWAVE        =      T    write WAVECAR
   LDOWNSAMPLE  =      F    k-point downsampling of WAVECAR
   LCHARG       =      T    write CHGCAR
   LVTOT        =      F    write LOCPOT, total local potential
   LVHAR        =      F    write LOCPOT, Hartree potential only
   LELF         =      F    write electronic localiz. function (ELF)
   LORBIT       =      0    0 simple, 1 ext, 2 COOP (PROOUT), +10 PAW based schemes

 Dipole corrections
   LMONO  =      F    monopole corrections only (constant potential shift)
   LDIPOL =      F    correct potential (dipole corrections)
   IDIPOL =      0    1-x, 2-y, 3-z, 4-all directions
   EPSILON=  1.0000000 bulk dielectric constant

 Exchange correlation treatment:
   GGA     =    --    GGA type
   VOSKOWN=      0    Vosko Wilk Nusair interpolation
   LHFCALC =     F    Hartree Fock is set to
   LHFONE  =     F    Hartree Fock one center treatment
   AEXX    =    0.0000 exact exchange contribution

 Linear response parameters
   LEPSILON=     F    determine dielectric tensor
   LRPA    =     F    only Hartree local field effects (RPA)
   LNABLA  =     F    use nabla operator in PAW spheres
   LVEL    =     F    velocity operator in full k-point grid
   LINTERFAST=   F  fast interpolation
   KINTER  =     0    interpolate to denser k-point grid
   CSHIFT  =0.1000    complex shift for real part using Kramers Kronig
   OMEGAMAX=  -1.0    maximum frequency
   DEG_THRESHOLD= 0.2000000E-02 threshold for treating states as degnerate
   RTIME   =   -0.100 relaxation time in fs
  (WPLASMAI=    0.000 imaginary part of plasma frequency in eV, 0.658/RTIME)
   DFIELD  = 0.0000000 0.0000000 0.0000000 field for delta impulse in time

 Orbital magnetization related:
   ORBITALMAG=     F  switch on orbital magnetization
   LCHIMAG   =     F  perturbation theory with respect to B field
   DQ        =  0.001000  dq finite difference perturbation B field
   LLRAUG    =     F  two centre corrections for induced B field

 Static calculation
 charge density and potential will be updated during run
 non-spin polarized calculation
 Variant of blocked Davidson
 Davidson routine will perform the subspace rotation
 perform sub-space diagonalisation
    after iterative eigenvector-optimisation
 modified Broyden-mixing scheme, WC =      100.0
 initial mixing is a Kerker type mixing with AMIX =  0.4000 and BMIX =      1.0000
 Hartree-type preconditioning will be used
 using additional bands           28
 reciprocal scheme for non local part
 use partial core corrections
 calculate Harris-corrections to forces
   (improved forces if not selfconsistent)
 use gradient corrections
 use of overlap-Matrix (Vanderbilt PP)
 Gauss-broadening in eV      SIGMA  =   0.05

  energy-cutoff  :      300.00
  volume of cell :       57.64
      direct lattice vectors                 reciprocal lattice vectors
     4.335995782  0.000000000  0.000000000     0.230627531 -0.133152867 -0.094153295
     2.167997891  3.755082498 -0.000000000     0.000000000  0.266305734 -0.094153295
     2.167997891  1.251694166  3.540325731    -0.000000000  0.000000000  0.282459885

  length of vectors
     4.335995782  4.335995782  4.335995782     0.282459885  0.282459885  0.282459885

 k-points in units of 2pi/SCALE and weight: Automatically generated mesh + R-points
   0.11281079  0.06513134  0.04605481       0.000
   0.10717025  0.06187477  0.04375207       0.000
   0.10152971  0.05861821  0.04144933       0.000
   0.09588917  0.05536164  0.03914659       0.000
   0.09024863  0.05210507  0.03684385       0.000
   0.08460809  0.04884851  0.03454111       0.000
   0.07896755  0.04559194  0.03223837       0.000
   0.07332701  0.04233537  0.02993563       0.000
   0.06768647  0.03907880  0.02763289       0.000
   0.06204593  0.03582224  0.02533015       0.000
   0.05640540  0.03256567  0.02302741       0.000
   0.05076486  0.02930910  0.02072467       0.000
   0.04512432  0.02605254  0.01842192       0.000
   0.03948378  0.02279597  0.01611918       0.000
   0.03384324  0.01953940  0.01381644       0.000
   0.02820270  0.01628284  0.01151370       0.000
   0.02256216  0.01302627  0.00921096       0.000
   0.01692162  0.00976970  0.00690822       0.000
   0.01128108  0.00651313  0.00460548       0.000
   0.00564054  0.00325657  0.00230274       0.000
   0.00000000  0.00000000  0.00000000       0.000
  -0.00000000  0.00651313  0.00460548       0.000
  -0.00000000  0.01302627  0.00921096       0.000
  -0.00000000  0.01953940  0.01381644       0.000
  -0.00000000  0.02605254  0.01842192       0.000
  -0.00000000  0.03256567  0.02302741       0.000
  -0.00000000  0.03907880  0.02763289       0.000
  -0.00000000  0.04559194  0.03223837       0.000
  -0.00000000  0.05210507  0.03684385       0.000
  -0.00000000  0.05861821  0.04144933       0.000
  -0.00000000  0.06513134  0.04605481       0.000
  -0.00000000  0.07164447  0.05066029       0.000
  -0.00000000  0.07815761  0.05526577       0.000
  -0.00000000  0.08467074  0.05987126       0.000
  -0.00000000  0.09118388  0.06447674       0.000
  -0.00000000  0.09769701  0.06908222       0.000
  -0.00000000  0.10421014  0.07368770       0.000
  -0.00000000  0.11072328  0.07829318       0.000
  -0.00000000  0.11723641  0.08289866       0.000
  -0.00000000  0.12374955  0.08750414       0.000
  -0.00000000  0.13026268  0.09210962       0.000
   0.00000000  0.00000000  0.00000000       0.005
   0.03760360 -0.02171045 -0.01535160       0.009
   0.07520719 -0.04342089 -0.03070321       0.009
   0.11281079 -0.06513134 -0.04605481       0.005
   0.00000000  0.04342089 -0.01535160       0.009
   0.03760360  0.02171045 -0.03070321       0.009
   0.07520719  0.00000000 -0.04605481       0.009
   0.11281079 -0.02171045 -0.06140642       0.009
  -0.07520719  0.08684179  0.01535160       0.009
  -0.03760360  0.06513134  0.00000000       0.009
   0.00000000  0.08684179 -0.03070321       0.009
   0.03760360  0.06513134 -0.04605481       0.009
   0.07520719  0.04342089 -0.06140642       0.009
   0.11281079  0.02171045 -0.07675802       0.009
  -0.07520719  0.13026268  0.00000000       0.009
  -0.03760360  0.10855223 -0.01535160       0.009
   0.00000000  0.13026268 -0.04605481       0.005
   0.03760360  0.10855223 -0.06140642       0.009
   0.07520719  0.08684179 -0.07675802       0.009
[...]
[...]
 k-point  5 :   0.4000 0.4000 0.4000  plane waves:     679
 k-point  6 :   0.3750 0.3750 0.3750  plane waves:     676
 k-point  7 :   0.3500 0.3500 0.3500  plane waves:     676
 k-point  8 :   0.3250 0.3250 0.3250  plane waves:     673
 k-point  9 :   0.3000 0.3000 0.3000  plane waves:     673
 k-point 10 :   0.2750 0.2750 0.2750  plane waves:     676
 k-point 11 :   0.2500 0.2500 0.2500  plane waves:     670
 k-point 12 :   0.2250 0.2250 0.2250  plane waves:     673
 k-point 13 :   0.2000 0.2000 0.2000  plane waves:     667
 k-point 14 :   0.1750 0.1750 0.1750  plane waves:     673
 k-point 15 :   0.1500 0.1500 0.1500  plane waves:     673
 k-point 16 :   0.1250 0.1250 0.1250  plane waves:     673
 k-point 17 :   0.1000 0.1000 0.1000  plane waves:     679
 k-point 18 :   0.0750 0.0750 0.0750  plane waves:     679
 k-point 19 :   0.0500 0.0500 0.0500  plane waves:     676
 k-point 20 :   0.0250 0.0250 0.0250  plane waves:     673
 k-point 21 :   0.0000 0.0000 0.0000  plane waves:     645
 k-point 22 :   0.0000 0.0250 0.0250  plane waves:     673
 k-point 23 :   0.0000 0.0500 0.0500  plane waves:     681
 k-point 24 :   0.0000 0.0750 0.0750  plane waves:     681
 k-point 25 :   0.0000 0.1000 0.1000  plane waves:     677
 k-point 26 :   0.0000 0.1250 0.1250  plane waves:     673
 k-point 27 :   0.0000 0.1500 0.1500  plane waves:     677
 k-point 28 :   0.0000 0.1750 0.1750  plane waves:     681
 k-point 29 :   0.0000 0.2000 0.2000  plane waves:     681
 k-point 30 :   0.0000 0.2250 0.2250  plane waves:     677
 k-point 31 :   0.0000 0.2500 0.2500  plane waves:     681
 k-point 32 :   0.0000 0.2750 0.2750  plane waves:     677
 k-point 33 :   0.0000 0.3000 0.3000  plane waves:     689
 k-point 34 :   0.0000 0.3250 0.3250  plane waves:     681
 k-point 35 :   0.0000 0.3500 0.3500  plane waves:     684
 k-point 36 :   0.0000 0.3750 0.3750  plane waves:     684
 k-point 37 :   0.0000 0.4000 0.4000  plane waves:     676
 k-point 38 :   0.0000 0.4250 0.4250  plane waves:     676
 k-point 39 :   0.0000 0.4500 0.4500  plane waves:     684
 k-point 40 :   0.0000 0.4750 0.4750  plane waves:     692
 k-point 41 :   0.0000 0.5000 0.5000  plane waves:     692
 k-point 42 :   0.0000 0.0000 0.0000  plane waves:     645
 k-point 43 :   0.1667 0.0000 0.0000  plane waves:     673
 k-point 44 :   0.3333 0.0000 0.0000  plane waves:     664
 k-point 45 :   0.5000 0.0000 0.0000  plane waves:     700
 k-point 46 :   0.0000 0.1667 0.0000  plane waves:     673
 k-point 47 :   0.1667 0.1667 0.0000  plane waves:     681
 k-point 48 :   0.3333 0.1667 0.0000  plane waves:     680
 k-point 49 :   0.5000 0.1667 0.0000  plane waves:     678
 k-point 50 :  -0.3333 0.1667 0.0000  plane waves:     677
 k-point 51 :  -0.1667 0.1667 0.0000  plane waves:     674
 k-point 52 :   0.0000 0.3333 0.0000  plane waves:     664
 k-point 53 :   0.1667 0.3333 0.0000  plane waves:     680
 k-point 54 :   0.3333 0.3333 0.0000  plane waves:     680
 k-point 55 :   0.5000 0.3333 0.0000  plane waves:     686
 k-point 56 :  -0.3333 0.3333 0.0000  plane waves:     680
 k-point 57 :  -0.1667 0.3333 0.0000  plane waves:     677
 k-point 58 :   0.0000 0.5000 0.0000  plane waves:     700
 k-point 59 :   0.1667 0.5000 0.0000  plane waves:     678
 k-point 60 :   0.3333 0.5000 0.0000  plane waves:     686
[...]
 k-point 85 :  -0.1667 0.5000 0.1667  plane waves:     692
 k-point 86 :   0.0000-0.3333 0.1667  plane waves:     677
 k-point 87 :   0.1667-0.3333 0.1667  plane waves:     678
 k-point 88 :   0.3333-0.3333 0.1667  plane waves:     692
 k-point 89 :   0.5000-0.3333 0.1667  plane waves:     690
 k-point 90 :  -0.3333-0.3333 0.1667  plane waves:     686
 k-point 91 :  -0.1667-0.3333 0.1667  plane waves:     676
 k-point 92 :   0.0000-0.1667 0.1667  plane waves:     674
 k-point 93 :   0.1667-0.1667 0.1667  plane waves:     680
 k-point 94 :   0.3333-0.1667 0.1667  plane waves:     676
 k-point 95 :   0.5000-0.1667 0.1667  plane waves:     692
 k-point 96 :  -0.3333-0.1667 0.1667  plane waves:     676
 k-point 97 :  -0.1667-0.1667 0.1667  plane waves:     680
 k-point 98 :   0.0000 0.0000 0.3333  plane waves:     664
 k-point 99 :   0.1667 0.0000 0.3333  plane waves:     680
 k-point ** :   0.3333 0.0000 0.3333  plane waves:     680
 k-point ** :   0.5000 0.0000 0.3333  plane waves:     686
 k-point ** :  -0.3333 0.0000 0.3333  plane waves:     680
 k-point ** :  -0.1667 0.0000 0.3333  plane waves:     677
 k-point ** :   0.0000 0.1667 0.3333  plane waves:     680
 k-point ** :   0.1667 0.1667 0.3333  plane waves:     674
 k-point ** :   0.3333 0.1667 0.3333  plane waves:     680
 k-point ** :   0.5000 0.1667 0.3333  plane waves:     676
 k-point ** :  -0.3333 0.1667 0.3333  plane waves:     692
 k-point ** :  -0.1667 0.1667 0.3333  plane waves:     676
 k-point ** :   0.0000 0.3333 0.3333  plane waves:     680
 k-point ** :   0.1667 0.3333 0.3333  plane waves:     680
 k-point ** :   0.3333 0.3333 0.3333  plane waves:     664
 k-point ** :   0.5000 0.3333 0.3333  plane waves:     677
 k-point ** :  -0.3333 0.3333 0.3333  plane waves:     680
 k-point ** :  -0.1667 0.3333 0.3333  plane waves:     686
 k-point ** :   0.0000 0.5000 0.3333  plane waves:     686
 k-point ** :   0.1667 0.5000 0.3333  plane waves:     676
 k-point ** :   0.3333 0.5000 0.3333  plane waves:     677
 k-point ** :   0.5000 0.5000 0.3333  plane waves:     678
 k-point ** :  -0.3333 0.5000 0.3333  plane waves:     692
 k-point ** :  -0.1667 0.5000 0.3333  plane waves:     690
 k-point ** :   0.0000-0.3333 0.3333  plane waves:     680
 k-point ** :   0.1667-0.3333 0.3333  plane waves:     692
 k-point ** :   0.3333-0.3333 0.3333  plane waves:     680
 k-point ** :   0.5000-0.3333 0.3333  plane waves:     692
 k-point ** :  -0.3333-0.3333 0.3333  plane waves:     680
 k-point ** :  -0.1667-0.3333 0.3333  plane waves:     692
 k-point ** :   0.0000-0.1667 0.3333  plane waves:     677
 k-point ** :   0.1667-0.1667 0.3333  plane waves:     676
 k-point ** :   0.3333-0.1667 0.3333  plane waves:     686
 k-point ** :   0.5000-0.1667 0.3333  plane waves:     690
 k-point ** :  -0.3333-0.1667 0.3333  plane waves:     692
 k-point ** :  -0.1667-0.1667 0.3333  plane waves:     678
 k-point ** :   0.0000 0.0000 0.5000  plane waves:     700
 k-point ** :   0.1667 0.0000 0.5000  plane waves:     678
 k-point ** :   0.3333 0.0000 0.5000  plane waves:     686
 k-point ** :   0.5000 0.0000 0.5000  plane waves:     692
 k-point ** :   0.0000 0.1667 0.5000  plane waves:     678
 k-point ** :   0.1667 0.1667 0.5000  plane waves:     677
 k-point ** :   0.3333 0.1667 0.5000  plane waves:     676
 k-point ** :   0.5000 0.1667 0.5000  plane waves:     686
 k-point ** :  -0.3333 0.1667 0.5000  plane waves:     690
 k-point ** :  -0.1667 0.1667 0.5000  plane waves:     692
 k-point ** :   0.0000 0.3333 0.5000  plane waves:     686
 k-point ** :   0.1667 0.3333 0.5000  plane waves:     676
 k-point ** :   0.3333 0.3333 0.5000  plane waves:     677
 k-point ** :   0.5000 0.3333 0.5000  plane waves:     678
 k-point ** :  -0.3333 0.3333 0.5000  plane waves:     692
 k-point ** :  -0.1667 0.3333 0.5000  plane waves:     690
 k-point ** :   0.0000 0.5000 0.5000  plane waves:     692
 k-point ** :   0.1667 0.5000 0.5000  plane waves:     686
 k-point ** :   0.3333 0.5000 0.5000  plane waves:     678

 maximum and minimum number of plane-waves per node :       700      645

 maximum number of plane-waves:       700
 maximum index in each direction:
   IXMAX=    6   IYMAX=    6   IZMAX=    6
   IXMIN=   -6   IYMIN=   -6   IZMIN=   -6

 serial   3D FFT for wavefunctions
 parallel 3D FFT for charge:
    minimum data exchange during FFTs selected (reduces bandwidth)

 Broyden mixing: mesh for mixing (old mesh)
   NGX = 13   NGY = 13   NGZ = 13
  (NGX  = 48   NGY  = 48   NGZ  = 48)
  gives a total of   2197 points

 initial charge density was supplied:
 charge density of overlapping atoms calculated
 number of electron       8.0000000 magnetization
 keeping initial charge density in first step

 Maximum index for augmentation-charges        92055 (set IRDMAX)

 First call to EWALD:  gamma=   0.459
 Maximum number of real-space cells 3x 3x 3
 Maximum number of reciprocal cells 3x 3x 3

--------------------------------------- Iteration      1(   1)  ---------------------------------------

 eigenvalue-minimisations  :  9728
 total energy-change (2. order) :-0.1000128E+02  (-0.2027253E+03)
 number of electron       8.0000000 magnetization
 augmentation part        8.0000000 magnetization

 Free energy of the ion-electron system (eV)
  alpha Z        PSCENC =        22.61767795
  Ewald energy   TEWEN  =      -344.53113738
  -Hartree energ DENC   =       -64.52406707
  -exchange      EXHF   =         0.00000000
  -V(xc)+E(xc)   XCENC  =       -57.57151585
  PAW double counting   =       413.10232264     -372.75623973
  entropy T*S    EENTRO =        -0.00000000
  eigenvalues    EBANDS =       -35.84110015
  atomic energy  EATOM  =       429.50278051
  Solvation  Ediel_sol  =         0.00000000
  free energy    TOTEN  =       -10.00127910 eV

  energy without entropy =      -10.00127910  energy(sigma->0) =      -10.00127910

[...]

 Broyden mixing:
  rms(total) = 0.24689E-01    rms(broyden)= 0.24617E-01
  rms(prec ) = 0.79937E-01
  weight for this iteration     100.00

[...]

 eigenvalue-minimisations  :  9896
 total energy-change (2. order) : 0.1631594E+01  (-0.2467878E-01)
 number of electron       8.0000000 magnetization
 augmentation part       -1.3395485 magnetization

[...]

 eigenvalues of (default mixing * dielectric matrix)
  average eigenvalue GAMMA=   0.6568
  0.6568

[...]

 Broyden mixing:
  rms(total) = 0.11719E-03    rms(broyden)= 0.11682E-03
  rms(prec ) = 0.19148E-03
  weight for this iteration     100.00

[...]

 Broyden mixing:
  rms(total) = 0.13900E-04    rms(broyden)= 0.10380E-04
  rms(prec ) = 0.24891E-04
  weight for this iteration     100.00
  WARNING: grid for Broyden might be to small

[...]

 eigenvalue-minimisations  : 10056
 total energy-change (2. order) : 0.5757545E-07  (-0.5405695E-10)
 number of electron       8.0000000 magnetization
 augmentation part       -1.3377325 magnetization

[...]

 Broyden mixing:
  rms(total) = 0.93028E-05    rms(broyden)= 0.10414E-05
  rms(prec ) = 0.26443E-05
  weight for this iteration     100.00
  WARNING: grid for Broyden might be to small

 eigenvalues of (default mixing * dielectric matrix)
  average eigenvalue GAMMA=   1.7629
  3.2129  3.2129  2.3979  2.3979  1.8428  0.9625  0.9625  1.0233  1.0233  1.0261
  1.3296

[...]

--------------------------------------- Iteration      1(  17)  ---------------------------------------

 eigenvalue-minimisations  :  6352
 total energy-change (2. order) :-0.6931316E-08  (-0.8995388E-12)
 number of electron       8.0000000 magnetization
 augmentation part       -1.3377331 magnetization

 Free energy of the ion-electron system (eV)
  alpha Z        PSCENC =        22.61767795
  Ewald energy   TEWEN  =      -344.53113738
  -Hartree energ DENC   =       -64.51678265
  -exchange      EXHF   =         0.00000000
  -V(xc)+E(xc)   XCENC  =       -57.15981490
  PAW double counting   =       417.22536130     -376.89162951
  entropy T*S    EENTRO =        -0.00000000
  eigenvalues    EBANDS =       -62.48689230
  atomic energy  EATOM  =       429.50278051
  Solvation  Ediel_sol  =         0.00000000
  free energy    TOTEN  =       -36.24043699 eV

  energy without entropy =      -36.24043699  energy(sigma->0) =      -36.24043699

 average (electrostatic) potential at core
  the test charge radii are     1.1266
  (the norm of the test charge is              1.0000)
       1 -62.9053

 E-fermi :  -3.7234     XC(G=0):  -7.3060     alpha+bet : -3.7983

 k-point     1 :       0.5000    0.5000    0.5000
  band No.  band energies     occupation
      1     -16.7221      2.00000
      2      -5.8345      2.00000
      3      -4.3027      2.00000
      4      -4.3027      2.00000
      5       4.2687      0.00000
      6       7.0170      0.00000
      7       7.0171      0.00000
      8       7.6027      0.00000
      9      10.2297      0.00000
     10      11.6715      0.00000
     11      11.6715      0.00000
     12      13.5472      0.00000
     13      13.5472      0.00000
     14      13.8241      0.00000
     15      18.2237      0.00000
     16      18.7532      0.00000
     17      18.7533      0.00000
     18      20.2657      0.00000
     19      20.4348      0.00000
     20      21.5817      0.00000
     21      21.5817      0.00000
     22      22.0957      0.00000
     23      23.0681      0.00000
     24      23.0681      0.00000
     25      25.6781      0.00000
     26      26.0606      0.00000
     27      27.0071      0.00000
     28      27.0071      0.00000
     29      27.6788      0.00000
     30      27.6789      0.00000
     31      28.7152      0.00000
     32      30.1076      0.00000

[...]

 k-point   152 :       0.3333    0.5000    0.5000
  band No.  band energies     occupation
      1     -16.7016      2.00000
      2      -5.6718      2.00000
      3      -4.6019      2.00000
      4      -4.4097      2.00000
      5       4.8301      0.00000
      6       5.9332      0.00000
      7       7.3967      0.00000
      8       7.6654      0.00000
      9      10.6406      0.00000
     10      11.7375      0.00000
     11      11.9411      0.00000
     12      13.1257      0.00000
     13      13.7994      0.00000
     14      16.4393      0.00000
     15      17.6938      0.00000
     16      17.7410      0.00000
     17      18.3937      0.00000
     18      19.4096      0.00000
     19      20.3520      0.00000
     20      20.6845      0.00000
     21      21.4195      0.00000
     22      21.7446      0.00000
     23      23.2256      0.00000
     24      23.3973      0.00000
     25      25.4130      0.00000
     26      26.1516      0.00000
     27      26.4462      0.00000
     28      26.5231      0.00000
     29      27.9549      0.00000
     30      28.0354      0.00000
     31      29.3677      0.00000
     32      30.4599      0.00000

 soft charge-density along one line, spin component           1
         0         1         2         3         4         5         6         7         8         9
 total charge-density along one line

------------------------ aborting loop because EDIFF is reached ----------------------------------------

  FORCE on cell =-STRESS in cart. coord.  units (eV):
  Direction    XX          YY          ZZ          XY          YZ          ZX
  Alpha Z    22.61768    22.61768    22.61768
  Ewald    -114.84372  -114.84372  -114.84372    -0.00000    -0.00000    -0.00000
  Hartree    21.50075    21.50721    21.50883    -0.00559    -0.00228    -0.00396
  E(xc)     -39.97164   -39.97006   -39.96965    -0.00137    -0.00056    -0.00097
  Local     -14.76637   -14.76614   -14.76608    -0.00020    -0.00009    -0.00014
  n-local    44.97017    44.96579    44.96470     0.00379     0.00155     0.00268
  augment   -11.70890   -11.70579   -11.70501    -0.00269    -0.00110    -0.00190
  Kinetic    92.31839    92.28953    92.28232     0.02499     0.01020     0.01767
  Fock        0.00000     0.00000     0.00000     0.00000     0.00000     0.00000
  Total       0.11637     0.09451     0.08906     0.01892     0.00772     0.01338
  in kB       3.23433     2.62693     2.47541     0.52595     0.21454     0.37201

 VOLUME and BASIS-vectors are now :
  energy-cutoff  :      300.00
  volume of cell :       57.64
      direct lattice vectors                 reciprocal lattice vectors
     4.335995782  0.000000000  0.000000000     0.230627531 -0.133152867 -0.094153295
     2.167997891  3.755082498 -0.000000000     0.000000000  0.266305734 -0.094153295
     2.167997891  1.251694166  3.540325731    -0.000000000  0.000000000  0.282459885

  length of vectors
     4.335995782  4.335995782  4.335995782     0.282459885  0.282459885  0.282459885

 FORCES acting on ions
    electron-ion (+dipol)            ewald-force                    non-local-force                 convergence-correction
   0.162E-08 0.716E-08 0.309E-08   0.118E-15 0.307E-16 0.152E-15   -.599E-09 -.199E-08 -.796E-09   -.145E-08 -.750E-08 -.269E-08
   0.159E-08 0.745E-08 0.320E-08   0.118E-15 0.307E-16 0.152E-15   -.599E-09 -.199E-08 -.796E-09   -.145E-08 -.750E-08 -.269E-08

 POSITION                                       TOTAL-FORCE (eV/Angst)
      0.00000      0.00000      0.00000        -0.000000     -0.000000     -0.000000
    total drift:                               -0.000000     -0.000000     -0.000000

  FREE ENERGIE OF THE ION-ELECTRON SYSTEM (eV)
  free  energy   TOTEN  =       -36.24043699 eV

  energy  without entropy=      -36.24043699  energy(sigma->0) =      -36.24043699

 writing wavefunctions