 vasp.5.4.4.18Apr17-6-g9f103f2a35 (build Nov 03 2018 10:20:46) complex

 executed on             LinuxIFC date 2018.12.06  11:57:22

 INCAR:
 POTCAR:    PAW Og, JanMewes Oct 18

 POTCAR:    PAW Og, JanMewes Oct 18
   VRHFIN =Og : 10d 2s 6p, PE

   TITEL  = PAW Og, JanMewes Oct 18
   POMASS =    0.010; ZVAL   =   18.000    mass and valenz
   ENMAX  =  339.336; ENMIN  =  254.502 eV
   QCUT   =   -4.994; QGAM   =    9.988    optimization parameters

  PAW Og, JanMewes Oct 18               :

 POSCAR: Og_FCC
  positions in direct lattice
  velocities in cartesian coordinates

 METAGGA = SCAN     LMAXTAU =  0    LMIXTAU =  F

 ion  position               nearest neighbor table
   1  0.000  0.000  0.000-

IMPORTANT INFORMATION: All symmetrisations will be switched off!
NOSYMM: (Re-)initialisation of all symmetry stuff for point group C_1.

 KPOINTS: Automatically generated mesh + R-points
  k-points in reciprocal lattice
Space group operators:
 irot       det(A)        alpha          n_x          n_y          n_z        tau_x        tau_y        tau_z
    1     1.000000     0.000000     1.000000     0.000000     0.000000     0.000000     0.000000     0.000000

 SYSTEM =  Og_FCC
 POSCAR =  Og_FCC

 Startparameter for this run:
   NWRITE =      2    write-flag & timer
   PREC   = accura    normal or accurate (medium, high low for compatibility)
   ISTART =      1    job   : 0-new  1-cont  2-samecut
   ICHARG =      0    charge: 1-file 2-atom 10-const
   ISPIN  =      1    spin polarized calculation?
   LNONCOLLINEAR =      T non collinear calculations
   LSORBIT =      T    spin-orbit coupling
   INIWAV =      1    electr: 0-lowe 1-rand  2-diag
   LASPH  =      F    aspherical Exc in radial PAW
   METAGGA=      F    non-selfconsistent MetaGGA calc.

 Electronic Relaxation 1
   ENCUT  =  300.0 eV  22.05 Ry    4.70 a.u.   6.13  6.13  6.13*2*pi/ulx,y,z
   ENINI  =  300.0     initial cutoff
   ENAUG  =  361.0 eV  augmentation charge cutoff
   NELM   =     50;   NELMIN=  2; NELMDL= -5     # of ELM steps
   EDIFF  = 0.1E-07   stopping-criterion for ELM
   LREAL  =      F    real-space projection
   NLSPLINE    = F    spline interpolate recip. space projectors
   LCOMPAT=      F    compatible to vasp.4.4
   GGA_COMPAT  = F    GGA compatible to vasp.4.4-vasp.4.6
   LMAXPAW     = -100 max onsite density
   LMAXMIX     =    2 max onsite mixed and CHGCAR
   VOSKOWN=      0    Vosko Wilk Nusair interpolation
   ROPT   =    0.00000
 Ionic relaxation
   EDIFFG = 0.1E-04   stopping-criterion for IOM
   NSW    =      1    number of steps for IOM
   NBLOCK =      1;   KBLOCK =      1    inner block; outer block
   IBRION =     -1    ionic relax: 0-MD 1-quasi-New 2-CG
   NFREE  =      5    steps in history (QN), initial steepest desc. (CG)
   ISIF   =      3    stress and relaxation
   IWAVPR =     10    prediction:  0-non 1-charg 2-wave 3-comb
   ISYM   =      0    0-nonsym 1-usesym 2-fastsym
   LCORR  =      T    Harris-Foulkes like correction to forces

   POTIM  = 0.1000    time-step for ionic-motion
   TEIN   =    0.0    initial temperature
   TEBEG  =    0.0;   TEEND  =   0.0 temperature during run
   SMASS  =  -3.00    Nose mass-parameter (am)
   estimated Nose-frequenzy (Omega)   =  0.10E-29 period in steps =****** mass=  -0.431E-27a.u.
   SCALEE = 1.0000    scale energy and forces
   NPACO  =    256;   APACO  = 16.0  distance and # of slots for P.C.
   PSTRESS=    0.0 pullay stress

  Mass of Ions in am
   POMASS =   0.01
  Ionic Valenz
   ZVAL   =  18.00
  Atomic Wigner-Seitz radii
  virtual crystal weights
   VCA    =   1.00
   NELECT =      18.0000    total number of electrons
   NUPDOWN=      -1.0000    fix difference up-down

 DOS related values:
   EMIN   =  10.00;   EMAX   =-10.00  energy-range for DOS
   EFERMI =   0.00
   ISMEAR =     0;   SIGMA  =   0.05  broadening in eV -4-tet -1-fermi 0-gaus

 Electronic relaxation 2 (details)
   IALGO  =     38    algorithm
   LDIAG  =      T    sub-space diagonalisation (order eigenvalues)
   LSUBROT=      F    optimize rotation matrix (better conditioning)
   TURBO    =      0    0=normal 1=particle mesh
   IRESTART =      0    0=no restart 2=restart with 2 vectors
   NREBOOT  =      0    no. of reboots
   NMIN     =      0    reboot dimension
   EREF     =   0.00    reference energy to select bands
   IMIX   =      4    mixing-type and parameters
     AMIX     =   0.40;   BMIX     =  1.00
     AMIX_MAG =   1.60;   BMIX_MAG =  1.00
     AMIN     =   0.10
     WC   =   100.;   INIMIX=   1;  MIXPRE=   1;  MAXMIX=  50

 Intra band minimization:
   WEIMIN = 0.0000     energy-eigenvalue tresh-hold
   EBREAK =  0.39E-10  absolut break condition
   DEPER  =   0.30     relativ break condition

   TIME   =   0.40     timestep for ELM

  volume/ion in A,a.u.               =      57.90       390.71
  Fermi-wavevector in a.u.,A,eV,Ry     =   1.109038  2.095777 16.734680  1.229964
  Thomas-Fermi vector in A             =   2.245572

 Write flags
   LWAVE        =      T    write WAVECAR
   LDOWNSAMPLE  =      F    k-point downsampling of WAVECAR
   LCHARG       =      T    write CHGCAR
   LVTOT        =      F    write LOCPOT, total local potential
   LVHAR        =      F    write LOCPOT, Hartree potential only
   LELF         =      F    write electronic localiz. function (ELF)
   LORBIT       =      0    0 simple, 1 ext, 2 COOP (PROOUT), +10 PAW based schemes

 Dipole corrections
   LMONO  =      F    monopole corrections only (constant potential shift)
   LDIPOL =      F    correct potential (dipole corrections)
   IDIPOL =      0    1-x, 2-y, 3-z, 4-all directions
   EPSILON=  1.0000000 bulk dielectric constant

 Exchange correlation treatment:
   GGA     =    --    GGA type
   VOSKOWN=      0    Vosko Wilk Nusair interpolation
   LHFCALC =     F    Hartree Fock is set to
   LHFONE  =     F    Hartree Fock one center treatment
   AEXX    =    0.0000 exact exchange contribution

 Linear response parameters
   LEPSILON=     F    determine dielectric tensor
   LRPA    =     F    only Hartree local field effects (RPA)
   LNABLA  =     F    use nabla operator in PAW spheres
   LVEL    =     F    velocity operator in full k-point grid
   LINTERFAST=   F  fast interpolation
   KINTER  =     0    interpolate to denser k-point grid
   CSHIFT  =0.1000    complex shift for real part using Kramers Kronig
   OMEGAMAX=  -1.0    maximum frequency
   DEG_THRESHOLD= 0.2000000E-02 threshold for treating states as degnerate
   RTIME   =   -0.100 relaxation time in fs
  (WPLASMAI=    0.000 imaginary part of plasma frequency in eV, 0.658/RTIME)
   DFIELD  = 0.0000000 0.0000000 0.0000000 field for delta impulse in time

 Orbital magnetization related:
   ORBITALMAG=     F  switch on orbital magnetization
   LCHIMAG   =     F  perturbation theory with respect to B field
   DQ        =  0.001000  dq finite difference perturbation B field
   LLRAUG    =     F  two centre corrections for induced B field

 Static calculation
 charge density and potential will be updated during run
 non collinear spin polarized calculation
 Variant of blocked Davidson
 Davidson routine will perform the subspace rotation
 perform sub-space diagonalisation
    after iterative eigenvector-optimisation
 modified Broyden-mixing scheme, WC =      100.0
 initial mixing is a Kerker type mixing with AMIX =  0.4000 and BMIX =      1.0000
 Hartree-type preconditioning will be used
 using additional bands           55
 reciprocal scheme for non local part
 use partial core corrections
 calculate Harris-corrections to forces
   (improved forces if not selfconsistent)
 use gradient corrections
 use of overlap-Matrix (Vanderbilt PP)
 Gauss-broadening in eV      SIGMA  =   0.05

  energy-cutoff  :      300.00
  volume of cell :       57.90
      direct lattice vectors                 reciprocal lattice vectors
     4.342345876  0.000000000  0.000000000     0.230290269 -0.132958149 -0.094015609
     2.171172938  3.760581840 -0.000000000     0.000000000  0.265916298 -0.094015609
     2.171172938  1.253527280  3.545510561    -0.000000000  0.000000000  0.282046826

  length of vectors
     4.342345876  4.342345876  4.342345876     0.282046826  0.282046826  0.282046826

 old parameters found on file WAVECAR:
  energy-cutoff  :      300.00
  volume of cell :       57.90
      direct lattice vectors                 reciprocal lattice vectors
     4.342345876  0.000000000  0.000000000     0.230290269 -0.132958149 -0.094015609
     2.171172938  3.760581840 -0.000000000     0.000000000  0.265916298 -0.094015609
     2.171172938  1.253527280  3.545510561    -0.000000000  0.000000000  0.282046826

  length of vectors

 k-points in units of 2pi/SCALE and weight: Automatically generated mesh + R-points
   0.11514513  0.06647907  0.04700780       0.000
   0.10938788  0.06315512  0.04465741       0.000
   0.10363062  0.05983117  0.04230702       0.000
   0.09787336  0.05650721  0.03995663       0.000
   0.09211611  0.05318326  0.03760624       0.000
   0.08635885  0.04985931  0.03525585       0.000
   0.08060159  0.04653535  0.03290546       0.000
   0.07484434  0.04321140  0.03055507       0.000
   0.06908708  0.03988744  0.02820468       0.000
   0.06332982  0.03656349  0.02585429       0.000
   0.05757257  0.03323954  0.02350390       0.000
   0.05181531  0.02991558  0.02115351       0.000
   0.04605805  0.02659163  0.01880312       0.000
   0.04030080  0.02326768  0.01645273       0.000
   0.03454354  0.01994372  0.01410234       0.000
   0.02878628  0.01661977  0.01175195       0.000
   0.02302903  0.01329581  0.00940156       0.000
   0.01727177  0.00997186  0.00705117       0.000
   0.01151451  0.00664791  0.00470078       0.000
   0.00575726  0.00332395  0.00235039       0.000
   0.00000000  0.00000000  0.00000000       0.000
  -0.00000000  0.00664791  0.00470078       0.000
  -0.00000000  0.01329581  0.00940156       0.000
  -0.00000000  0.01994372  0.01410234       0.000
  -0.00000000  0.02659163  0.01880312       0.000
  -0.00000000  0.03323954  0.02350390       0.000
  -0.00000000  0.03988744  0.02820468       0.000
  -0.00000000  0.04653535  0.03290546       0.000
  -0.00000000  0.05318326  0.03760624       0.000
  -0.00000000  0.05983117  0.04230702       0.000
  -0.00000000  0.06647907  0.04700780       0.000
  -0.00000000  0.07312698  0.05170858       0.000
  -0.00000000  0.07977489  0.05640937       0.000
  -0.00000000  0.08642280  0.06111015       0.000
  -0.00000000  0.09307070  0.06581093       0.000
  -0.00000000  0.09971861  0.07051171       0.000
  -0.00000000  0.10636652  0.07521249       0.000
  -0.00000000  0.11301443  0.07991327       0.000
  -0.00000000  0.11966233  0.08461405       0.000
  -0.00000000  0.12631024  0.08931483       0.000
  -0.00000000  0.13295815  0.09401561       0.000
   0.00000000  0.00000000  0.00000000       0.005
   0.03838171 -0.02215969 -0.01566927       0.005
   0.07676342 -0.04431938 -0.03133854       0.005
   0.11514513 -0.06647907 -0.04700780       0.005
  -0.07676342  0.04431938  0.03133854       0.005
  -0.03838171  0.02215969  0.01566927       0.005
   0.00000000  0.04431938 -0.01566927       0.005
   0.03838171  0.02215969 -0.03133854       0.005
[...]
 k-point ** :  -0.3333-0.1667 0.1667  plane waves:    1352
 k-point ** :  -0.1667-0.1667 0.1667  plane waves:    1360
 k-point ** :   0.0000 0.0000 0.3333  plane waves:    1370
 k-point ** :   0.1667 0.0000 0.3333  plane waves:    1360
 k-point ** :   0.3333 0.0000 0.3333  plane waves:    1386
 k-point ** :   0.5000 0.0000 0.3333  plane waves:    1372
 k-point ** :  -0.3333 0.0000 0.3333  plane waves:    1360
 k-point ** :  -0.1667 0.0000 0.3333  plane waves:    1368
 k-point ** :   0.0000 0.1667 0.3333  plane waves:    1360
 k-point ** :   0.1667 0.1667 0.3333  plane waves:    1348
 k-point ** :   0.3333 0.1667 0.3333  plane waves:    1360
 k-point ** :   0.5000 0.1667 0.3333  plane waves:    1352
 k-point ** :  -0.3333 0.1667 0.3333  plane waves:    1384
 k-point ** :  -0.1667 0.1667 0.3333  plane waves:    1352
 k-point ** :   0.0000 0.3333 0.3333  plane waves:    1386
 k-point ** :   0.1667 0.3333 0.3333  plane waves:    1360
 k-point ** :   0.3333 0.3333 0.3333  plane waves:    1370
 k-point ** :   0.5000 0.3333 0.3333  plane waves:    1368
 k-point ** :  -0.3333 0.3333 0.3333  plane waves:    1360
 k-point ** :  -0.1667 0.3333 0.3333  plane waves:    1372
 k-point ** :   0.0000 0.5000 0.3333  plane waves:    1372
 k-point ** :   0.1667 0.5000 0.3333  plane waves:    1352
 k-point ** :   0.3333 0.5000 0.3333  plane waves:    1368
 k-point ** :   0.5000 0.5000 0.3333  plane waves:    1356
 k-point ** :  -0.3333 0.5000 0.3333  plane waves:    1384
 k-point ** :  -0.1667 0.5000 0.3333  plane waves:    1380
 k-point ** :   0.0000-0.3333 0.3333  plane waves:    1360
 k-point ** :   0.1667-0.3333 0.3333  plane waves:    1384
 k-point ** :   0.3333-0.3333 0.3333  plane waves:    1360
 k-point ** :   0.5000-0.3333 0.3333  plane waves:    1384
 k-point ** :  -0.3333-0.3333 0.3333  plane waves:    1360
 k-point ** :  -0.1667-0.3333 0.3333  plane waves:    1384
 k-point ** :   0.0000-0.1667 0.3333  plane waves:    1368
 k-point ** :   0.1667-0.1667 0.3333  plane waves:    1352
 k-point ** :   0.3333-0.1667 0.3333  plane waves:    1372
 k-point ** :   0.5000-0.1667 0.3333  plane waves:    1380
 k-point ** :  -0.3333-0.1667 0.3333  plane waves:    1384
 k-point ** :  -0.1667-0.1667 0.3333  plane waves:    1356
 k-point ** :   0.0000 0.0000 0.5000  plane waves:    1400
 k-point ** :   0.1667 0.0000 0.5000  plane waves:    1356
 k-point ** :   0.3333 0.0000 0.5000  plane waves:    1372
 k-point ** :   0.5000 0.0000 0.5000  plane waves:    1384
 k-point ** :  -0.3333 0.0000 0.5000  plane waves:    1372
 k-point ** :  -0.1667 0.0000 0.5000  plane waves:    1356
 k-point ** :   0.0000 0.1667 0.5000  plane waves:    1356
 k-point ** :   0.1667 0.1667 0.5000  plane waves:    1368
 k-point ** :   0.3333 0.1667 0.5000  plane waves:    1352
 k-point ** :   0.5000 0.1667 0.5000  plane waves:    1372
[...]
 k-point ** :   0.3333 0.5000-0.1667  plane waves:    1380
 k-point ** :   0.5000 0.5000-0.1667  plane waves:    1372
 k-point ** :  -0.3333 0.5000-0.1667  plane waves:    1352
 k-point ** :  -0.1667 0.5000-0.1667  plane waves:    1368
 k-point ** :   0.0000-0.3333-0.1667  plane waves:    1360
 k-point ** :   0.1667-0.3333-0.1667  plane waves:    1352
 k-point ** :   0.3333-0.3333-0.1667  plane waves:    1384
 k-point ** :   0.5000-0.3333-0.1667  plane waves:    1352
 k-point ** :  -0.3333-0.3333-0.1667  plane waves:    1360
 k-point ** :  -0.1667-0.3333-0.1667  plane waves:    1348
 k-point ** :   0.0000-0.1667-0.1667  plane waves:    1362
 k-point ** :   0.1667-0.1667-0.1667  plane waves:    1360
 k-point ** :   0.3333-0.1667-0.1667  plane waves:    1356
 k-point ** :   0.5000-0.1667-0.1667  plane waves:    1368
 k-point ** :  -0.3333-0.1667-0.1667  plane waves:    1348

 maximum and minimum number of plane-waves per node :       712      656

 maximum number of plane-waves:      1402
 maximum index in each direction:
   IXMAX=    6   IYMAX=    6   IZMAX=    6
   IXMIN=   -6   IYMIN=   -6   IZMIN=   -6

 parallel 3D FFT for wavefunctions:
    minimum data exchange during FFTs selected (reduces bandwidth)
 parallel 3D FFT for charge:
    minimum data exchange during FFTs selected (reduces bandwidth)

 Broyden mixing: mesh for mixing (old mesh)
   NGX = 13   NGY = 13   NGZ = 13
  (NGX  = 56   NGY  = 56   NGZ  = 56)
  gives a total of   2197 points

 charge density for first step will be calculated from the start-wavefunctions

 Maximum index for augmentation-charges        88213 (set IRDMAX)

 initial charge from wavefunction
 First call to EWALD:  gamma=   0.458
 Maximum number of real-space cells 3x 3x 3
 Maximum number of reciprocal cells 3x 3x 3

--------------------------------------- Iteration      1(   1)  ---------------------------------------

 eigenvalue-minimisations  : 39072
 total energy-change (2. order) :-0.1496886E+03  (-0.1555250E-07)
 number of electron      18.0000000 magnetization       0.0000001      0.0000005     -0.0000005
 augmentation part        2.7650700 magnetization       0.0000028     -0.0000007     -0.0000039

 Free energy of the ion-electron system (eV)
  alpha Z        PSCENC =        65.89697999
  Ewald energy   TEWEN  =     -1741.63824267
  -Hartree energ DENC   =      -671.48438811
  -exchange      EXHF   =         0.00000000
  -V(xc)+E(xc)   XCENC  =       -50.72309708
  PAW double counting   =      2405.36541728    -2481.62780902
  entropy T*S    EENTRO =        -0.00003450
  eigenvalues    EBANDS =      -315.38239024
  atomic energy  EATOM  =      2639.90492407
  Solvation  Ediel_sol  =         0.00000000
  free energy    TOTEN  =      -149.68864029 eV

  energy without entropy =     -149.68860579  energy(sigma->0) =     -149.68862304

[...]

 eigenvalue-minimisations  : 26160
 total energy-change (2. order) : 0.3474270E-09  (-0.2063782E-10)
 number of electron      18.0000000 magnetization       0.0000001      0.0000005     -0.0000005
 augmentation part        2.7650700 magnetization       0.0000028     -0.0000007     -0.0000039

[...]

 Broyden mixing:
  rms(total) = 0.33661E-04    rms(broyden)= 0.33650E-04
  rms(prec ) = 0.33651E-04
  weight for this iteration     100.00

[...]

 eigenvalue-minimisations  : 35520
 total energy-change (2. order) :-0.7448489E-07  (-0.5909715E-07)
 number of electron      18.0000000 magnetization      -0.0000004      0.0000003     -0.0000007
 augmentation part        2.7650699 magnetization       0.0000075     -0.0000054     -0.0000009

[...]

 eigenvalues of (default mixing * dielectric matrix)
  average eigenvalue GAMMA=   0.2947
  0.2947

[...]

 Broyden mixing:
  rms(total) = 0.21588E-04    rms(broyden)= 0.21586E-04
  rms(prec ) = 0.21586E-04
  weight for this iteration     100.00

 eigenvalues of (default mixing * dielectric matrix)
  average eigenvalue GAMMA=   0.2487
  0.2808  0.2808  0.1847

[...]

--------------------------------------- Iteration      1(   9)  ---------------------------------------

 eigenvalue-minimisations  : 34800
 total energy-change (2. order) : 0.5968559E-08  (-0.6403944E-09)
 number of electron      18.0000000 magnetization       0.0000001      0.0000001     -0.0000004
 augmentation part        2.7650699 magnetization       0.0000037     -0.0000024     -0.0000037

 Free energy of the ion-electron system (eV)
  alpha Z        PSCENC =        65.89697999
  Ewald energy   TEWEN  =     -1741.63824267
  -Hartree energ DENC   =      -671.48438445
  -exchange      EXHF   =         0.00000000
  -V(xc)+E(xc)   XCENC  =       -50.72309734
  PAW double counting   =      2405.36528582    -2481.62767635
  entropy T*S    EENTRO =        -0.00003450
  eigenvalues    EBANDS =      -315.38239483
  atomic energy  EATOM  =      2639.90492407
  Solvation  Ediel_sol  =         0.00000000
  free energy    TOTEN  =      -149.68864027 eV

  energy without entropy =     -149.68860577  energy(sigma->0) =     -149.68862302

 average (electrostatic) potential at core
  the test charge radii are     1.2024
  (the norm of the test charge is              1.0000)
       1-112.4023

 E-fermi :   3.6459     XC(G=0):  -8.6193     alpha+bet : -7.5793

 k-point     1 :       0.5000    0.5000    0.5000
  band No.  band energies     occupation
      1     -30.6939      1.00000
      2     -30.6939      1.00000
      3     -30.6814      1.00000
      4     -30.6814      1.00000
      5     -24.0229      1.00000
      6     -24.0229      1.00000
      7     -24.0186      1.00000
      8     -24.0186      1.00000
      9     -24.0169      1.00000
     10     -24.0169      1.00000
     11     -20.2216      1.00000
     12     -20.2215      1.00000
     13      -7.0517      1.00000
     14      -7.0516      1.00000
     15       0.3742      1.00000
     16       0.3743      1.00000
     17       2.9999      1.00000
     18       2.9999      1.00000
     19       6.2434      0.00000
     20       6.2434      0.00000
     21      10.3487      0.00000
     22      10.3488      0.00000
     23      10.7157      0.00000
     24      10.7157      0.00000
     25      10.7756      0.00000
     26      10.7756      0.00000
     27      12.3915      0.00000
     28      12.3915      0.00000
     29      15.0384      0.00000
     30      15.0384      0.00000
     31      15.1370      0.00000
     32      15.1370      0.00000
     33      16.2315      0.00000
     34      16.2316      0.00000
     35      17.1742      0.00000
     36      17.1742      0.00000
     37      17.3379      0.00000
     38      17.3379      0.00000
     39      18.9702      0.00000
     40      18.9702      0.00000
     41      19.5437      0.00000
     42      19.5438      0.00000
     43      19.5970      0.00000
     44      19.5970      0.00000
     45      21.3454      0.00000
     46      21.3455      0.00000
     47      23.8082      0.00000
     48      23.8083      0.00000
     49      24.5268      0.00000
     50      24.5268      0.00000
     51      25.9999      0.00000
     52      26.0000      0.00000
     53      26.1265      0.00000
     54      26.1265      0.00000
     55      26.1742      0.00000
     56      26.1742      0.00000
     57      27.6743      0.00000
     58      27.6743      0.00000
     59      28.1954      0.00000
     60      28.1954      0.00000
     61      29.4017      0.00000
     62      29.4017      0.00000
     63      30.4366      0.00000
     64      30.4367      0.00000

[...]

 k-point   256 :      -0.3333   -0.1667   -0.1667
  band No.  band energies     occupation
      1     -30.6674      1.00000
      2     -30.6673      1.00000
      3     -30.6566      1.00000
      4     -30.6566      1.00000
      5     -24.0083      1.00000
      6     -24.0083      1.00000
      7     -24.0044      1.00000
      8     -24.0043      1.00000
      9     -23.9988      1.00000
     10     -23.9988      1.00000
     11     -20.2754      1.00000
     12     -20.2754      1.00000
     13      -6.8674      1.00000
     14      -6.8674      1.00000
     15       1.1759      1.00000
     16       1.1759      1.00000
     17       2.8940      1.00000
     18       2.8940      1.00000
     19       6.6306      0.00000
     20       6.6306      0.00000
     21       9.5798      0.00000
     22       9.5798      0.00000
     23      10.3138      0.00000
     24      10.3139      0.00000
     25      11.5161      0.00000
     26      11.5161      0.00000
     27      11.8154      0.00000
     28      11.8154      0.00000
     29      13.6238      0.00000
     30      13.6238      0.00000
     31      14.2485      0.00000
     32      14.2485      0.00000
     33      15.4713      0.00000
     34      15.4714      0.00000
     35      16.1564      0.00000
     36      16.1564      0.00000
     37      18.1834      0.00000
     38      18.1834      0.00000
     39      18.5260      0.00000
     40      18.5260      0.00000
     41      20.4997      0.00000
     42      20.4997      0.00000
     43      20.5984      0.00000
     44      20.5984      0.00000
     45      20.8330      0.00000
     46      20.8331      0.00000
     47      21.4501      0.00000
     48      21.4501      0.00000
     49      24.3739      0.00000
     50      24.3739      0.00000
     51      25.6423      0.00000
     52      25.6423      0.00000
     53      26.3849      0.00000
     54      26.3849      0.00000
     55      27.6300      0.00000
     56      27.6301      0.00000
     57      27.9428      0.00000
     58      27.9428      0.00000
     59      29.1225      0.00000
     60      29.1225      0.00000
     61      30.3191      0.00000
     62      30.3191      0.00000
     63      30.7981      0.00000
     64      30.7982      0.00000

 soft charge-density along one line, spin component           1
         0         1         2         3         4         5         6         7         8         9
 total charge-density along one line

[...]

 soft charge-density along one line, spin component           4
         0         1         2         3         4         5         6         7         8         9
 total charge-density along one line

------------------------ aborting loop because EDIFF is reached ----------------------------------------

  FORCE on cell =-STRESS in cart. coord.  units (eV):
  Direction    XX          YY          ZZ          XY          YZ          ZX
  Alpha Z    65.89698    65.89698    65.89698
  Ewald    -580.54610  -580.54610  -580.54610     0.00000    -0.00000    -0.00000
  Hartree   223.82350   223.82967   223.83122    -0.00535    -0.00218    -0.00378
  E(xc)    -112.65787  -112.65856  -112.65873     0.00059     0.00024     0.00042
  Local    -169.93523  -169.91814  -169.91388    -0.01480    -0.00604    -0.01046
  n-local    96.39299    96.36784    96.36156     0.02178     0.00889     0.01540
  augment    71.02409    71.02969    71.03109    -0.00485    -0.00198    -0.00343
  Kinetic   400.22150   400.20115   400.19606     0.01763     0.00720     0.01246
  Fock        0.00000     0.00000     0.00000     0.00000     0.00000     0.00000
  Total      -5.78015    -5.79747    -5.80181     0.01500     0.00612     0.01061
  in kB    -159.95253  -160.43183  -160.55201     0.41514     0.16947     0.29357

 VOLUME and BASIS-vectors are now :
  energy-cutoff  :      300.00
  volume of cell :       57.90
      direct lattice vectors                 reciprocal lattice vectors
     4.342345876  0.000000000  0.000000000     0.230290269 -0.132958149 -0.094015609
     2.171172938  3.760581840 -0.000000000     0.000000000  0.265916298 -0.094015609
     2.171172938  1.253527280  3.545510561    -0.000000000  0.000000000  0.282046826

  length of vectors
     4.342345876  4.342345876  4.342345876     0.282046826  0.282046826  0.282046826

 FORCES acting on ions
    electron-ion (+dipol)            ewald-force                    non-local-force                 convergence-correction
   0.414E-07 0.555E-07 -.364E-06   0.498E-15 0.105E-14 0.672E-15   0.356E-07 0.148E-07 -.110E-06   -.115E-06 0.407E-08 0.458E-06
   0.564E-07 0.425E-07 -.384E-06   0.498E-15 0.105E-14 0.672E-15   0.356E-07 0.148E-07 -.110E-06   -.115E-06 0.407E-08 0.458E-06

 POSITION                                       TOTAL-FORCE (eV/Angst)
      0.00000      0.00000      0.00000        -0.000000      0.000000     -0.000000
    total drift:                               -0.000000      0.000000     -0.000000

  FREE ENERGIE OF THE ION-ELECTRON SYSTEM (eV)
  free  energy   TOTEN  =      -149.68864027 eV

  energy  without entropy=     -149.68860577  energy(sigma->0) =     -149.68862302

 writing wavefunctions

 Spin-Orbit-Coupling matrix elements

 Ion:    1  E_soc:    -32.5494939
 l=   1
     0.0000000    -5.0054161    -5.0049699
    -5.0054161     0.0000000    -5.0050590
    -5.0049699    -5.0050590     0.0000000
 l=   2
     0.0000000    -0.0839582     0.0000000    -0.0839589    -0.3358025
    -0.0839582     0.0000000    -0.2518472    -0.0839668    -0.0839583
     0.0000000    -0.2518472     0.0000000    -0.2518505     0.0000000
    -0.0839589    -0.0839668    -0.2518505     0.0000000    -0.0839596
    -0.3358025    -0.0839583     0.0000000    -0.0839596     0.0000000
 l=   3
     0.0000000     0.0000000     0.0000000     0.0000000     0.0000000     0.0000000     0.0000000
     0.0000000     0.0000000     0.0000000     0.0000000     0.0000000     0.0000000     0.0000000
     0.0000000     0.0000000     0.0000000     0.0000000     0.0000000     0.0000000     0.0000000
     0.0000000     0.0000000     0.0000000     0.0000000     0.0000000     0.0000000     0.0000000
     0.0000000     0.0000000     0.0000000     0.0000000     0.0000000     0.0000000     0.0000000
     0.0000000     0.0000000     0.0000000     0.0000000     0.0000000     0.0000000     0.0000000
     0.0000000     0.0000000     0.0000000     0.0000000     0.0000000     0.0000000     0.0000000