 vasp.5.4.4.18Apr17-6-g9f103f2a35 (build Nov 03 2018 10:20:46) complex

 executed on             LinuxIFC date 2018.12.04  09:35:58

 INCAR:
 POTCAR:    PAW_PBE Kr_GW 21Aug2013

 POTCAR:    PAW_PBE Kr_GW 21Aug2013
   VRHFIN =Kr: s2p6

   TITEL  = PAW_PBE Kr_GW 21Aug2013
   POMASS =   83.800; ZVAL   =    8.000    mass and valenz
   ENMAX  =  252.232; ENMIN  =  189.174 eV

  PAW_PBE Kr_GW 21Aug2013               :

 POSCAR: Kr_FCC
  positions in direct lattice
  velocities in cartesian coordinates
 exchange correlation table for  LEXCH =        8
   RHO(1)=    0.500       N(1)  =     2000
   RHO(2)=  100.500       N(2)  =     4000

 ion  position               nearest neighbor table
   1  0.000  0.000  0.000-

  LATTYP: Found a face centered cubic cell.
 ALAT       =     5.8199739024

  Lattice vectors:

 A1 = (   4.1153430126,   0.0000000000,   0.0000000000)
 A2 = (   2.0576715063,   3.5639915942,  -0.0000000000)
 A3 = (   2.0576715063,   1.1879971981,   3.3601634993)

Analysis of symmetry for initial positions (statically):
 Subroutine PRICEL returns:
 Original cell was already a primitive cell.

 Routine SETGRP: Setting up the symmetry group for a
 face centered cubic supercell.

 Subroutine GETGRP returns: Found 48 space group operations
 (whereof 48 operations were pure point group operations)
 out of a pool of 48 trial point group operations.

The static configuration has the point symmetry O_h .

Analysis of symmetry for dynamics (positions and initial velocities):
 Subroutine PRICEL returns:
 Original cell was already a primitive cell.

 Routine SETGRP: Setting up the symmetry group for a
 face centered cubic supercell.

 Subroutine GETGRP returns: Found 48 space group operations
 (whereof 48 operations were pure point group operations)
 out of a pool of 48 trial point group operations.

The dynamic configuration has the point symmetry O_h .

 Subroutine INISYM returns: Found 48 space group operations
 (whereof 48 operations are pure point group operations),
 and found     1 'primitive' translations

Automatic generation of k-mesh.
 generate k-points for:   10   10   10
Space group operators:
 irot       det(A)        alpha          n_x          n_y          n_z        tau_x        tau_y        tau_z
    1     1.000000     0.000001     1.000000     0.000000     0.000000     0.000000     0.000000     0.000000
    2    -1.000000     0.000001     1.000000     0.000000     0.000000     0.000000     0.000000     0.000000
    3     1.000000   120.000000    -0.816497    -0.471405    -0.333333     0.000000     0.000000     0.000000
    4    -1.000000   120.000000    -0.816497    -0.471405    -0.333333     0.000000     0.000000     0.000000
    5     1.000000   120.000000     0.816497     0.471405     0.333333     0.000000     0.000000     0.000000
    6    -1.000000   120.000000     0.816497     0.471405     0.333333     0.000000     0.000000     0.000000
    7     1.000000    90.000000    -0.707107    -0.408248     0.577350     0.000000     0.000000     0.000000
    8    -1.000000    90.000000    -0.707107    -0.408248     0.577350     0.000000     0.000000     0.000000
    9     1.000000   180.000000     1.000000     0.000000     0.000000     0.000000     0.000000     0.000000
   10    -1.000000   180.000000     1.000000     0.000000     0.000000     0.000000     0.000000     0.000000
   11     1.000000    90.000000     0.707107    -0.408248     0.577350     0.000000     0.000000     0.000000
   12    -1.000000    90.000000     0.707107    -0.408248     0.577350     0.000000     0.000000     0.000000
   13     1.000000   180.000000     0.707107     0.408248    -0.577350     0.000000     0.000000     0.000000
   14    -1.000000   180.000000     0.707107     0.408248    -0.577350     0.000000     0.000000     0.000000
   15     1.000000   120.000000     0.816497    -0.471405    -0.333333     0.000000     0.000000     0.000000
   16    -1.000000   120.000000     0.816497    -0.471405    -0.333333     0.000000     0.000000     0.000000
   17     1.000000   120.000000     0.000000    -0.942809     0.333333     0.000000     0.000000     0.000000
   18    -1.000000   120.000000     0.000000    -0.942809     0.333333     0.000000     0.000000     0.000000
   19     1.000000    90.000000     0.707107     0.408248    -0.577350     0.000000     0.000000     0.000000
   20    -1.000000    90.000000     0.707107     0.408248    -0.577350     0.000000     0.000000     0.000000
   21     1.000000    90.000000    -0.000000    -0.816497    -0.577350     0.000000     0.000000     0.000000
   22    -1.000000    90.000000    -0.000000    -0.816497    -0.577350     0.000000     0.000000     0.000000
   23     1.000000   180.000000     0.500000     0.866025     0.000000     0.000000     0.000000     0.000000
   24    -1.000000   180.000000     0.500000     0.866025     0.000000     0.000000     0.000000     0.000000
   25     1.000000   120.000000     0.000000     0.942809    -0.333333     0.000000     0.000000     0.000000
   26    -1.000000   120.000000     0.000000     0.942809    -0.333333     0.000000     0.000000     0.000000
   27     1.000000   120.000000    -0.000000     0.000000    -1.000000     0.000000     0.000000     0.000000
   28    -1.000000   120.000000    -0.000000     0.000000    -1.000000     0.000000     0.000000     0.000000
   29     1.000000   180.000000    -0.000000     0.816497     0.577350     0.000000     0.000000     0.000000
   30    -1.000000   180.000000    -0.000000     0.816497     0.577350     0.000000     0.000000     0.000000
   31     1.000000    90.000000    -0.707107     0.408248    -0.577350     0.000000     0.000000     0.000000
   32    -1.000000    90.000000    -0.707107     0.408248    -0.577350     0.000000     0.000000     0.000000
   33     1.000000   180.000000     0.500000     0.288675     0.816497     0.000000     0.000000     0.000000
   34    -1.000000   180.000000     0.500000     0.288675     0.816497     0.000000     0.000000     0.000000
   35     1.000000    90.000000    -0.000000     0.816497     0.577350     0.000000     0.000000     0.000000
   36    -1.000000    90.000000    -0.000000     0.816497     0.577350     0.000000     0.000000     0.000000
   37     1.000000   120.000000    -0.816497     0.471405     0.333333     0.000000     0.000000     0.000000
   38    -1.000000   120.000000    -0.816497     0.471405     0.333333     0.000000     0.000000     0.000000
   39     1.000000   180.000000     0.707107    -0.408248     0.577350     0.000000     0.000000     0.000000
   40    -1.000000   180.000000     0.707107    -0.408248     0.577350     0.000000     0.000000     0.000000
   41     1.000000   120.000000    -0.000000    -0.000000     1.000000     0.000000     0.000000     0.000000
   42    -1.000000   120.000000    -0.000000    -0.000000     1.000000     0.000000     0.000000     0.000000
   43     1.000000   180.000000     0.000000     0.577350    -0.816497     0.000000     0.000000     0.000000
   44    -1.000000   180.000000     0.000000     0.577350    -0.816497     0.000000     0.000000     0.000000
   45     1.000000   180.000000    -0.500000     0.866025     0.000000     0.000000     0.000000     0.000000
   46    -1.000000   180.000000    -0.500000     0.866025     0.000000     0.000000     0.000000     0.000000
   47     1.000000   180.000000    -0.500000     0.288675     0.816497     0.000000     0.000000     0.000000
   48    -1.000000   180.000000    -0.500000     0.288675     0.816497     0.000000     0.000000     0.000000

 Subroutine IBZKPT returns following result:

 Found     47 irreducible k-points:

 Following reciprocal coordinates:
            Coordinates               Weight
  0.000000  0.000000  0.000000      1.000000
  0.100000 -0.000000 -0.000000      8.000000
  0.200000  0.000000 -0.000000      8.000000
  0.300000 -0.000000 -0.000000      8.000000
  0.400000  0.000000 -0.000000      8.000000
  0.500000 -0.000000 -0.000000      4.000000
  0.100000  0.100000  0.000000      6.000000
  0.200000  0.100000  0.000000     24.000000
  0.300000  0.100000  0.000000     24.000000
  0.400000  0.100000  0.000000     24.000000
  0.500000  0.100000  0.000000     24.000000
 -0.400000  0.100000  0.000000     24.000000
 -0.300000  0.100000  0.000000     24.000000
 -0.200000  0.100000  0.000000     24.000000
 -0.100000  0.100000  0.000000     12.000000
  0.200000  0.200000  0.000000      6.000000
  0.300000  0.200000  0.000000     24.000000
  0.400000  0.200000  0.000000     24.000000
  0.500000  0.200000  0.000000     24.000000
 -0.400000  0.200000  0.000000     24.000000
 -0.300000  0.200000  0.000000     24.000000
 -0.200000  0.200000  0.000000     12.000000
  0.300000  0.300000  0.000000      6.000000
  0.400000  0.300000  0.000000     24.000000
  0.500000  0.300000  0.000000     24.000000
 -0.400000  0.300000  0.000000     24.000000
 -0.300000  0.300000  0.000000     12.000000
  0.400000  0.400000  0.000000      6.000000
  0.500000  0.400000  0.000000     24.000000
 -0.400000  0.400000  0.000000     12.000000
  0.500000  0.500000  0.000000      3.000000
  0.300000  0.200000  0.100000     24.000000
  0.400000  0.200000  0.100000     48.000000
  0.500000  0.200000  0.100000     48.000000
 -0.400000  0.200000  0.100000     24.000000
  0.400000  0.300000  0.100000     24.000000
  0.500000  0.300000  0.100000     48.000000
 -0.400000  0.300000  0.100000     48.000000
 -0.300000  0.300000  0.100000     48.000000
 -0.200000  0.300000  0.100000     24.000000
  0.500000  0.400000  0.100000     24.000000
 -0.400000  0.400000  0.100000     48.000000
 -0.300000  0.400000  0.100000     24.000000
 -0.400000  0.500000  0.100000     12.000000
 -0.400000  0.400000  0.200000     24.000000
 -0.300000  0.400000  0.200000     24.000000
 -0.300000  0.500000  0.200000     12.000000

 Following cartesian coordinates:
            Coordinates               Weight
  0.000000  0.000000  0.000000      1.000000
  0.024299 -0.014029 -0.009920      8.000000
  0.048599 -0.028058 -0.019840      8.000000
  0.072898 -0.042088 -0.029760      8.000000
  0.097197 -0.056117 -0.039681      8.000000
  0.121497 -0.070146 -0.049601      4.000000
  0.024299  0.014029 -0.019840      6.000000
  0.048599 -0.000000 -0.029760     24.000000
  0.072898 -0.014029 -0.039681     24.000000
  0.097197 -0.028058 -0.049601     24.000000
  0.121497 -0.042088 -0.059521     24.000000
 -0.097197  0.084175  0.029760     24.000000
 -0.072898  0.070146  0.019840     24.000000
 -0.048599  0.056117  0.009920     24.000000
 -0.024299  0.042088  0.000000     12.000000
  0.048599  0.028058 -0.039681      6.000000
  0.072898  0.014029 -0.049601     24.000000
  0.097197  0.000000 -0.059521     24.000000
  0.121497 -0.014029 -0.069441     24.000000
 -0.097197  0.112234  0.019840     24.000000
 -0.072898  0.098204  0.009920     24.000000
 -0.048599  0.084175  0.000000     12.000000
  0.072898  0.042088 -0.059521      6.000000
  0.097197  0.028058 -0.069441     24.000000
  0.121497  0.014029 -0.079361     24.000000
 -0.097197  0.140292  0.009920     24.000000
 -0.072898  0.126263  0.000000     12.000000
  0.097197  0.056117 -0.079361      6.000000
  0.121497  0.042088 -0.089281     24.000000
[...]
 Hartree-type preconditioning will be used
 using additional bands            4
 reciprocal scheme for non local part
 use partial core corrections
 calculate Harris-corrections to forces
   (improved forces if not selfconsistent)
 use gradient corrections
 use of overlap-Matrix (Vanderbilt PP)
 Methfessel and Paxton  Order N= 1 SIGMA  =   0.10

  energy-cutoff  :      600.00
  volume of cell :       49.28
      direct lattice vectors                 reciprocal lattice vectors
     4.115343013  0.000000000  0.000000000     0.242993111 -0.140292138 -0.099201522
     2.057671506  3.563991594 -0.000000000     0.000000000  0.280584276 -0.099201522
     2.057671506  1.187997198  3.360163499    -0.000000000  0.000000000  0.297604566

  length of vectors
     4.115343013  4.115343013  4.115343013     0.297604566  0.297604566  0.297604566

 k-points in units of 2pi/SCALE and weight: read from INCAR
   0.00000000  0.00000000  0.00000000       0.001
   0.02429931 -0.01402921 -0.00992015       0.008
   0.04859862 -0.02805843 -0.01984030       0.008
   0.07289793 -0.04208764 -0.02976046       0.008
   0.09719724 -0.05611686 -0.03968061       0.008
   0.12149656 -0.07014607 -0.04960076       0.004
   0.02429931  0.01402921 -0.01984030       0.006
   0.04859862 -0.00000000 -0.02976046       0.024
   0.07289793 -0.01402921 -0.03968061       0.024
   0.09719724 -0.02805843 -0.04960076       0.024
   0.12149656 -0.04208764 -0.05952091       0.024
  -0.09719724  0.08417528  0.02976046       0.024
  -0.07289793  0.07014607  0.01984030       0.024
  -0.04859862  0.05611686  0.00992015       0.024
  -0.02429931  0.04208764  0.00000000       0.012
   0.04859862  0.02805843 -0.03968061       0.006
   0.07289793  0.01402921 -0.04960076       0.024
   0.09719724  0.00000000 -0.05952091       0.024
   0.12149656 -0.01402921 -0.06944107       0.024
  -0.09719724  0.11223371  0.01984030       0.024
  -0.07289793  0.09820450  0.00992015       0.024
  -0.04859862  0.08417528  0.00000000       0.012
   0.07289793  0.04208764 -0.05952091       0.006
   0.09719724  0.02805843 -0.06944107       0.024
   0.12149656  0.01402921 -0.07936122       0.024
  -0.09719724  0.14029214  0.00992015       0.024
  -0.07289793  0.12626292  0.00000000       0.012
   0.09719724  0.05611686 -0.07936122       0.006
   0.12149656  0.04208764 -0.08928137       0.024
  -0.09719724  0.16835057  0.00000000       0.012
   0.12149656  0.07014607 -0.09920152       0.003
   0.07289793  0.01402921 -0.01984030       0.024
   0.09719724  0.00000000 -0.02976046       0.048
   0.12149656 -0.01402921 -0.03968061       0.048
  -0.09719724  0.11223371  0.04960076       0.024
   0.09719724  0.02805843 -0.03968061       0.024
   0.12149656  0.01402921 -0.04960076       0.048
  -0.09719724  0.14029214  0.03968061       0.048
  -0.07289793  0.12626292  0.02976046       0.048
  -0.04859862  0.11223371  0.01984030       0.024
   0.12149656  0.04208764 -0.05952091       0.024
  -0.09719724  0.16835057  0.02976046       0.048
  -0.07289793  0.15432135  0.01984030       0.024
  -0.09719724  0.19640899  0.01984030       0.012
  -0.09719724  0.16835057  0.05952091       0.024
  -0.07289793  0.15432135  0.04960076       0.024
  -0.07289793  0.18237978  0.03968061       0.012

 k-points in reciprocal lattice and weights: read from INCAR
   0.00000000  0.00000000  0.00000000       0.001
   0.10000000 -0.00000000 -0.00000000       0.008
   0.20000000  0.00000000 -0.00000000       0.008
   0.30000000 -0.00000000 -0.00000000       0.008
   0.40000000  0.00000000 -0.00000000       0.008
   0.50000000 -0.00000000 -0.00000000       0.004
   0.10000000  0.10000000  0.00000000       0.006
   0.20000000  0.10000000  0.00000000       0.024
   0.30000000  0.10000000  0.00000000       0.024
   0.40000000  0.10000000  0.00000000       0.024
   0.50000000  0.10000000  0.00000000       0.024
  -0.40000000  0.10000000  0.00000000       0.024
  -0.30000000  0.10000000  0.00000000       0.024
  -0.20000000  0.10000000  0.00000000       0.024
  -0.10000000  0.10000000  0.00000000       0.012
   0.20000000  0.20000000  0.00000000       0.006
   0.30000000  0.20000000  0.00000000       0.024
   0.40000000  0.20000000  0.00000000       0.024
   0.50000000  0.20000000  0.00000000       0.024
  -0.40000000  0.20000000  0.00000000       0.024
  -0.30000000  0.20000000  0.00000000       0.024
  -0.20000000  0.20000000  0.00000000       0.012
   0.30000000  0.30000000  0.00000000       0.006
   0.40000000  0.30000000  0.00000000       0.024
   0.50000000  0.30000000  0.00000000       0.024
  -0.40000000  0.30000000  0.00000000       0.024
  -0.30000000  0.30000000  0.00000000       0.012
   0.40000000  0.40000000  0.00000000       0.006
   0.50000000  0.40000000  0.00000000       0.024
  -0.40000000  0.40000000  0.00000000       0.012
   0.50000000  0.50000000  0.00000000       0.003
   0.30000000  0.20000000  0.10000000       0.024
   0.40000000  0.20000000  0.10000000       0.048
   0.50000000  0.20000000  0.10000000       0.048
  -0.40000000  0.20000000  0.10000000       0.024
   0.40000000  0.30000000  0.10000000       0.024
   0.50000000  0.30000000  0.10000000       0.048
  -0.40000000  0.30000000  0.10000000       0.048
  -0.30000000  0.30000000  0.10000000       0.048
  -0.20000000  0.30000000  0.10000000       0.024
   0.50000000  0.40000000  0.10000000       0.024
  -0.40000000  0.40000000  0.10000000       0.048
  -0.30000000  0.40000000  0.10000000       0.024
  -0.40000000  0.50000000  0.10000000       0.012
  -0.40000000  0.40000000  0.20000000       0.024
  -0.30000000  0.40000000  0.20000000       0.024
  -0.30000000  0.50000000  0.20000000       0.012

 position of ions in fractional coordinates (direct lattice)
   0.00000000  0.00000000  0.00000000

 position of ions in cartesian coordinates  (Angst):
   0.00000000  0.00000000  0.00000000

 k-point  1 :   0.0000 0.0000 0.0000  plane waves:    1639
 k-point  2 :   0.1000-0.0000-0.0000  plane waves:    1648
 k-point  3 :   0.2000 0.0000-0.0000  plane waves:    1654
 k-point  4 :   0.3000-0.0000-0.0000  plane waves:    1637
 k-point  5 :   0.4000 0.0000-0.0000  plane waves:    1646
 k-point  6 :   0.5000-0.0000-0.0000  plane waves:    1676
 k-point  7 :   0.1000 0.1000 0.0000  plane waves:    1643
 k-point  8 :   0.2000 0.1000 0.0000  plane waves:    1647
 k-point  9 :   0.3000 0.1000 0.0000  plane waves:    1636
 k-point 10 :   0.4000 0.1000 0.0000  plane waves:    1639
 k-point 11 :   0.5000 0.1000 0.0000  plane waves:    1653
 k-point 12 :  -0.4000 0.1000 0.0000  plane waves:    1648
 k-point 13 :  -0.3000 0.1000 0.0000  plane waves:    1644
 k-point 14 :  -0.2000 0.1000 0.0000  plane waves:    1645
 k-point 15 :  -0.1000 0.1000 0.0000  plane waves:    1649
 k-point 16 :   0.2000 0.2000 0.0000  plane waves:    1632
 k-point 17 :   0.3000 0.2000 0.0000  plane waves:    1647
 k-point 18 :   0.4000 0.2000 0.0000  plane waves:    1644
 k-point 19 :   0.5000 0.2000 0.0000  plane waves:    1645
 k-point 20 :  -0.4000 0.2000 0.0000  plane waves:    1631
 k-point 21 :  -0.3000 0.2000 0.0000  plane waves:    1645
 k-point 22 :  -0.2000 0.2000 0.0000  plane waves:    1652
 k-point 23 :   0.3000 0.3000 0.0000  plane waves:    1652
 k-point 24 :   0.4000 0.3000 0.0000  plane waves:    1649
 k-point 25 :   0.5000 0.3000 0.0000  plane waves:    1645
 k-point 26 :  -0.4000 0.3000 0.0000  plane waves:    1652
 k-point 27 :  -0.3000 0.3000 0.0000  plane waves:    1638
 k-point 28 :   0.4000 0.4000 0.0000  plane waves:    1652
 k-point 29 :   0.5000 0.4000 0.0000  plane waves:    1646
 k-point 30 :  -0.4000 0.4000 0.0000  plane waves:    1650
 k-point 31 :   0.5000 0.5000 0.0000  plane waves:    1660
 k-point 32 :   0.3000 0.2000 0.1000  plane waves:    1648
 k-point 33 :   0.4000 0.2000 0.1000  plane waves:    1636
 k-point 34 :   0.5000 0.2000 0.1000  plane waves:    1643
 k-point 35 :  -0.4000 0.2000 0.1000  plane waves:    1642
 k-point 36 :   0.4000 0.3000 0.1000  plane waves:    1651
 k-point 37 :   0.5000 0.3000 0.1000  plane waves:    1650
 k-point 38 :  -0.4000 0.3000 0.1000  plane waves:    1643
 k-point 39 :  -0.3000 0.3000 0.1000  plane waves:    1641
 k-point 40 :  -0.2000 0.3000 0.1000  plane waves:    1640
 k-point 41 :   0.5000 0.4000 0.1000  plane waves:    1658
 k-point 42 :  -0.4000 0.4000 0.1000  plane waves:    1647
 k-point 43 :  -0.3000 0.4000 0.1000  plane waves:    1649
 k-point 44 :  -0.4000 0.5000 0.1000  plane waves:    1644
 k-point 45 :  -0.4000 0.4000 0.2000  plane waves:    1634
 k-point 46 :  -0.3000 0.4000 0.2000  plane waves:    1642
 k-point 47 :  -0.3000 0.5000 0.2000  plane waves:    1640

 maximum and minimum number of plane-waves per node :       433      391

 maximum number of plane-waves:      1676
 maximum index in each direction:
   IXMAX=    8   IYMAX=    8   IZMAX=    8
   IXMIN=   -8   IYMIN=   -8   IZMIN=   -8

 parallel 3D FFT for wavefunctions:
    minimum data exchange during FFTs selected (reduces bandwidth)
 parallel 3D FFT for charge:
    minimum data exchange during FFTs selected (reduces bandwidth)

 Broyden mixing: mesh for mixing (old mesh)
   NGX = 17   NGY = 17   NGZ = 17
  (NGX  = 72   NGY  = 72   NGZ  = 72)
  gives a total of   4913 points

 initial charge density was supplied:
 charge density of overlapping atoms calculated
 number of electron       8.0000000 magnetization
 keeping initial charge density in first step

 Maximum index for augmentation-charges        28935 (set IRDMAX)

 First call to EWALD:  gamma=   0.483
 Maximum number of real-space cells 3x 3x 3
 Maximum number of reciprocal cells 3x 3x 3

--------------------------------------- Iteration      1(   1)  ---------------------------------------

 eigenvalue-minimisations  :   752
 total energy-change (2. order) : 0.4068623E+02  (-0.3568680E+03)
 number of electron       8.0000000 magnetization
 augmentation part        8.0000000 magnetization

 Free energy of the ion-electron system (eV)
  alpha Z        PSCENC =         8.51686385
  Ewald energy   TEWEN  =      -363.00389881
  -Hartree energ DENC   =      -106.29834624
  -exchange      EXHF   =         0.00000000
  -V(xc)+E(xc)   XCENC  =        14.62837964
  PAW double counting   =       410.04512098     -405.18260860
  entropy T*S    EENTRO =        -0.00033829
  eigenvalues    EBANDS =       -24.75105672
  atomic energy  EATOM  =       506.73211122
  Solvation  Ediel_sol  =         0.00000000
  free energy    TOTEN  =        40.68622703 eV

  energy without entropy =       40.68656532  energy(sigma->0) =       40.68633979

[...]

 eigenvalue-minimisations  :  1008
 total energy-change (2. order) :-0.3902703E+02  (-0.3748191E+02)
 number of electron       8.0000000 magnetization
 augmentation part        8.0000000 magnetization

[...]

 Broyden mixing:
  rms(total) = 0.40780E-02    rms(broyden)= 0.36599E-02
  rms(prec ) = 0.82089E-02
  weight for this iteration     100.00
  WARNING: grid for Broyden might be to small

[...]

 Broyden mixing:
  rms(total) = 0.20309E-02    rms(broyden)= 0.19986E-02
  rms(prec ) = 0.38493E-02
  weight for this iteration     100.00

 eigenvalues of (default mixing * dielectric matrix)
  average eigenvalue GAMMA=   2.0313
  2.0313

[...]

 Broyden mixing:
  rms(total) = 0.25018E-05    rms(broyden)= 0.24014E-05
  rms(prec ) = 0.64026E-05
  weight for this iteration     100.00

 eigenvalues of (default mixing * dielectric matrix)
  average eigenvalue GAMMA=   1.9246
  3.0322  2.5256  0.9716  1.6879  1.4054

[...]

--------------------------------------- Iteration      1(  11)  ---------------------------------------

 eigenvalue-minimisations  :   362
 total energy-change (2. order) :-0.2199999E-07  (-0.2394277E-09)
 number of electron       8.0000000 magnetization
 augmentation part       -0.8525344 magnetization

 Free energy of the ion-electron system (eV)
  alpha Z        PSCENC =         8.51686385
  Ewald energy   TEWEN  =      -363.00389881
  -Hartree energ DENC   =      -106.39017777
  -exchange      EXHF   =         0.00000000
  -V(xc)+E(xc)   XCENC  =        14.63047224
  PAW double counting   =       410.34808087     -405.48803684
  entropy T*S    EENTRO =         0.00369583
  eigenvalues    EBANDS =       -65.37505082
  atomic energy  EATOM  =       506.73211122
  Solvation  Ediel_sol  =         0.00000000
  free energy    TOTEN  =        -0.02594023 eV

  energy without entropy =       -0.02963606  energy(sigma->0) =       -0.02717218

 average (electrostatic) potential at core
  the test charge radii are     0.9700
  (the norm of the test charge is              1.0000)
       1 -98.8784

 E-fermi :  -4.1971     XC(G=0):  -6.3959     alpha+bet : -4.4977

 k-point     1 :       0.0000    0.0000    0.0000
  band No.  band energies     occupation
      1     -18.6509      2.00000
      2      -4.2140      1.28222
      3      -4.2140      1.28222
      4      -4.2140      1.28222
      5       3.0239      0.00000
      6       9.3652      0.00000
      7       9.3652      0.00000
      8       9.3652      0.00000

[...]

 k-point    47 :      -0.3000    0.5000    0.2000
  band No.  band energies     occupation
      1     -18.4705      2.00000
      2      -5.1026      2.00000
      3      -4.8866      2.00000
      4      -4.6621      2.00000
      5       6.2249      0.00000
      6       7.4146      0.00000
      7       8.2273      0.00000
      8       9.6156      0.00000

 soft charge-density along one line, spin component           1
         0         1         2         3         4         5         6         7         8         9
 total charge-density along one line

------------------------ aborting loop because EDIFF is reached ----------------------------------------

         DFTD3 V3.0 Rev 1
 IVDW         = 12
 DF pbe
 parameters
 VDW_S6       =    1.0000
 VDW_S8       =    0.7875
 VDW_A1       =    0.4289
 VDW_A2       =    4.4407
 k1-k3        =   16.0000    1.3333   -4.0000
 VDW_RADIUS   =   50.2022 A
 VDW_CNRADIUS =   21.1671 A
 Edisp (eV)   -0.11168

 E6    (eV) :    -0.0696
 E8    (eV) :    -0.0420
 % E8        : 37.65

  FORCE on cell =-STRESS in cart. coord.  units (eV):
  Direction    XX          YY          ZZ          XY          YZ          ZX
  Alpha Z     8.51686     8.51686     8.51686
  Ewald    -121.00130  -121.00130  -121.00130     0.00000    -0.00000     0.00000
  Hartree    35.46337    35.46337    35.46337     0.00000    -0.00000     0.00000
  E(xc)     -31.51052   -31.51052   -31.51052     0.00000     0.00000     0.00000
  Local     -98.20820   -98.20820   -98.20820    -0.00000    -0.00000    -0.00000
  n-local   105.72266   106.76308   107.30574     0.37997    -0.15332     0.99879
  augment   -17.22760   -17.22760   -17.22760     0.00000     0.00000     0.00000
  Kinetic   115.52501   117.90635   119.14791     0.92930    -0.24129     2.28780
  Fock        0.00000     0.00000     0.00000     0.00000     0.00000     0.00000
  vdW        -0.15473    -0.15473    -0.15473     0.00000    -0.00000    -0.00000
  Total       0.00146     0.00146     0.00146     0.00000     0.00000    -0.00000
  in kB       0.04752     0.04752     0.04752     0.00000     0.00000    -0.00000

 VOLUME and BASIS-vectors are now :
  energy-cutoff  :      600.00
  volume of cell :       49.28
      direct lattice vectors                 reciprocal lattice vectors
     4.115343013  0.000000000  0.000000000     0.242993111 -0.140292138 -0.099201522
     2.057671506  3.563991594 -0.000000000     0.000000000  0.280584276 -0.099201522
     2.057671506  1.187997198  3.360163499    -0.000000000  0.000000000  0.297604566

  length of vectors
     4.115343013  4.115343013  4.115343013     0.297604566  0.297604566  0.297604566

 FORCES acting on ions
    electron-ion (+dipol)            ewald-force                    non-local-force                 convergence-correction
   -.399E-14 -.816E-14 0.971E-15   0.244E-15 -.104E-15 0.328E-15   -.827E-23 0.000E+00 0.000E+00   -.157E-13 0.251E-14 -.766E-14
   -.399E-14 -.816E-14 0.971E-15   0.244E-15 -.104E-15 0.328E-15   -.827E-23 0.000E+00 0.000E+00   -.157E-13 0.251E-14 -.766E-14

 POSITION                                       TOTAL-FORCE (eV/Angst)
      0.00000      0.00000      0.00000         0.000000     -0.000000      0.000000
    total drift:                               -0.000000     -0.000000     -0.000000

  FREE ENERGIE OF THE ION-ELECTRON SYSTEM (eV)
  free  energy   TOTEN  =        -0.13761992 eV

  energy  without entropy=       -0.14131574  energy(sigma->0) =       -0.13885186

 Quasi-Newton relaxation of ions (Broydens 2nd method)
  g(Force)  = 0.000E+00   g(Stress)= 0.618E-07

 Reset! Starting new Quasi-Newton update for ions

 reached required accuracy - stopping structural energy minimisation