 vasp.5.4.4.18Apr17-6-g9f103f2a35 (build Nov 03 2018 10:20:46) complex

 executed on             LinuxIFC date 2018.12.21  07:52:09

 INCAR:
 POTCAR:    PAW_PBE Ar_GW 21Aug2013

 POTCAR:    PAW_PBE Ar_GW 21Aug2013
   VRHFIN =Ar: s2p6

   TITEL  = PAW_PBE Ar_GW 21Aug2013
   POMASS =   39.949; ZVAL   =    8.000    mass and valenz
   ENMAX  =  290.599; ENMIN  =  217.949 eV

  PAW_PBE Ar_GW 21Aug2013               :

 POSCAR: Ar_FCC
  positions in direct lattice
  velocities in cartesian coordinates

 METAGGA = SCAN     LMAXTAU =  0    LMIXTAU =  F

 ion  position               nearest neighbor table
   1  0.000  0.000  0.000-

IMPORTANT INFORMATION: All symmetrisations will be switched off!
NOSYMM: (Re-)initialisation of all symmetry stuff for point group C_1.

 KPOINTS: k-points

Automatic generation of k-mesh.
Space group operators:
 irot       det(A)        alpha          n_x          n_y          n_z        tau_x        tau_y        tau_z
    1     1.000000     0.000000     1.000000     0.000000     0.000000     0.000000     0.000000     0.000000

 Subroutine IBZKPT returns following result:

 Found    216 irreducible k-points:

 Following reciprocal coordinates:
            Coordinates               Weight
  0.000000  0.000000  0.000000      1.000000
  0.166667  0.000000  0.000000      1.000000
  0.333333  0.000000  0.000000      1.000000
  0.500000  0.000000  0.000000      1.000000
 -0.333333 -0.000000 -0.000000      1.000000
 -0.166667 -0.000000 -0.000000      1.000000
  0.000000  0.166667  0.000000      1.000000
  0.166667  0.166667  0.000000      1.000000
  0.333333  0.166667  0.000000      1.000000
  0.500000  0.166667  0.000000      1.000000
 -0.333333  0.166667 -0.000000      1.000000
 -0.166667  0.166667 -0.000000      1.000000
  0.000000  0.333333  0.000000      1.000000
  0.166667  0.333333  0.000000      1.000000
  0.333333  0.333333  0.000000      1.000000
  0.500000  0.333333  0.000000      1.000000
 -0.333333  0.333333 -0.000000      1.000000
 -0.166667  0.333333  0.000000      1.000000
  0.000000  0.500000  0.000000      1.000000
  0.166667  0.500000  0.000000      1.000000
  0.333333  0.500000  0.000000      1.000000
  0.500000  0.500000  0.000000      1.000000
 -0.333333  0.500000  0.000000      1.000000
 -0.166667  0.500000  0.000000      1.000000
  0.000000 -0.333333 -0.000000      1.000000
  0.166667 -0.333333 -0.000000      1.000000
  0.333333 -0.333333  0.000000      1.000000
  0.500000 -0.333333  0.000000      1.000000
 -0.333333 -0.333333  0.000000      1.000000
 -0.166667 -0.333333 -0.000000      1.000000
  0.000000 -0.166667 -0.000000      1.000000
  0.166667 -0.166667  0.000000      1.000000
  0.333333 -0.166667  0.000000      1.000000
  0.500000 -0.166667  0.000000      1.000000
 -0.333333 -0.166667 -0.000000      1.000000
 -0.166667 -0.166667  0.000000      1.000000
  0.000000  0.000000  0.166667      1.000000
  0.166667  0.000000  0.166667      1.000000
  0.333333  0.000000  0.166667      1.000000
  0.500000  0.000000  0.166667      1.000000
 -0.333333 -0.000000  0.166667      1.000000
 -0.166667 -0.000000  0.166667      1.000000
  0.000000  0.166667  0.166667      1.000000
  0.166667  0.166667  0.166667      1.000000
  0.333333  0.166667  0.166667      1.000000
  0.500000  0.166667  0.166667      1.000000
 -0.333333  0.166667  0.166667      1.000000
 -0.166667  0.166667  0.166667      1.000000
  0.000000  0.333333  0.166667      1.000000
  0.166667  0.333333  0.166667      1.000000
  0.333333  0.333333  0.166667      1.000000
  0.500000  0.333333  0.166667      1.000000
 -0.333333  0.333333  0.166667      1.000000
 -0.166667  0.333333  0.166667      1.000000
 -0.000000  0.500000  0.166667      1.000000
  0.166667  0.500000  0.166667      1.000000
  0.333333  0.500000  0.166667      1.000000
  0.500000  0.500000  0.166667      1.000000
 -0.333333  0.500000  0.166667      1.000000
 -0.166667  0.500000  0.166667      1.000000
[...]
  0.500000  0.500000 -0.166667      1.000000
 -0.333333  0.500000 -0.166667      1.000000
 -0.166667  0.500000 -0.166667      1.000000
  0.000000 -0.333333 -0.166667      1.000000
  0.166667 -0.333333 -0.166667      1.000000
  0.333333 -0.333333 -0.166667      1.000000
  0.500000 -0.333333 -0.166667      1.000000
 -0.333333 -0.333333 -0.166667      1.000000
 -0.166667 -0.333333 -0.166667      1.000000
  0.000000 -0.166667 -0.166667      1.000000
  0.166667 -0.166667 -0.166667      1.000000
  0.333333 -0.166667 -0.166667      1.000000
  0.500000 -0.166667 -0.166667      1.000000
 -0.333333 -0.166667 -0.166667      1.000000
 -0.166667 -0.166667 -0.166667      1.000000

 Following cartesian coordinates:
            Coordinates               Weight
  0.000000  0.000000  0.000000      1.000000
  0.046300 -0.026731 -0.018902      1.000000
  0.092600 -0.053463 -0.037804      1.000000
  0.138901 -0.080194 -0.056706      1.000000
 -0.092600  0.053463  0.037804      1.000000
 -0.046300  0.026731  0.018902      1.000000
  0.000000  0.053463 -0.018902      1.000000
  0.046300  0.026731 -0.037804      1.000000
  0.092600  0.000000 -0.056706      1.000000
  0.138901 -0.026731 -0.075608      1.000000
 -0.092600  0.106926  0.018902      1.000000
 -0.046300  0.080194  0.000000      1.000000
  0.000000  0.106926 -0.037804      1.000000
  0.046300  0.080194 -0.056706      1.000000
  0.092600  0.053463 -0.075608      1.000000
  0.138901  0.026731 -0.094510      1.000000
 -0.092600  0.160389  0.000000      1.000000
 -0.046300  0.133657 -0.018902      1.000000
  0.000000  0.160389 -0.056706      1.000000
  0.046300  0.133657 -0.075608      1.000000
  0.092600  0.106926 -0.094510      1.000000
  0.138901  0.080194 -0.113412      1.000000
 -0.092600  0.213851 -0.018902      1.000000
 -0.046300  0.187120 -0.037804      1.000000
 -0.000000 -0.106926  0.037804      1.000000
  0.046300 -0.133657  0.018902      1.000000
  0.092600 -0.160389 -0.000000      1.000000
  0.138901 -0.187120 -0.018902      1.000000
 -0.092600 -0.053463  0.075608      1.000000
 -0.046300 -0.080194  0.056706      1.000000
 -0.000000 -0.053463  0.018902      1.000000
  0.046300 -0.080194 -0.000000      1.000000
  0.092600 -0.106926 -0.018902      1.000000
  0.138901 -0.133657 -0.037804      1.000000
 -0.092600  0.000000  0.056706      1.000000
 -0.046300 -0.026731  0.037804      1.000000
 -0.000000  0.000000  0.056706      1.000000
  0.046300 -0.026731  0.037804      1.000000
  0.092600 -0.053463  0.018902      1.000000
  0.138901 -0.080194 -0.000000      1.000000
 -0.092600  0.053463  0.094510      1.000000
 -0.046300  0.026731  0.075608      1.000000
 -0.000000  0.053463  0.037804      1.000000
  0.046300  0.026731  0.018902      1.000000
  0.092600  0.000000  0.000000      1.000000
  0.138901 -0.026731 -0.018902      1.000000
 -0.092600  0.106926  0.075608      1.000000
 -0.046300  0.080194  0.056706      1.000000
 -0.000000  0.106926  0.018902      1.000000
  0.046300  0.080194  0.000000      1.000000
  0.092600  0.053463 -0.018902      1.000000
  0.138901  0.026731 -0.037804      1.000000
 -0.092600  0.160389  0.056706      1.000000
 -0.046300  0.133657  0.037804      1.000000
 -0.000000  0.160389  0.000000      1.000000
  0.046300  0.133657 -0.018902      1.000000
  0.092600  0.106926 -0.037804      1.000000
  0.138901  0.080194 -0.056706      1.000000
 -0.092600  0.213851  0.037804      1.000000
 -0.046300  0.187120  0.018902      1.000000
[...]
  0.138901  0.080194 -0.170118      1.000000
 -0.092600  0.213851 -0.075608      1.000000
 -0.046300  0.187120 -0.094510      1.000000
  0.000000 -0.106926 -0.018902      1.000000
  0.046300 -0.133657 -0.037804      1.000000
  0.092600 -0.160389 -0.056706      1.000000
  0.138901 -0.187120 -0.075608      1.000000
 -0.092600 -0.053463  0.018902      1.000000
 -0.046300 -0.080194 -0.000000      1.000000
  0.000000 -0.053463 -0.037804      1.000000
  0.046300 -0.080194 -0.056706      1.000000
  0.092600 -0.106926 -0.075608      1.000000
  0.138901 -0.133657 -0.094510      1.000000
 -0.092600  0.000000  0.000000      1.000000
 -0.046300 -0.026731 -0.018902      1.000000

 SYSTEM =  Og_FCC
 POSCAR =  Ar_FCC

 Startparameter for this run:
   NWRITE =      2    write-flag & timer
   PREC   = accura    normal or accurate (medium, high low for compatibility)
   ISTART =      1    job   : 0-new  1-cont  2-samecut
   ICHARG =      0    charge: 1-file 2-atom 10-const
   ISPIN  =      1    spin polarized calculation?
   LNONCOLLINEAR =      T non collinear calculations
   LSORBIT =      T    spin-orbit coupling
   INIWAV =      1    electr: 0-lowe 1-rand  2-diag
   LASPH  =      F    aspherical Exc in radial PAW
   METAGGA=      F    non-selfconsistent MetaGGA calc.

 Electronic Relaxation 1
   ENCUT  =  300.0 eV  22.05 Ry    4.70 a.u.   5.29  5.29  5.29*2*pi/ulx,y,z
   ENINI  =  300.0     initial cutoff
   ENAUG  =  799.9 eV  augmentation charge cutoff
   NELM   =     50;   NELMIN=  2; NELMDL= -5     # of ELM steps
   EDIFF  = 0.1E-07   stopping-criterion for ELM
   LREAL  =      F    real-space projection
   NLSPLINE    = F    spline interpolate recip. space projectors
   LCOMPAT=      F    compatible to vasp.4.4
   GGA_COMPAT  = F    GGA compatible to vasp.4.4-vasp.4.6
   LMAXPAW     = -100 max onsite density
   LMAXMIX     =    2 max onsite mixed and CHGCAR
   VOSKOWN=      0    Vosko Wilk Nusair interpolation
   ROPT   =    0.00000
 Ionic relaxation
   EDIFFG = 0.1E-04   stopping-criterion for IOM
   NSW    =      1    number of steps for IOM
   NBLOCK =      1;   KBLOCK =      1    inner block; outer block
   IBRION =     -1    ionic relax: 0-MD 1-quasi-New 2-CG
   NFREE  =      5    steps in history (QN), initial steepest desc. (CG)
   ISIF   =      3    stress and relaxation
   IWAVPR =     10    prediction:  0-non 1-charg 2-wave 3-comb
   ISYM   =      0    0-nonsym 1-usesym 2-fastsym
   LCORR  =      T    Harris-Foulkes like correction to forces

   POTIM  = 0.1000    time-step for ionic-motion
   TEIN   =    0.0    initial temperature
   TEBEG  =    0.0;   TEEND  =   0.0 temperature during run
   SMASS  =  -3.00    Nose mass-parameter (am)
   estimated Nose-frequenzy (Omega)   =  0.10E-29 period in steps =****** mass=  -0.321E-27a.u.
   SCALEE = 1.0000    scale energy and forces
   NPACO  =    256;   APACO  = 16.0  distance and # of slots for P.C.
   PSTRESS=    0.0 pullay stress

  Mass of Ions in am
   POMASS =  39.95
  Ionic Valenz
   ZVAL   =   8.00
  Atomic Wigner-Seitz radii
  virtual crystal weights
   VCA    =   1.00
   NELECT =       8.0000    total number of electrons
   NUPDOWN=      -1.0000    fix difference up-down

 DOS related values:
   EMIN   =  10.00;   EMAX   =-10.00  energy-range for DOS
   EFERMI =   0.00
   ISMEAR =     0;   SIGMA  =   0.00  broadening in eV -4-tet -1-fermi 0-gaus

 Electronic relaxation 2 (details)
   IALGO  =     90    algorithm
   LDIAG  =      T    sub-space diagonalisation (order eigenvalues)
   LSUBROT=      F    optimize rotation matrix (better conditioning)
   TURBO    =      0    0=normal 1=particle mesh
   IRESTART =      0    0=no restart 2=restart with 2 vectors
   NREBOOT  =      0    no. of reboots
   NMIN     =      0    reboot dimension
[...]
   59.730359    0.937754    0.937753    0.937753    0.000001    0.000000    0.000000
   60.949346    0.935594    0.935596    0.935596   -0.000001   -0.000001   -0.000000
   62.168333    0.939642    0.939641    0.939641    0.000000    0.000000    0.000000
   63.387320    0.943897    0.943897    0.943897    0.000000    0.000000    0.000000
   64.606307    0.942299    0.942299    0.942299    0.000000    0.000000   -0.000000
   65.825294    0.948397    0.948396    0.948396    0.000001    0.000000    0.000000
   67.044281    0.942597    0.942597    0.942597    0.000000    0.000000    0.000000
   68.263268    0.950814    0.950813    0.950813    0.000000    0.000000    0.000000
   69.482255    0.949171    0.949170    0.949171    0.000001    0.000001    0.000000
   70.701242    0.953432    0.953432    0.953432    0.000000    0.000000    0.000000
   71.920229    0.957983    0.957983    0.957983    0.000000    0.000000   -0.000000
[...]
  103.613889    0.976601    0.976601    0.976601   -0.000000   -0.000000   -0.000000
  104.832876    0.977269    0.977270    0.977270   -0.000000   -0.000000   -0.000000
  106.051863    0.977892    0.977892    0.977892   -0.000000   -0.000000   -0.000000
  107.270850    0.978478    0.978479    0.978479   -0.000000   -0.000000   -0.000000
  108.489837    0.979034    0.979035    0.979035   -0.000000   -0.000000   -0.000000
  109.708823    0.979564    0.979564    0.979564   -0.000000   -0.000000   -0.000000
  110.927810    0.980069    0.980069    0.980069   -0.000000   -0.000000   -0.000000
  112.146797    0.980552    0.980552    0.980552   -0.000000   -0.000000   -0.000000
  113.365784    0.981015    0.981015    0.981015   -0.000000   -0.000000   -0.000000
  114.584771    0.981460    0.981460    0.981460   -0.000000   -0.000000   -0.000000
  115.803758    0.981887    0.981887    0.981887   -0.000000   -0.000000   -0.000000
  117.022745    0.982298    0.982299    0.982299   -0.000000   -0.000000   -0.000000
  118.241732    0.982694    0.982695    0.982695   -0.000000   -0.000000   -0.000000
  119.460719    0.983076    0.983076    0.983076   -0.000000   -0.000000   -0.000000
  120.679706    0.983444    0.983445    0.983445   -0.000000   -0.000000   -0.000000

  frequency dependent IMAGINARY DIELECTRIC FUNCTION (independent particle, no local field effects) current-current (2nd set in vasprun.xml)
     E(ev)      X         Y         Z        XY        YZ        ZX
    0.000000    0.000000    0.000000    0.000000    0.000000    0.000000    0.000000
    1.218987    0.000000    0.000000    0.000000    0.000000    0.000000    0.000000
    2.437974    0.000000    0.000000    0.000000    0.000000    0.000000    0.000000
    3.656961    0.000000    0.000000    0.000000    0.000000    0.000000    0.000000
    4.875948    0.000000    0.000000    0.000000    0.000000    0.000000    0.000000
    6.094935    0.000000    0.000000    0.000000    0.000000    0.000000    0.000000
    7.313922    0.000000    0.000000    0.000000    0.000000    0.000000    0.000000
    8.532908    0.000000    0.000000    0.000000    0.000000    0.000000    0.000000
    9.751895    0.000000    0.000000    0.000000    0.000000    0.000000    0.000000
   10.970882    0.000000    0.000000    0.000000    0.000000    0.000000    0.000000
   12.189869    0.472394    0.472371    0.472369    0.000018    0.000011    0.000008
   13.408856    0.768754    0.768770    0.768771   -0.000011   -0.000006   -0.000008
   14.627843    1.377228    1.377208    1.377209    0.000010    0.000005    0.000011
   15.846830    2.061474    2.061425    2.061421    0.000022    0.000016    0.000023
   17.065817    3.659980    3.659974    3.659973    0.000003    0.000002    0.000003
   18.284804    1.796604    1.796614    1.796615   -0.000005   -0.000004   -0.000004
   19.503791    1.464831    1.464844    1.464843   -0.000008   -0.000004   -0.000006
   20.722778    1.288847    1.288834    1.288836    0.000005    0.000001    0.000009
   21.941765    0.735054    0.735081    0.735082   -0.000016   -0.000011   -0.000009
   23.160752    1.098072    1.098075    1.098074    0.000000    0.000000   -0.000003
   24.379739    0.203715    0.203722    0.203722   -0.000003   -0.000001   -0.000004
   25.598725    0.515752    0.515745    0.515746    0.000003   -0.000001    0.000002
   26.817712    0.214802    0.214802    0.214802   -0.000001   -0.000001   -0.000000
   28.036699    0.062961    0.062960    0.062960    0.000000    0.000000    0.000001
   29.255686    0.096063    0.096062    0.096061    0.000001    0.000001    0.000001
   30.474673    0.000466    0.000465    0.000465    0.000001    0.000000    0.000000
   31.693660    0.069263    0.069265    0.069264   -0.000001   -0.000000   -0.000001
   32.912647    0.034617    0.034619    0.034619   -0.000001   -0.000001   -0.000001
   34.131634    0.007699    0.007699    0.007699   -0.000000   -0.000000   -0.000000
   35.350621    0.031587    0.031587    0.031587    0.000000    0.000000    0.000000
   36.569608    0.047594    0.047594    0.047594   -0.000000   -0.000000   -0.000000
   37.788595    0.014773    0.014774    0.014774   -0.000001   -0.000000   -0.000000
   39.007582    0.002286    0.002286    0.002286    0.000000    0.000000    0.000000
   40.226569    0.016416    0.016418    0.016418   -0.000001   -0.000001   -0.000001
   41.445556    0.009480    0.009480    0.009479    0.000000    0.000000    0.000000
   42.664542    0.001438    0.001438    0.001438    0.000000    0.000000    0.000000
   43.883529    0.008119    0.008118    0.008118    0.000000    0.000000    0.000000
   45.102516    0.022905    0.022904    0.022904    0.000001    0.000001    0.000001
   46.321503    0.007211    0.007214    0.007214   -0.000002   -0.000001   -0.000001
   47.540490    0.011582    0.011582    0.011582   -0.000000   -0.000000    0.000000
   48.759477    0.001060    0.001060    0.001060   -0.000000   -0.000000   -0.000000
   49.978464    0.006270    0.006269    0.006269   -0.000000   -0.000000    0.000000
   51.197451    0.020647    0.020646    0.020647    0.000001    0.000000   -0.000000
   52.416438    0.007201    0.007200    0.007200   -0.000000   -0.000000    0.000000
   53.635425    0.003766    0.003764    0.003764    0.000001    0.000001    0.000001
   54.854412    0.012104    0.012104    0.012104   -0.000000   -0.000000   -0.000000
   56.073399    0.032368    0.032367    0.032367    0.000000    0.000000    0.000000
   57.292386    0.005382    0.005382    0.005382   -0.000000   -0.000000   -0.000000
   58.511373    0.011902    0.011902    0.011902    0.000000    0.000000    0.000000
   59.730359    0.004293    0.004293    0.004293    0.000001    0.000000    0.000000
   60.949346    0.005551    0.005561    0.005565   -0.000005   -0.000004   -0.000002
   62.168333    0.006521    0.006520    0.006520    0.000000    0.000000    0.000000
   63.387320    0.003604    0.003604    0.003604   -0.000000    0.000000   -0.000000
   64.606307    0.005894    0.005892    0.005892    0.000001    0.000001    0.000000
   65.825294    0.016926    0.016928    0.016929   -0.000001   -0.000001   -0.000001
   67.044281    0.004105    0.004105    0.004105    0.000000    0.000000    0.000000
   68.263268    0.002380    0.002380    0.002379    0.000000    0.000000    0.000000
   69.482255    0.008999    0.009003    0.009002   -0.000002   -0.000002   -0.000002
   70.701242    0.014480    0.014480    0.014480   -0.000000   -0.000000   -0.000000
   71.920229    0.002607    0.002607    0.002607    0.000000    0.000000   -0.000000
[...]
  103.613889    0.000000    0.000000    0.000000    0.000000    0.000000    0.000000
  104.832876    0.000000    0.000000    0.000000    0.000000    0.000000    0.000000
  106.051863    0.000000    0.000000    0.000000    0.000000    0.000000    0.000000
  107.270850    0.000000    0.000000    0.000000    0.000000    0.000000    0.000000
  108.489837    0.000000    0.000000    0.000000    0.000000    0.000000    0.000000
  109.708823    0.000000    0.000000    0.000000    0.000000    0.000000    0.000000
  110.927810    0.000000    0.000000    0.000000    0.000000    0.000000    0.000000
  112.146797    0.000000    0.000000    0.000000    0.000000    0.000000    0.000000
  113.365784    0.000000    0.000000    0.000000    0.000000    0.000000    0.000000
  114.584771    0.000000    0.000000    0.000000    0.000000    0.000000    0.000000
  115.803758    0.000000    0.000000    0.000000    0.000000    0.000000    0.000000
  117.022745    0.000000    0.000000    0.000000    0.000000    0.000000    0.000000
  118.241732    0.000000    0.000000    0.000000    0.000000    0.000000    0.000000
  119.460719    0.000000    0.000000    0.000000    0.000000    0.000000    0.000000
  120.679706    0.000000    0.000000    0.000000    0.000000    0.000000    0.000000

  frequency dependent      REAL DIELECTRIC FUNCTION (independent particle, no local field effects) current-current (2nd set in vasprun.xml)
     E(ev)        X           Y           Z          XY          YZ          ZX
    0.000000    1.744492    1.744492    1.743465    0.000001    0.000000    0.000000
    1.218987    1.748959    1.748949    1.748949    0.000001    0.000000    0.000000
    2.437974    1.763623    1.763620    1.763620    0.000001    0.000000    0.000000
    3.656961    1.789682    1.789679    1.789679    0.000001    0.000000    0.000000
    4.875948    1.830078    1.830076    1.830076    0.000001    0.000000    0.000000
    6.094935    1.890448    1.890447    1.890447    0.000001    0.000001    0.000000
    7.313922    1.982515    1.982513    1.982513    0.000001    0.000001    0.000001
    8.532908    2.138453    2.138450    2.138450    0.000002    0.000001    0.000001
    9.751895    2.418991    2.418986    2.418986    0.000004    0.000002    0.000002
   10.970882    2.556557    2.556548    2.556547    0.000007    0.000004    0.000004
   12.189869    2.562597    2.562592    2.562592    0.000003    0.000002    0.000002
   13.408856    1.812673    1.812674    1.812673    0.000001   -0.000001    0.000001
   14.627843    1.246604    1.246612    1.246612   -0.000006   -0.000004   -0.000002
   15.846830    1.410103    1.410105    1.410106   -0.000001   -0.000001   -0.000001
   17.065817    0.874742    0.874775    0.874777   -0.000013   -0.000010   -0.000015
   18.284804   -0.009367   -0.009369   -0.009370    0.000002    0.000001    0.000000
   19.503791    0.413594    0.413598    0.413599   -0.000003   -0.000002   -0.000001
   20.722778    0.125106    0.125103    0.125103    0.000002    0.000001    0.000001
   21.941765    0.749863    0.749859    0.749860   -0.000000   -0.000000    0.000002
   23.160752    0.117196    0.117189    0.117190    0.000000   -0.000001    0.000005
   24.379739    0.281504    0.281498    0.281498    0.000004    0.000002    0.000002
   25.598725    0.353172    0.353153    0.353155    0.000013    0.000008    0.000005
   26.817712    0.368879    0.368878    0.368878    0.000000    0.000000    0.000001
   28.036699    0.478452    0.478451    0.478451    0.000001    0.000001    0.000000
   29.255686    0.611238    0.611237    0.611237    0.000000    0.000000    0.000000
   30.474673    0.640024    0.640024    0.640024    0.000001    0.000000   -0.000000
   31.693660    0.649422    0.649422    0.649422   -0.000000   -0.000000   -0.000000
   32.912647    0.701565    0.701565    0.701565    0.000000    0.000000   -0.000000
   34.131634    0.750980    0.750980    0.750980    0.000000    0.000000    0.000000
   35.350621    0.761604    0.761603    0.761603    0.000000    0.000000    0.000000
   36.569608    0.780637    0.780637    0.780637   -0.000000   -0.000000   -0.000000
   37.788595    0.791759    0.791759    0.791759    0.000000   -0.000000   -0.000000
   39.007582    0.813595    0.813594    0.813594    0.000000    0.000000    0.000000
   40.226569    0.827093    0.827093    0.827093    0.000000    0.000000    0.000000
   41.445556    0.843356    0.843356    0.843356    0.000000    0.000000    0.000000
   42.664542    0.853591    0.853590    0.853590    0.000000    0.000000    0.000000
   43.883529    0.863474    0.863474    0.863474    0.000000    0.000000    0.000000
   45.102516    0.874057    0.874057    0.874057    0.000000   -0.000000   -0.000000
   46.321503    0.881479    0.881479    0.881479   -0.000000   -0.000000   -0.000000
   47.540490    0.887907    0.887907    0.887907    0.000000    0.000000    0.000000
   48.759477    0.902903    0.902903    0.902903    0.000000    0.000000   -0.000000
   49.978464    0.904230    0.904229    0.904229    0.000000    0.000000    0.000000
   51.197451    0.903641    0.903641    0.903641   -0.000000   -0.000000   -0.000000
   52.416438    0.915194    0.915194    0.915194    0.000000    0.000000   -0.000000
   53.635425    0.922608    0.922609    0.922609   -0.000000   -0.000000   -0.000000
   54.854412    0.919045    0.919045    0.919045    0.000000    0.000000    0.000000
   56.073399    0.918721    0.918721    0.918721    0.000000    0.000000    0.000000
   57.292386    0.925027    0.925027    0.925027    0.000000    0.000000    0.000000
   58.511373    0.931124    0.931123    0.931123    0.000000    0.000000    0.000000
   59.730359    0.937704    0.937703    0.937703    0.000001    0.000000    0.000000
   60.949346    0.935532    0.935534    0.935535   -0.000001   -0.000001   -0.000000
   62.168333    0.939592    0.939592    0.939592    0.000000    0.000000    0.000000
   63.387320    0.943854    0.943854    0.943854    0.000000    0.000000    0.000000
   64.606307    0.942236    0.942236    0.942236    0.000000    0.000000   -0.000000
   65.825294    0.948334    0.948333    0.948333    0.000001    0.000000    0.000000
   67.044281    0.942555    0.942555    0.942555    0.000000    0.000000    0.000000
   68.263268    0.950776    0.950776    0.950775    0.000000    0.000000    0.000000
   69.482255    0.949121    0.949120    0.949120    0.000001    0.000001    0.000000
   70.701242    0.953383    0.953383    0.953383    0.000000    0.000000    0.000000
   71.920229    0.957943    0.957944    0.957943    0.000000    0.000000   -0.000000
[...]
  103.613889    0.976591    0.976591    0.976591   -0.000000   -0.000000   -0.000000
  104.832876    0.977260    0.977260    0.977260   -0.000000   -0.000000   -0.000000
  106.051863    0.977883    0.977883    0.977883   -0.000000   -0.000000   -0.000000
  107.270850    0.978469    0.978469    0.978470   -0.000000   -0.000000   -0.000000
  108.489837    0.979025    0.979026    0.979026   -0.000000   -0.000000   -0.000000
  109.708823    0.979555    0.979555    0.979555   -0.000000   -0.000000   -0.000000
  110.927810    0.980060    0.980060    0.980060   -0.000000   -0.000000   -0.000000
  112.146797    0.980544    0.980544    0.980544   -0.000000   -0.000000   -0.000000
  113.365784    0.981007    0.981007    0.981007   -0.000000   -0.000000   -0.000000
  114.584771    0.981452    0.981452    0.981452   -0.000000   -0.000000   -0.000000
  115.803758    0.981879    0.981880    0.981880   -0.000000   -0.000000   -0.000000
  117.022745    0.982291    0.982291    0.982291   -0.000000   -0.000000   -0.000000
  118.241732    0.982687    0.982687    0.982687   -0.000000   -0.000000   -0.000000
  119.460719    0.983069    0.983069    0.983069   -0.000000   -0.000000   -0.000000
  120.679706    0.983437    0.983437    0.983437   -0.000000   -0.000000   -0.000000

 The outermost node in the dielectric function lies at epsilon=  23.8

 Spin-Orbit-Coupling matrix elements

 Ion:    1  E_soc:     -0.0046376
 l=   1
     0.0000000    -0.0007729    -0.0007729
    -0.0007729     0.0000000    -0.0007729
    -0.0007729    -0.0007729     0.0000000
 l=   2
     0.0000000    -0.0000000     0.0000000    -0.0000000    -0.0000000
    -0.0000000     0.0000000    -0.0000000    -0.0000000    -0.0000000
     0.0000000    -0.0000000     0.0000000    -0.0000000     0.0000000
    -0.0000000    -0.0000000    -0.0000000     0.0000000    -0.0000000
    -0.0000000    -0.0000000     0.0000000    -0.0000000     0.0000000
 l=   3
     0.0000000     0.0000000     0.0000000     0.0000000     0.0000000     0.0000000     0.0000000
     0.0000000     0.0000000     0.0000000     0.0000000     0.0000000     0.0000000     0.0000000
     0.0000000     0.0000000     0.0000000     0.0000000     0.0000000     0.0000000     0.0000000
     0.0000000     0.0000000     0.0000000     0.0000000     0.0000000     0.0000000     0.0000000
     0.0000000     0.0000000     0.0000000     0.0000000     0.0000000     0.0000000     0.0000000
     0.0000000     0.0000000     0.0000000     0.0000000     0.0000000     0.0000000     0.0000000
     0.0000000     0.0000000     0.0000000     0.0000000     0.0000000     0.0000000     0.0000000