 vasp.5.4.4.18Apr17-6-g9f103f2a35 (build Jul 09 2018 16:43:14) complex

 executed on             LinuxIFC date 2018.11.29  20:43:43

 INCAR:
 POTCAR:    PAW_PBE Ar_GW 21Aug2013

 POTCAR:    PAW_PBE Ar_GW 21Aug2013
   VRHFIN =Ar: s2p6

   TITEL  = PAW_PBE Ar_GW 21Aug2013
   POMASS =   39.949; ZVAL   =    8.000    mass and valenz
   ENMAX  =  290.599; ENMIN  =  217.949 eV

  PAW_PBE Ar_GW 21Aug2013               :

 POSCAR: Ar_FCC
  positions in direct lattice
  velocities in cartesian coordinates

 METAGGA = SCAN     LMAXTAU =  0    LMIXTAU =  F

 ion  position               nearest neighbor table
   1  0.000  0.000  0.000-

IMPORTANT INFORMATION: All symmetrisations will be switched off!
NOSYMM: (Re-)initialisation of all symmetry stuff for point group C_1.

 KPOINTS: k-points

Automatic generation of k-mesh.
Space group operators:
 irot       det(A)        alpha          n_x          n_y          n_z        tau_x        tau_y        tau_z
    1     1.000000     0.000000     1.000000     0.000000     0.000000     0.000000     0.000000     0.000000

 Subroutine IBZKPT returns following result:

 Found    216 irreducible k-points:

 Following reciprocal coordinates:
            Coordinates               Weight
  0.000000  0.000000  0.000000      1.000000
  0.166667  0.000000 -0.000000      1.000000
  0.333333  0.000000 -0.000000      1.000000
  0.500000  0.000000 -0.000000      1.000000
 -0.333333 -0.000000  0.000000      1.000000
 -0.166667 -0.000000  0.000000      1.000000
  0.000000  0.166667 -0.000000      1.000000
  0.166667  0.166667 -0.000000      1.000000
  0.333333  0.166667 -0.000000      1.000000
  0.500000  0.166667 -0.000000      1.000000
 -0.333333  0.166667 -0.000000      1.000000
 -0.166667  0.166667  0.000000      1.000000
  0.000000  0.333333  0.000000      1.000000
  0.166667  0.333333 -0.000000      1.000000
  0.333333  0.333333 -0.000000      1.000000
  0.500000  0.333333 -0.000000      1.000000
 -0.333333  0.333333  0.000000      1.000000
 -0.166667  0.333333  0.000000      1.000000
  0.000000  0.500000 -0.000000      1.000000
  0.166667  0.500000  0.000000      1.000000
  0.333333  0.500000  0.000000      1.000000
  0.500000  0.500000 -0.000000      1.000000
 -0.333333  0.500000 -0.000000      1.000000
 -0.166667  0.500000 -0.000000      1.000000
 -0.000000 -0.333333  0.000000      1.000000
  0.166667 -0.333333 -0.000000      1.000000
  0.333333 -0.333333 -0.000000      1.000000
  0.500000 -0.333333 -0.000000      1.000000
 -0.333333 -0.333333  0.000000      1.000000
 -0.166667 -0.333333  0.000000      1.000000
 -0.000000 -0.166667  0.000000      1.000000
  0.166667 -0.166667 -0.000000      1.000000
  0.333333 -0.166667 -0.000000      1.000000
  0.500000 -0.166667 -0.000000      1.000000
 -0.333333 -0.166667  0.000000      1.000000
 -0.166667 -0.166667  0.000000      1.000000
 -0.000000  0.000000  0.166667      1.000000
  0.166667  0.000000  0.166667      1.000000
  0.333333 -0.000000  0.166667      1.000000
  0.500000  0.000000  0.166667      1.000000
 -0.333333 -0.000000  0.166667      1.000000
 -0.166667 -0.000000  0.166667      1.000000
  0.000000  0.166667  0.166667      1.000000
  0.166667  0.166667  0.166667      1.000000
  0.333333  0.166667  0.166667      1.000000
  0.500000  0.166667  0.166667      1.000000
 -0.333333  0.166667  0.166667      1.000000
 -0.166667  0.166667  0.166667      1.000000
  0.000000  0.333333  0.166667      1.000000
  0.166667  0.333333  0.166667      1.000000
  0.333333  0.333333  0.166667      1.000000
  0.500000  0.333333  0.166667      1.000000
 -0.333333  0.333333  0.166667      1.000000
 -0.166667  0.333333  0.166667      1.000000
  0.000000  0.500000  0.166667      1.000000
  0.166667  0.500000  0.166667      1.000000
  0.333333  0.500000  0.166667      1.000000
  0.500000  0.500000  0.166667      1.000000
 -0.333333  0.500000  0.166667      1.000000
 -0.166667  0.500000  0.166667      1.000000
[...]
  0.500000  0.500000 -0.166667      1.000000
 -0.333333  0.500000 -0.166667      1.000000
 -0.166667  0.500000 -0.166667      1.000000
  0.000000 -0.333333 -0.166667      1.000000
  0.166667 -0.333333 -0.166667      1.000000
  0.333333 -0.333333 -0.166667      1.000000
  0.500000 -0.333333 -0.166667      1.000000
 -0.333333 -0.333333 -0.166667      1.000000
 -0.166667 -0.333333 -0.166667      1.000000
  0.000000 -0.166667 -0.166667      1.000000
  0.166667 -0.166667 -0.166667      1.000000
  0.333333 -0.166667 -0.166667      1.000000
  0.500000 -0.166667 -0.166667      1.000000
 -0.333333 -0.166667 -0.166667      1.000000
 -0.166667 -0.166667 -0.166667      1.000000

 Following cartesian coordinates:
            Coordinates               Weight
  0.000000  0.000000  0.000000      1.000000
  0.046300 -0.026731 -0.018902      1.000000
  0.092600 -0.053463 -0.037804      1.000000
  0.138901 -0.080194 -0.056706      1.000000
 -0.092600  0.053463  0.037804      1.000000
 -0.046300  0.026731  0.018902      1.000000
  0.000000  0.053463 -0.018902      1.000000
  0.046300  0.026731 -0.037804      1.000000
  0.092600  0.000000 -0.056706      1.000000
  0.138901 -0.026731 -0.075608      1.000000
 -0.092600  0.106926  0.018902      1.000000
 -0.046300  0.080194  0.000000      1.000000
  0.000000  0.106926 -0.037804      1.000000
  0.046300  0.080194 -0.056706      1.000000
  0.092600  0.053463 -0.075608      1.000000
  0.138901  0.026731 -0.094510      1.000000
 -0.092600  0.160389  0.000000      1.000000
 -0.046300  0.133657 -0.018902      1.000000
  0.000000  0.160389 -0.056706      1.000000
  0.046300  0.133657 -0.075608      1.000000
  0.092600  0.106926 -0.094510      1.000000
  0.138901  0.080194 -0.113412      1.000000
 -0.092600  0.213851 -0.018902      1.000000
 -0.046300  0.187120 -0.037804      1.000000
 -0.000000 -0.106926  0.037804      1.000000
  0.046300 -0.133657  0.018902      1.000000
  0.092600 -0.160389 -0.000000      1.000000
  0.138901 -0.187120 -0.018902      1.000000
 -0.092600 -0.053463  0.075608      1.000000
 -0.046300 -0.080194  0.056706      1.000000
 -0.000000 -0.053463  0.018902      1.000000
  0.046300 -0.080194 -0.000000      1.000000
  0.092600 -0.106926 -0.018902      1.000000
  0.138901 -0.133657 -0.037804      1.000000
 -0.092600 -0.000000  0.056706      1.000000
 -0.046300 -0.026731  0.037804      1.000000
 -0.000000  0.000000  0.056706      1.000000
  0.046300 -0.026731  0.037804      1.000000
  0.092600 -0.053463  0.018902      1.000000
  0.138901 -0.080194 -0.000000      1.000000
 -0.092600  0.053463  0.094510      1.000000
 -0.046300  0.026731  0.075608      1.000000
 -0.000000  0.053463  0.037804      1.000000
  0.046300  0.026731  0.018902      1.000000
  0.092600  0.000000  0.000000      1.000000
  0.138901 -0.026731 -0.018902      1.000000
 -0.092600  0.106926  0.075608      1.000000
 -0.046300  0.080194  0.056706      1.000000
 -0.000000  0.106926  0.018902      1.000000
  0.046300  0.080194  0.000000      1.000000
  0.092600  0.053463 -0.018902      1.000000
  0.138901  0.026731 -0.037804      1.000000
 -0.092600  0.160389  0.056706      1.000000
 -0.046300  0.133657  0.037804      1.000000
 -0.000000  0.160389  0.000000      1.000000
  0.046300  0.133657 -0.018902      1.000000
  0.092600  0.106926 -0.037804      1.000000
  0.138901  0.080194 -0.056706      1.000000
 -0.092600  0.213851  0.037804      1.000000
 -0.046300  0.187120  0.018902      1.000000
[...]
  0.138901  0.080194 -0.170118      1.000000
 -0.092600  0.213851 -0.075608      1.000000
 -0.046300  0.187120 -0.094510      1.000000
  0.000000 -0.106926 -0.018902      1.000000
  0.046300 -0.133657 -0.037804      1.000000
  0.092600 -0.160389 -0.056706      1.000000
  0.138901 -0.187120 -0.075608      1.000000
 -0.092600 -0.053463  0.018902      1.000000
 -0.046300 -0.080194 -0.000000      1.000000
  0.000000 -0.053463 -0.037804      1.000000
  0.046300 -0.080194 -0.056706      1.000000
  0.092600 -0.106926 -0.075608      1.000000
  0.138901 -0.133657 -0.094510      1.000000
 -0.092600 -0.000000  0.000000      1.000000
 -0.046300 -0.026731 -0.018902      1.000000

 SYSTEM =  Og_FCC
 POSCAR =  Ar_FCC

 Startparameter for this run:
   NWRITE =      2    write-flag & timer
   PREC   = accura    normal or accurate (medium, high low for compatibility)
   ISTART =      1    job   : 0-new  1-cont  2-samecut
   ICHARG =      0    charge: 1-file 2-atom 10-const
   ISPIN  =      1    spin polarized calculation?
   LNONCOLLINEAR =      T non collinear calculations
   LSORBIT =      T    spin-orbit coupling
   INIWAV =      1    electr: 0-lowe 1-rand  2-diag
   LASPH  =      F    aspherical Exc in radial PAW
   METAGGA=      F    non-selfconsistent MetaGGA calc.

 Electronic Relaxation 1
   ENCUT  =  300.0 eV  22.05 Ry    4.70 a.u.   5.08  5.08  5.08*2*pi/ulx,y,z
   ENINI  =  300.0     initial cutoff
   ENAUG  =  799.9 eV  augmentation charge cutoff
   NELM   =     50;   NELMIN=  2; NELMDL= -5     # of ELM steps
   EDIFF  = 0.1E-07   stopping-criterion for ELM
   LREAL  =      F    real-space projection
   NLSPLINE    = F    spline interpolate recip. space projectors
   LCOMPAT=      F    compatible to vasp.4.4
   GGA_COMPAT  = F    GGA compatible to vasp.4.4-vasp.4.6
   LMAXPAW     = -100 max onsite density
   LMAXMIX     =    2 max onsite mixed and CHGCAR
   VOSKOWN=      0    Vosko Wilk Nusair interpolation
   ROPT   =    0.00000
 Ionic relaxation
   EDIFFG = 0.1E-04   stopping-criterion for IOM
   NSW    =      1    number of steps for IOM
   NBLOCK =      1;   KBLOCK =      1    inner block; outer block
   IBRION =     -1    ionic relax: 0-MD 1-quasi-New 2-CG
   NFREE  =      5    steps in history (QN), initial steepest desc. (CG)
   ISIF   =      3    stress and relaxation
   IWAVPR =     10    prediction:  0-non 1-charg 2-wave 3-comb
   ISYM   =      0    0-nonsym 1-usesym 2-fastsym
   LCORR  =      T    Harris-Foulkes like correction to forces

   POTIM  = 0.1000    time-step for ionic-motion
   TEIN   =    0.0    initial temperature
   TEBEG  =    0.0;   TEEND  =   0.0 temperature during run
   SMASS  =  -3.00    Nose mass-parameter (am)
   estimated Nose-frequenzy (Omega)   =  0.10E-29 period in steps =****** mass=  -0.296E-27a.u.
   SCALEE = 1.0000    scale energy and forces
   NPACO  =    256;   APACO  = 16.0  distance and # of slots for P.C.
   PSTRESS=    0.0 pullay stress

  Mass of Ions in am
   POMASS =  39.95
  Ionic Valenz
   ZVAL   =   8.00
  Atomic Wigner-Seitz radii
  virtual crystal weights
   VCA    =   1.00
   NELECT =       8.0000    total number of electrons
   NUPDOWN=      -1.0000    fix difference up-down

 DOS related values:
   EMIN   =  10.00;   EMAX   =-10.00  energy-range for DOS
   EFERMI =   0.00
   ISMEAR =     0;   SIGMA  =   0.00  broadening in eV -4-tet -1-fermi 0-gaus

 Electronic relaxation 2 (details)
   IALGO  =     90    algorithm
   LDIAG  =      T    sub-space diagonalisation (order eigenvalues)
   LSUBROT=      F    optimize rotation matrix (better conditioning)
   TURBO    =      0    0=normal 1=particle mesh
   IRESTART =      0    0=no restart 2=restart with 2 vectors
   NREBOOT  =      0    no. of reboots
   NMIN     =      0    reboot dimension
[...]
   63.512137    0.931938    0.931938    0.931938    0.000000    0.000000    0.000000
   64.808303    0.938940    0.938940    0.938940    0.000000    0.000000    0.000000
   66.104469    0.935722    0.935722    0.935722    0.000000    0.000000    0.000000
   67.400635    0.939573    0.939573    0.939573    0.000000    0.000000    0.000000
   68.696801    0.943686    0.943686    0.943687   -0.000000   -0.000000   -0.000000
   69.992967    0.946235    0.946235    0.946235    0.000000    0.000000    0.000000
   71.289133    0.945002    0.945001    0.945001    0.000000    0.000000    0.000000
   72.585300    0.948950    0.948950    0.948950    0.000001    0.000000    0.000000
   73.881466    0.953991    0.953991    0.953991   -0.000000   -0.000000   -0.000000
   75.177632    0.950710    0.950710    0.950710    0.000000    0.000000    0.000000
   76.473798    0.956763    0.956763    0.956763    0.000000    0.000000    0.000000
[...]
  110.174115    0.976459    0.976459    0.976459   -0.000000   -0.000000   -0.000000
  111.470281    0.977132    0.977132    0.977132   -0.000000   -0.000000   -0.000000
  112.766447    0.977759    0.977759    0.977759   -0.000000   -0.000000   -0.000000
  114.062614    0.978350    0.978350    0.978350   -0.000000   -0.000000   -0.000000
  115.358780    0.978910    0.978910    0.978910   -0.000000   -0.000000   -0.000000
  116.654946    0.979443    0.979443    0.979443   -0.000000   -0.000000   -0.000000
  117.951112    0.979952    0.979952    0.979952   -0.000000   -0.000000   -0.000000
  119.247278    0.980438    0.980438    0.980438   -0.000000   -0.000000   -0.000000
  120.543444    0.980904    0.980905    0.980905   -0.000000   -0.000000   -0.000000
  121.839610    0.981352    0.981352    0.981352   -0.000000   -0.000000   -0.000000
  123.135776    0.981782    0.981782    0.981782   -0.000000   -0.000000   -0.000000
  124.431942    0.982196    0.982196    0.982196   -0.000000   -0.000000   -0.000000
  125.728108    0.982594    0.982594    0.982594   -0.000000   -0.000000   -0.000000
  127.024274    0.982978    0.982978    0.982978   -0.000000   -0.000000   -0.000000
  128.320440    0.983348    0.983349    0.983349   -0.000000   -0.000000   -0.000000

  frequency dependent IMAGINARY DIELECTRIC FUNCTION (independent particle, no local field effects) current-current (2nd set in vasprun.xml)
     E(ev)      X         Y         Z        XY        YZ        ZX
    0.000000    0.000000    0.000000    0.000000    0.000000    0.000000    0.000000
    1.296166    0.000000    0.000000    0.000000    0.000000    0.000000    0.000000
    2.592332    0.000000    0.000000    0.000000    0.000000    0.000000    0.000000
    3.888498    0.000000    0.000000    0.000000    0.000000    0.000000    0.000000
    5.184664    0.000000    0.000000    0.000000    0.000000    0.000000    0.000000
    6.480830    0.000000    0.000000    0.000000    0.000000    0.000000    0.000000
    7.776996    0.000000    0.000000    0.000000    0.000000    0.000000    0.000000
    9.073162    0.000000    0.000000    0.000000    0.000000    0.000000    0.000000
   10.369329    1.003338    1.003497    1.003550   -0.000135   -0.000057   -0.000094
   11.665495    0.052081    0.050954    0.050666    0.000944    0.000400    0.000665
   12.961661    0.069661    0.069660    0.069659    0.000001    0.000000    0.000001
   14.257827    1.804610    1.804616    1.804621   -0.000005   -0.000003   -0.000002
   15.553993    1.685986    1.686001    1.686005   -0.000014   -0.000006   -0.000009
   16.850159    2.327481    2.327475    2.327476    0.000004    0.000002    0.000003
   18.146325    2.314534    2.314471    2.314444    0.000053    0.000023    0.000037
   19.442491    1.822096    1.822688    1.822885   -0.000461   -0.000199   -0.000346
   20.738657    0.917682    0.917703    0.917708   -0.000017   -0.000007   -0.000013
   22.034823    0.000000    0.000000    0.000000    0.000000   -0.000000   -0.000000
   23.330989    0.276688    0.276738    0.276772   -0.000046   -0.000018   -0.000032
   24.627155    0.351063    0.351121    0.351119   -0.000049   -0.000018   -0.000038
   25.923321    0.370088    0.370092    0.370091   -0.000003   -0.000001   -0.000003
   27.219487    0.309453    0.309453    0.309454   -0.000000   -0.000000    0.000000
   28.515653    0.019890    0.019892    0.019893   -0.000002   -0.000001   -0.000001
   29.811819    0.000000    0.000000    0.000000    0.000000    0.000000    0.000000
   31.107986    0.103211    0.103203    0.103199    0.000008    0.000003    0.000005
   32.404152    0.030060    0.030061    0.030061   -0.000000   -0.000000   -0.000000
   33.700318    0.000000    0.000000    0.000000    0.000000    0.000000    0.000000
   34.996484    0.039294    0.039291    0.039290    0.000003    0.000001    0.000002
   36.292650    0.000477    0.000477    0.000477   -0.000000   -0.000000   -0.000000
   37.588816    0.042821    0.042821    0.042822   -0.000001   -0.000001    0.000000
   38.884982    0.002776    0.002776    0.002776    0.000000    0.000000    0.000000
   40.181148    0.004260    0.004260    0.004260   -0.000000   -0.000000   -0.000000
   41.477314    0.003027    0.003027    0.003027   -0.000000   -0.000000   -0.000000
   42.773480    0.006674    0.006667    0.006665    0.000006    0.000002    0.000004
   44.069646    0.000004    0.000004    0.000004    0.000000    0.000000    0.000000
   45.365812    0.001966    0.001966    0.001966    0.000000    0.000000    0.000000
   46.661978    0.009384    0.009385    0.009385   -0.000000   -0.000000   -0.000000
   47.958144    0.013488    0.013488    0.013488    0.000000    0.000000    0.000000
   49.254310    0.025767    0.025771    0.025768    0.000005    0.000004   -0.000005
   50.550476    0.008890    0.008890    0.008890   -0.000000   -0.000000   -0.000000
   51.846643    0.000866    0.000866    0.000866   -0.000000   -0.000000   -0.000000
   53.142809    0.010709    0.010708    0.010708    0.000000    0.000000    0.000000
   54.438975    0.005421    0.005421    0.005421   -0.000000   -0.000000   -0.000000
   55.735141    0.002435    0.002435    0.002435   -0.000000   -0.000000   -0.000000
   57.031307    0.031151    0.031151    0.031152    0.000001    0.000000   -0.000000
   58.327473    0.004457    0.004457    0.004457   -0.000000   -0.000000   -0.000000
   59.623639    0.023010    0.023010    0.023010    0.000000   -0.000000    0.000000
   60.919805    0.012214    0.012215    0.012214   -0.000000   -0.000000   -0.000000
   62.215971    0.005805    0.005805    0.005806    0.000000    0.000000   -0.000000
   63.512137    0.002128    0.002128    0.002128   -0.000000   -0.000000   -0.000000
   64.808303    0.001326    0.001326    0.001326   -0.000000   -0.000000   -0.000000
   66.104469    0.001290    0.001290    0.001290    0.000000    0.000000   -0.000000
   67.400635    0.004780    0.004780    0.004780   -0.000000   -0.000000   -0.000000
   68.696801    0.003950    0.003950    0.003948   -0.000000   -0.000000   -0.000000
   69.992967    0.001766    0.001766    0.001766   -0.000000   -0.000000   -0.000000
   71.289133    0.008568    0.008568    0.008568    0.000000    0.000000    0.000000
   72.585300    0.010365    0.010365    0.010366   -0.000000   -0.000000   -0.000000
   73.881466    0.003546    0.003550    0.003552   -0.000003   -0.000002   -0.000002
   75.177632    0.004537    0.004537    0.004537    0.000000    0.000000   -0.000000
   76.473798    0.005957    0.005957    0.005957    0.000000    0.000000    0.000000
[...]
  110.174115    0.000000    0.000000    0.000000    0.000000    0.000000    0.000000
  111.470281    0.000000    0.000000    0.000000    0.000000    0.000000    0.000000
  112.766447    0.000000    0.000000    0.000000    0.000000    0.000000    0.000000
  114.062614    0.000000    0.000000    0.000000    0.000000    0.000000    0.000000
  115.358780    0.000000    0.000000    0.000000    0.000000    0.000000    0.000000
  116.654946    0.000000    0.000000    0.000000    0.000000    0.000000    0.000000
  117.951112    0.000000    0.000000    0.000000    0.000000    0.000000    0.000000
  119.247278    0.000000    0.000000    0.000000    0.000000    0.000000    0.000000
  120.543444    0.000000    0.000000    0.000000    0.000000    0.000000    0.000000
  121.839610    0.000000    0.000000    0.000000    0.000000    0.000000    0.000000
  123.135776    0.000000    0.000000    0.000000    0.000000    0.000000    0.000000
  124.431942    0.000000    0.000000    0.000000    0.000000    0.000000    0.000000
  125.728108    0.000000    0.000000    0.000000    0.000000    0.000000    0.000000
  127.024274    0.000000    0.000000    0.000000    0.000000    0.000000    0.000000
  128.320440    0.000000    0.000000    0.000000    0.000000    0.000000    0.000000

  frequency dependent      REAL DIELECTRIC FUNCTION (independent particle, no local field effects) current-current (2nd set in vasprun.xml)
     E(ev)        X           Y           Z          XY          YZ          ZX
    0.000000    1.842843    1.844660    1.842843   -0.000001   -0.000000   -0.000001
    1.296166    1.849564    1.849582    1.849564   -0.000001   -0.000000   -0.000001
    2.592332    1.868328    1.868333    1.868328   -0.000001   -0.000000   -0.000001
    3.888498    1.901895    1.901897    1.901897   -0.000001   -0.000001   -0.000001
    5.184664    1.954574    1.954578    1.954578   -0.000001   -0.000001   -0.000001
    6.480830    2.034899    2.034902    2.034902   -0.000002   -0.000001   -0.000001
    7.776996    2.161849    2.161852    2.161853   -0.000002   -0.000001   -0.000002
    9.073162    2.400225    2.400231    2.400232   -0.000005   -0.000002   -0.000003
   10.369329    2.899529    2.899515    2.899509    0.000013    0.000005    0.000009
   11.665495    3.085906    3.085679    3.085621    0.000185    0.000080    0.000129
   12.961661    3.425031    3.425062    3.425071   -0.000025   -0.000011   -0.000018
   14.257827    3.210534    3.210533    3.210526    0.000001    0.000001   -0.000000
   15.553993    1.345143    1.345158    1.345164   -0.000012   -0.000005   -0.000009
   16.850159    0.523232    0.523231    0.523232    0.000001    0.000001    0.000001
   18.146325   -0.514225   -0.514247   -0.514256    0.000019    0.000007    0.000015
   19.442491    0.303468    0.303591    0.303632   -0.000096   -0.000041   -0.000073
   20.738657    0.275839    0.275841    0.275839   -0.000001   -0.000000   -0.000001
   22.034823   -0.039525   -0.039520   -0.039520   -0.000002   -0.000001   -0.000003
   23.330989   -0.173070   -0.173078   -0.173084    0.000008    0.000003    0.000006
   24.627155    0.181870    0.181858    0.181858    0.000010    0.000004    0.000008
   25.923321    0.297061    0.297066    0.297068   -0.000004   -0.000002   -0.000003
   27.219487    0.474439    0.474440    0.474441   -0.000001   -0.000001   -0.000001
   28.515653    0.510264    0.510263    0.510263    0.000001    0.000000    0.000000
   29.811819    0.528876    0.528876    0.528876   -0.000000   -0.000000   -0.000000
   31.107986    0.603412    0.603410    0.603409    0.000002    0.000001    0.000001
   32.404152    0.650220    0.650220    0.650220    0.000000    0.000000    0.000000
   33.700318    0.676992    0.676990    0.676990    0.000001    0.000001    0.000001
   34.996484    0.734649    0.734648    0.734648    0.000000    0.000000    0.000000
   36.292650    0.760632    0.760632    0.760632    0.000000    0.000000    0.000000
   37.588816    0.770824    0.770823    0.770823    0.000000    0.000000   -0.000000
   38.884982    0.805776    0.805774    0.805774    0.000001    0.000001    0.000001
   40.181148    0.794549    0.794550    0.794549   -0.000000   -0.000000   -0.000000
   41.477314    0.821585    0.821585    0.821585    0.000000    0.000000    0.000000
   42.773480    0.830540    0.830541    0.830541   -0.000001   -0.000000   -0.000001
   44.069646    0.847601    0.847601    0.847601    0.000000    0.000000    0.000000
   45.365812    0.855694    0.855694    0.855694    0.000000    0.000000    0.000000
   46.661978    0.867145    0.867145    0.867145    0.000000    0.000000    0.000000
   47.958144    0.883369    0.883369    0.883369    0.000000    0.000000    0.000000
   49.254310    0.879734    0.879734    0.879734    0.000001    0.000001   -0.000001
   50.550476    0.893649    0.893648    0.893649    0.000000    0.000000    0.000000
   51.846643    0.898623    0.898623    0.898623    0.000000    0.000000    0.000000
   53.142809    0.907300    0.907300    0.907300    0.000000    0.000000    0.000000
   54.438975    0.910815    0.910815    0.910815    0.000000    0.000000    0.000000
   55.735141    0.915066    0.915065    0.915065    0.000000    0.000000    0.000000
   57.031307    0.920606    0.920605    0.920606    0.000001    0.000000    0.000001
   58.327473    0.928981    0.928981    0.928981    0.000000    0.000000    0.000000
   59.623639    0.923267    0.923266    0.923266    0.000000    0.000000    0.000000
   60.919805    0.928901    0.928900    0.928901    0.000000    0.000000    0.000000
   62.215971    0.929742    0.929742    0.929742    0.000000    0.000000    0.000000
   63.512137    0.931923    0.931923    0.931923    0.000000    0.000000    0.000000
   64.808303    0.938921    0.938920    0.938920    0.000000    0.000000    0.000000
   66.104469    0.935708    0.935708    0.935708    0.000000    0.000000    0.000000
   67.400635    0.939556    0.939555    0.939556    0.000000    0.000000    0.000000
   68.696801    0.943665    0.943666    0.943667   -0.000000   -0.000000   -0.000000
   69.992967    0.946223    0.946222    0.946222    0.000000    0.000000    0.000000
   71.289133    0.944986    0.944985    0.944985    0.000000    0.000000    0.000000
   72.585300    0.948928    0.948927    0.948927    0.000001    0.000000    0.000000
   73.881466    0.953973    0.953973    0.953973   -0.000000   -0.000000   -0.000000
   75.177632    0.950694    0.950694    0.950694    0.000000    0.000000    0.000000
   76.473798    0.956748    0.956747    0.956747    0.000000    0.000000    0.000000
[...]
  110.174115    0.976460    0.976460    0.976460   -0.000000   -0.000000   -0.000000
  111.470281    0.977133    0.977133    0.977133   -0.000000   -0.000000   -0.000000
  112.766447    0.977760    0.977760    0.977760   -0.000000   -0.000000   -0.000000
  114.062614    0.978351    0.978351    0.978351   -0.000000   -0.000000   -0.000000
  115.358780    0.978911    0.978911    0.978911   -0.000000   -0.000000   -0.000000
  116.654946    0.979444    0.979444    0.979444   -0.000000   -0.000000   -0.000000
  117.951112    0.979952    0.979952    0.979952   -0.000000   -0.000000   -0.000000
  119.247278    0.980439    0.980439    0.980439   -0.000000   -0.000000   -0.000000
  120.543444    0.980905    0.980905    0.980905   -0.000000   -0.000000   -0.000000
  121.839610    0.981353    0.981353    0.981353   -0.000000   -0.000000   -0.000000
  123.135776    0.981783    0.981783    0.981783   -0.000000   -0.000000   -0.000000
  124.431942    0.982196    0.982197    0.982197   -0.000000   -0.000000   -0.000000
  125.728108    0.982595    0.982595    0.982595   -0.000000   -0.000000   -0.000000
  127.024274    0.982979    0.982979    0.982979   -0.000000   -0.000000   -0.000000
  128.320440    0.983349    0.983349    0.983349   -0.000000   -0.000000   -0.000000

 The outermost node in the dielectric function lies at epsilon=  23.6

 Spin-Orbit-Coupling matrix elements

 Ion:    1  E_soc:     -0.0046417
 l=   1
     0.0000000    -0.0007736    -0.0007736
    -0.0007736     0.0000000    -0.0007736
    -0.0007736    -0.0007736     0.0000000
 l=   2
     0.0000000    -0.0000000     0.0000000    -0.0000000    -0.0000000
    -0.0000000     0.0000000    -0.0000000    -0.0000000    -0.0000000
     0.0000000    -0.0000000     0.0000000    -0.0000000     0.0000000
    -0.0000000    -0.0000000    -0.0000000     0.0000000    -0.0000000
    -0.0000000    -0.0000000     0.0000000    -0.0000000     0.0000000
 l=   3
     0.0000000     0.0000000     0.0000000     0.0000000     0.0000000     0.0000000     0.0000000
     0.0000000     0.0000000     0.0000000     0.0000000     0.0000000     0.0000000     0.0000000
     0.0000000     0.0000000     0.0000000     0.0000000     0.0000000     0.0000000     0.0000000
     0.0000000     0.0000000     0.0000000     0.0000000     0.0000000     0.0000000     0.0000000
     0.0000000     0.0000000     0.0000000     0.0000000     0.0000000     0.0000000     0.0000000
     0.0000000     0.0000000     0.0000000     0.0000000     0.0000000     0.0000000     0.0000000
     0.0000000     0.0000000     0.0000000     0.0000000     0.0000000     0.0000000     0.0000000