 vasp.5.4.4.18Apr17-6-g9f103f2a35 (build Jul 09 2018 16:43:14) complex

 executed on             LinuxIFC date 2018.11.21  23:04:56

 INCAR:
 POTCAR:    Cn-PAW, fit to 4c-PBE, JanMewes Oct18

 POTCAR:    Cn-PAW, fit to 4c-PBE, JanMewes Oct18
   VRHFIN =Cn : 10d 2s

   TITEL  = Cn-PAW, fit to 4c-PBE, JanMewes Oct18
   POMASS =    0.010; ZVAL   =   12.000    mass and valenz
   ENMAX  =  273.073; ENMIN  =  204.805 eV
   QCUT   =   -4.480; QGAM   =    8.960    optimization parameters

  Cn-PAW, fit to 4c-PBE, JanMewes Oct18 :

 POSCAR: Cn BCC
  positions in direct lattice
  velocities in cartesian coordinates
 exchange correlation table for  LEXCH =       14
   RHO(1)=    0.500       N(1)  =     2000
   RHO(2)=  100.500       N(2)  =     4000

 ion  position               nearest neighbor table
   1  0.000  0.000  0.000-

  LATTYP: Found a trigonal (rhomboedric) cell.
 ALAT       =     3.2421028036
 COS(alpha) =    -0.3333297138

  Lattice vectors:

 A1 = (   3.2421028035,   0.0000000000,   0.0000000000)
 A2 = (  -1.0806891996,   3.0566879858,   0.0000000000)
 A3 = (  -1.0806891996,  -1.5283190996,   2.6471838191)

Analysis of symmetry for initial positions (statically):
 Subroutine PRICEL returns:
 Original cell was already a primitive cell.

 Routine SETGRP: Setting up the symmetry group for a
 trigonal (rhombohedral) supercell.

 Subroutine GETGRP returns: Found 12 space group operations
 (whereof 12 operations were pure point group operations)
 out of a pool of 12 trial point group operations.

The static configuration has the point symmetry D_3d.

Analysis of symmetry for dynamics (positions and initial velocities):
 Subroutine PRICEL returns:
 Original cell was already a primitive cell.

[...]

The dynamic configuration has the point symmetry D_3d.

Analysis of structural, dynamic, and magnetic symmetry:
 Subroutine PRICEL returns:
 Original cell was already a primitive cell.

 Routine SETGRP: Setting up the symmetry group for a
 trigonal (rhombohedral) supercell.

 Subroutine GETGRP returns: Found  2 space group operations
 (whereof  2 operations were pure point group operations)
 out of a pool of 12 trial point group operations.

The (compounded) configuration has the point symmetry S_2 .

 Subroutine INISYM returns: Found  2 space group operations
 (whereof  2 operations are pure point group operations),
 and found     1 'primitive' translations

Automatic generation of k-mesh.
 generate k-points for:   12   12   12
Space group operators:
 irot       det(A)        alpha          n_x          n_y          n_z        tau_x        tau_y        tau_z
    1     1.000000     0.000001     1.000000     0.000000     0.000000     0.000000     0.000000     0.000000
    2    -1.000000     0.000001     1.000000     0.000000     0.000000     0.000000     0.000000     0.000000

 Subroutine IBZKPT returns following result:

 Found    868 irreducible k-points:

 Following reciprocal coordinates:
            Coordinates               Weight
  0.000000  0.000000  0.000000      1.000000
  0.083333 -0.000000  0.000000      2.000000
  0.166667  0.000000  0.000000      2.000000
  0.250000  0.000000  0.000000      2.000000
  0.333333  0.000000 -0.000000      2.000000
  0.416667  0.000000  0.000000      2.000000
  0.500000  0.000000  0.000000      1.000000
  0.000000  0.083333  0.000000      2.000000
  0.083333  0.083333  0.000000      2.000000
  0.166667  0.083333  0.000000      2.000000
  0.250000  0.083333  0.000000      2.000000
  0.333333  0.083333  0.000000      2.000000
  0.416667  0.083333  0.000000      2.000000
  0.500000  0.083333  0.000000      2.000000
 -0.416667  0.083333  0.000000      2.000000
 -0.333333  0.083333  0.000000      2.000000
 -0.250000  0.083333 -0.000000      2.000000
 -0.166667  0.083333 -0.000000      2.000000
 -0.083333  0.083333  0.000000      2.000000
  0.000000  0.166667  0.000000      2.000000
  0.083333  0.166667  0.000000      2.000000
  0.166667  0.166667  0.000000      2.000000
  0.250000  0.166667  0.000000      2.000000
  0.333333  0.166667  0.000000      2.000000
  0.416667  0.166667  0.000000      2.000000
  0.500000  0.166667  0.000000      2.000000
 -0.416667  0.166667 -0.000000      2.000000
 -0.333333  0.166667 -0.000000      2.000000
 -0.250000  0.166667  0.000000      2.000000
 -0.166667  0.166667 -0.000000      2.000000
 -0.083333  0.166667  0.000000      2.000000
  0.000000  0.250000 -0.000000      2.000000
  0.083333  0.250000 -0.000000      2.000000
  0.166667  0.250000  0.000000      2.000000
  0.250000  0.250000 -0.000000      2.000000
  0.333333  0.250000  0.000000      2.000000
  0.416667  0.250000 -0.000000      2.000000
  0.500000  0.250000  0.000000      2.000000
 -0.416667  0.250000 -0.000000      2.000000
 -0.333333  0.250000 -0.000000      2.000000
 -0.250000  0.250000 -0.000000      2.000000
 -0.166667  0.250000 -0.000000      2.000000
 -0.083333  0.250000  0.000000      2.000000
  0.000000  0.333333  0.000000      2.000000
  0.083333  0.333333 -0.000000      2.000000
  0.166667  0.333333  0.000000      2.000000
  0.250000  0.333333  0.000000      2.000000
  0.333333  0.333333  0.000000      2.000000
  0.416667  0.333333  0.000000      2.000000
  0.500000  0.333333  0.000000      2.000000
 -0.416667  0.333333  0.000000      2.000000
 -0.333333  0.333333  0.000000      2.000000
 -0.250000  0.333333  0.000000      2.000000
 -0.166667  0.333333  0.000000      2.000000
 -0.083333  0.333333  0.000000      2.000000
  0.000000  0.416667  0.000000      2.000000
  0.083333  0.416667  0.000000      2.000000
  0.166667  0.416667  0.000000      2.000000
  0.250000  0.416667  0.000000      2.000000
  0.333333  0.416667  0.000000      2.000000
[...]
  0.333333  0.416667  0.500000      2.000000
  0.416667  0.416667  0.500000      2.000000
  0.500000  0.416667  0.500000      2.000000
 -0.416667  0.416667  0.500000      2.000000
 -0.333333  0.416667  0.500000      2.000000
 -0.250000  0.416667  0.500000      2.000000
 -0.166667  0.416667  0.500000      2.000000
 -0.083333  0.416667  0.500000      2.000000
  0.000000  0.500000  0.500000      1.000000
  0.083333  0.500000  0.500000      2.000000
  0.166667  0.500000  0.500000      2.000000
  0.250000  0.500000  0.500000      2.000000
  0.333333  0.500000  0.500000      2.000000
  0.416667  0.500000  0.500000      2.000000
  0.500000  0.500000  0.500000      1.000000

 Following cartesian coordinates:
            Coordinates               Weight
  0.000000  0.000000  0.000000      1.000000
  0.025703  0.009087  0.015740      2.000000
  0.051407  0.018175  0.031479      2.000000
  0.077110  0.027262  0.047219      2.000000
  0.102814  0.036350  0.062959      2.000000
  0.128517  0.045437  0.078699      2.000000
  0.154221  0.054525  0.094438      1.000000
  0.000000  0.027263  0.015740      2.000000
  0.025703  0.036350  0.031479      2.000000
  0.051407  0.045438  0.047219      2.000000
  0.077110  0.054525  0.062959      2.000000
  0.102814  0.063612  0.078699      2.000000
  0.128517  0.072700  0.094438      2.000000
  0.154221  0.081787  0.110178      2.000000
 -0.128517 -0.018175 -0.062959      2.000000
 -0.102814 -0.009087 -0.047219      2.000000
 -0.077110  0.000000 -0.031479      2.000000
 -0.051407  0.009088 -0.015740      2.000000
 -0.025703  0.018175  0.000000      2.000000
  0.000000  0.054525  0.031479      2.000000
  0.025703  0.063613  0.047219      2.000000
  0.051407  0.072700  0.062959      2.000000
  0.077110  0.081788  0.078699      2.000000
  0.102814  0.090875  0.094438      2.000000
  0.128517  0.099962  0.110178      2.000000
  0.154221  0.109050  0.125918      2.000000
 -0.128517  0.009088 -0.047219      2.000000
 -0.102814  0.018175 -0.031479      2.000000
 -0.077110  0.027263 -0.015740      2.000000
 -0.051407  0.036350  0.000000      2.000000
 -0.025703  0.045438  0.015740      2.000000
  0.000000  0.081788  0.047219      2.000000
  0.025703  0.090875  0.062959      2.000000
  0.051407  0.099963  0.078699      2.000000
  0.077110  0.109050  0.094438      2.000000
  0.102814  0.118138  0.110178      2.000000
  0.128517  0.127225  0.125918      2.000000
  0.154221  0.136313  0.141658      2.000000
 -0.128517  0.036351 -0.031479      2.000000
 -0.102814  0.045438 -0.015740      2.000000
 -0.077110  0.054526  0.000000      2.000000
 -0.051407  0.063613  0.015740      2.000000
 -0.025703  0.072700  0.031479      2.000000
  0.000000  0.109050  0.062959      2.000000
  0.025703  0.118138  0.078699      2.000000
  0.051407  0.127225  0.094438      2.000000
  0.077110  0.136313  0.110178      2.000000
  0.102814  0.145400  0.125918      2.000000
  0.128517  0.154488  0.141658      2.000000
  0.154221  0.163575  0.157397      2.000000
 -0.128517  0.063613 -0.015740      2.000000
 -0.102814  0.072701  0.000000      2.000000
 -0.077110  0.081788  0.015740      2.000000
 -0.051407  0.090876  0.031479      2.000000
 -0.025703  0.099963  0.047219      2.000000
  0.000000  0.136313  0.078699      2.000000
  0.025703  0.145401  0.094438      2.000000
  0.051407  0.154488  0.110178      2.000000
  0.077110  0.163575  0.125918      2.000000
  0.102814  0.172663  0.141658      2.000000
[...]
  0.102814  0.172663  0.330538      2.000000
  0.128517  0.181750  0.346277      2.000000
  0.154221  0.190838  0.362017      2.000000
 -0.128517  0.090876  0.188880      2.000000
 -0.102814  0.099963  0.204620      2.000000
 -0.077110  0.109051  0.220359      2.000000
 -0.051407  0.118138  0.236099      2.000000
 -0.025703  0.127226  0.251839      2.000000
  0.000000  0.163576  0.283318      1.000000
  0.025703  0.172663  0.299058      2.000000
  0.051407  0.181751  0.314798      2.000000
  0.077110  0.190838  0.330538      2.000000
  0.102814  0.199926  0.346277      2.000000
  0.128517  0.209013  0.362017      2.000000
  0.154221  0.218100  0.377757      1.000000

 SYSTEM =  Cn_BCC
 POSCAR =  Cn BCC

 Startparameter for this run:
   NWRITE =      2    write-flag & timer
   PREC   = accura    normal or accurate (medium, high low for compatibility)
   ISTART =      0    job   : 0-new  1-cont  2-samecut
   ICHARG =      2    charge: 1-file 2-atom 10-const
   ISPIN  =      1    spin polarized calculation?
   LNONCOLLINEAR =      T non collinear calculations
   LSORBIT =      T    spin-orbit coupling
   INIWAV =      1    electr: 0-lowe 1-rand  2-diag
   LASPH  =      F    aspherical Exc in radial PAW
   METAGGA=      F    non-selfconsistent MetaGGA calc.

 Electronic Relaxation 1
   ENCUT  =  600.0 eV  44.10 Ry    6.64 a.u.   6.48  6.48  6.48*2*pi/ulx,y,z
   ENINI  =  600.0     initial cutoff
   ENAUG  =  361.0 eV  augmentation charge cutoff
   NELM   =    100;   NELMIN=  5; NELMDL= -5     # of ELM steps
   EDIFF  = 0.1E-06   stopping-criterion for ELM
   LREAL  =      F    real-space projection
   NLSPLINE    = F    spline interpolate recip. space projectors
   LCOMPAT=      F    compatible to vasp.4.4
   GGA_COMPAT  = F    GGA compatible to vasp.4.4-vasp.4.6
   LMAXPAW     = -100 max onsite density
   LMAXMIX     =    2 max onsite mixed and CHGCAR
   VOSKOWN=      0    Vosko Wilk Nusair interpolation
   ROPT   =    0.00000
 Ionic relaxation
   EDIFFG = 0.1E-04   stopping-criterion for IOM
[...]
 k-point 48 :   0.3333 0.3333 0.0000  plane waves:    1730
 k-point 49 :   0.4167 0.3333 0.0000  plane waves:    1740
 k-point 50 :   0.5000 0.3333 0.0000  plane waves:    1744
 k-point 51 :  -0.4167 0.3333 0.0000  plane waves:    1746
 k-point 52 :  -0.3333 0.3333 0.0000  plane waves:    1752
 k-point 53 :  -0.2500 0.3333 0.0000  plane waves:    1766
 k-point 54 :  -0.1667 0.3333 0.0000  plane waves:    1762
 k-point 55 :  -0.0833 0.3333 0.0000  plane waves:    1766
 k-point 56 :   0.0000 0.4167 0.0000  plane waves:    1740
 k-point 57 :   0.0833 0.4167 0.0000  plane waves:    1726
 k-point 58 :   0.1667 0.4167 0.0000  plane waves:    1746
 k-point 59 :   0.2500 0.4167 0.0000  plane waves:    1740
 k-point 60 :   0.3333 0.4167 0.0000  plane waves:    1740
[...]
 k-point 85 :  -0.1667 0.0000 0.0833  plane waves:    1790
 k-point 86 :  -0.0833 0.0000 0.0833  plane waves:    1822
 k-point 87 :   0.0000 0.0833 0.0833  plane waves:    1790
 k-point 88 :   0.0833 0.0833 0.0833  plane waves:    1756
 k-point 89 :   0.1667 0.0833 0.0833  plane waves:    1748
 k-point 90 :   0.2500 0.0833 0.0833  plane waves:    1752
 k-point 91 :   0.3333 0.0833 0.0833  plane waves:    1750
 k-point 92 :   0.4167 0.0833 0.0833  plane waves:    1752
 k-point 93 :   0.5000 0.0833 0.0833  plane waves:    1750
 k-point 94 :  -0.4167 0.0833 0.0833  plane waves:    1752
 k-point 95 :  -0.3333 0.0833 0.0833  plane waves:    1748
 k-point 96 :  -0.2500 0.0833 0.0833  plane waves:    1756
 k-point 97 :  -0.1667 0.0833 0.0833  plane waves:    1790
 k-point 98 :  -0.0833 0.0833 0.0833  plane waves:    1806
 k-point 99 :   0.0000 0.1667 0.0833  plane waves:    1774
 k-point ** :   0.0833 0.1667 0.0833  plane waves:    1748
 k-point ** :   0.1667 0.1667 0.0833  plane waves:    1752
 k-point ** :   0.2500 0.1667 0.0833  plane waves:    1754
 k-point ** :   0.3333 0.1667 0.0833  plane waves:    1752
 k-point ** :   0.4167 0.1667 0.0833  plane waves:    1752
 k-point ** :   0.5000 0.1667 0.0833  plane waves:    1754
 k-point ** :  -0.4167 0.1667 0.0833  plane waves:    1752
 k-point ** :  -0.3333 0.1667 0.0833  plane waves:    1748
 k-point ** :  -0.2500 0.1667 0.0833  plane waves:    1774
 k-point ** :  -0.1667 0.1667 0.0833  plane waves:    1780
 k-point ** :  -0.0833 0.1667 0.0833  plane waves:    1780
 k-point ** :   0.0000 0.2500 0.0833  plane waves:    1766
 k-point ** :   0.0833 0.2500 0.0833  plane waves:    1752
 k-point ** :   0.1667 0.2500 0.0833  plane waves:    1754
 k-point ** :   0.2500 0.2500 0.0833  plane waves:    1748
 k-point ** :   0.3333 0.2500 0.0833  plane waves:    1748
 k-point ** :   0.4167 0.2500 0.0833  plane waves:    1748
 k-point ** :   0.5000 0.2500 0.0833  plane waves:    1754
 k-point ** :  -0.4167 0.2500 0.0833  plane waves:    1752
 k-point ** :  -0.3333 0.2500 0.0833  plane waves:    1766
 k-point ** :  -0.2500 0.2500 0.0833  plane waves:    1768
 k-point ** :  -0.1667 0.2500 0.0833  plane waves:    1768
 k-point ** :  -0.0833 0.2500 0.0833  plane waves:    1768
 k-point ** :   0.0000 0.3333 0.0833  plane waves:    1746
 k-point ** :   0.0833 0.3333 0.0833  plane waves:    1750
 k-point ** :   0.1667 0.3333 0.0833  plane waves:    1752
 k-point ** :   0.2500 0.3333 0.0833  plane waves:    1748
 k-point ** :   0.3333 0.3333 0.0833  plane waves:    1748
 k-point ** :   0.4167 0.3333 0.0833  plane waves:    1752
 k-point ** :   0.5000 0.3333 0.0833  plane waves:    1750
 k-point ** :  -0.4167 0.3333 0.0833  plane waves:    1746
 k-point ** :  -0.3333 0.3333 0.0833  plane waves:    1760
 k-point ** :  -0.2500 0.3333 0.0833  plane waves:    1758
 k-point ** :  -0.1667 0.3333 0.0833  plane waves:    1758
 k-point ** :  -0.0833 0.3333 0.0833  plane waves:    1760
 k-point ** :   0.0000 0.4167 0.0833  plane waves:    1726
 k-point ** :   0.0833 0.4167 0.0833  plane waves:    1752
 k-point ** :   0.1667 0.4167 0.0833  plane waves:    1752
 k-point ** :   0.2500 0.4167 0.0833  plane waves:    1748
 k-point ** :   0.3333 0.4167 0.0833  plane waves:    1752
 k-point ** :   0.4167 0.4167 0.0833  plane waves:    1752
 k-point ** :   0.5000 0.4167 0.0833  plane waves:    1726
 k-point ** :  -0.4167 0.4167 0.0833  plane waves:    1736
 k-point ** :  -0.3333 0.4167 0.0833  plane waves:    1744
 k-point ** :  -0.2500 0.4167 0.0833  plane waves:    1752
 k-point ** :  -0.1667 0.4167 0.0833  plane waves:    1744
 k-point ** :  -0.0833 0.4167 0.0833  plane waves:    1736
 k-point ** :   0.0000 0.5000 0.0833  plane waves:    1726
 k-point ** :   0.0833 0.5000 0.0833  plane waves:    1750
 k-point ** :   0.1667 0.5000 0.0833  plane waves:    1754
 k-point ** :   0.2500 0.5000 0.0833  plane waves:    1754
 k-point ** :   0.3333 0.5000 0.0833  plane waves:    1750
 k-point ** :   0.4167 0.5000 0.0833  plane waves:    1726
 k-point ** :   0.5000 0.5000 0.0833  plane waves:    1716
 k-point ** :  -0.4167 0.5000 0.0833  plane waves:    1740
 k-point ** :  -0.3333 0.5000 0.0833  plane waves:    1740
 k-point ** :  -0.2500 0.5000 0.0833  plane waves:    1740
 k-point ** :  -0.1667 0.5000 0.0833  plane waves:    1740
 k-point ** :  -0.0833 0.5000 0.0833  plane waves:    1716
 k-point ** :   0.0000-0.4167 0.0833  plane waves:    1746
[...]
 k-point ** :   0.3333 0.4167 0.5000  plane waves:    1742
 k-point ** :   0.4167 0.4167 0.5000  plane waves:    1746
 k-point ** :   0.5000 0.4167 0.5000  plane waves:    1732
 k-point ** :  -0.4167 0.4167 0.5000  plane waves:    1732
 k-point ** :  -0.3333 0.4167 0.5000  plane waves:    1746
 k-point ** :  -0.2500 0.4167 0.5000  plane waves:    1742
 k-point ** :  -0.1667 0.4167 0.5000  plane waves:    1752
 k-point ** :  -0.0833 0.4167 0.5000  plane waves:    1740
 k-point ** :   0.0000 0.5000 0.5000  plane waves:    1740
 k-point ** :   0.0833 0.5000 0.5000  plane waves:    1716
 k-point ** :   0.1667 0.5000 0.5000  plane waves:    1740
 k-point ** :   0.2500 0.5000 0.5000  plane waves:    1744
 k-point ** :   0.3333 0.5000 0.5000  plane waves:    1744
 k-point ** :   0.4167 0.5000 0.5000  plane waves:    1732
 k-point ** :   0.5000 0.5000 0.5000  plane waves:    1712

 maximum and minimum number of plane-waves per node :       488      404

 maximum number of plane-waves:      1822
 maximum index in each direction:
   IXMAX=    6   IYMAX=    6   IZMAX=    6
   IXMIN=   -6   IYMIN=   -6   IZMIN=   -6

 parallel 3D FFT for wavefunctions:
    minimum data exchange during FFTs selected (reduces bandwidth)
 parallel 3D FFT for charge:
    minimum data exchange during FFTs selected (reduces bandwidth)

 Broyden mixing: mesh for mixing (old mesh)
   NGX = 13   NGY = 13   NGZ = 13
  (NGX  = 56   NGY  = 56   NGZ  = 56)
  gives a total of   2197 points

 initial charge density was supplied:
 charge density of overlapping atoms calculated
 number of electron      12.0000000 magnetization       1.0000000      1.0000000      1.0000000
 keeping initial charge density in first step

 Maximum index for augmentation-charges        24327 (set IRDMAX)

 First call to EWALD:  gamma=   0.597
 Maximum number of real-space cells 3x 3x 3
 Maximum number of reciprocal cells 3x 3x 3

--------------------------------------- Iteration      1(   1)  ---------------------------------------

 eigenvalue-minimisations  : 44840
 total energy-change (2. order) : 0.1363979E+03  (-0.6188814E+03)
 number of electron      12.0000000 magnetization       1.0000000      1.0000000      1.0000000
 augmentation part       12.0000000 magnetization       1.0000000      1.0000000      1.0000000

 Free energy of the ion-electron system (eV)
  alpha Z        PSCENC =        85.78503292
  Ewald energy   TEWEN  =     -1007.86219743
  -Hartree energ DENC   =      -133.33797667
  -exchange      EXHF   =         0.00000000
  -V(xc)+E(xc)   XCENC  =      -106.99108688
  PAW double counting   =      1058.27927662     -922.49089664
  entropy T*S    EENTRO =         0.00006294
  eigenvalues    EBANDS =       140.26877039
  atomic energy  EATOM  =      1022.74693792
  Solvation  Ediel_sol  =         0.00000000
  free energy    TOTEN  =       136.39792316 eV

  energy without entropy =      136.39786023  energy(sigma->0) =      136.39790218

[...]

 eigenvalue-minimisations  : 42288
 total energy-change (2. order) :-0.1302118E+03  (-0.1052725E+03)
 number of electron      12.0000000 magnetization       1.0000000      1.0000000      1.0000000
 augmentation part       12.0000000 magnetization       1.0000000      1.0000000      1.0000000

[...]

 Broyden mixing:
  rms(total) = 0.54822E+00    rms(broyden)= 0.54822E+00
  rms(prec ) = 0.74632E+00
  weight for this iteration     100.00

[...]

 eigenvalues of (default mixing * dielectric matrix)
  average eigenvalue GAMMA=   0.7485
  0.7485

[...]

 eigenvalue-minimisations  : 46446
 total energy-change (2. order) : 0.8514754E-04  (-0.1458845E-04)
 number of electron      12.0000000 magnetization       0.0002166      0.0002156      0.0002104
 augmentation part        1.6175863 magnetization       0.0003603      0.0003607      0.0003619

[...]

 Broyden mixing:
  rms(total) = 0.92199E-04    rms(broyden)= 0.92196E-04
  rms(prec ) = 0.13442E-03
  weight for this iteration     100.00

 eigenvalues of (default mixing * dielectric matrix)
  average eigenvalue GAMMA=   1.3076
  2.8443  2.4953  1.3309  1.0116  0.7507  0.7507  0.6479  0.6291

[...]

--------------------------------------- Iteration      1(  14)  ---------------------------------------

 eigenvalue-minimisations  : 32807
 total energy-change (2. order) :-0.6421374E-07  (-0.7712389E-08)
 number of electron      12.0000000 magnetization      -0.0000050     -0.0000051     -0.0000054
 augmentation part        1.6175671 magnetization      -0.0000057     -0.0000058     -0.0000067

 Free energy of the ion-electron system (eV)
  alpha Z        PSCENC =        85.78503292
  Ewald energy   TEWEN  =     -1007.86219743
  -Hartree energ DENC   =      -128.04018457
  -exchange      EXHF   =         0.00000000
  -V(xc)+E(xc)   XCENC  =      -107.38359665
  PAW double counting   =      1056.25318652     -921.01642883
  entropy T*S    EENTRO =        -0.00003883
  eigenvalues    EBANDS =        -1.96570836
  atomic energy  EATOM  =      1022.74693792
  Solvation  Ediel_sol  =         0.00000000
  free energy    TOTEN  =        -1.48299730 eV

  energy without entropy =       -1.48295848  energy(sigma->0) =       -1.48298436

 average (electrostatic) potential at core
  the test charge radii are     1.2024
  (the norm of the test charge is              1.0000)
       1 -63.7783

 E-fermi :   3.2374     XC(G=0): -11.5312     alpha+bet : -8.8692

 k-point     1 :       0.0000    0.0000    0.0000
  band No.  band energies     occupation
      1      -5.7516      1.00000
      2      -5.7516      1.00000
      3      -2.0208      1.00000
      4      -2.0208      1.00000
      5      -2.0208      1.00000
      6      -2.0208      1.00000
      7       0.6585      1.00000
      8       0.6585      1.00000
      9       1.5840      1.00000
     10       1.5840      1.00000
     11       1.5841      1.00000
     12       1.5841      1.00000
     13      13.7132      0.00000
     14      13.7132      0.00000
     15      18.2653      0.00000
     16      18.2653      0.00000
     17      18.2653      0.00000
     18      18.2653      0.00000
     19      18.2655      0.00000
     20      18.2655      0.00000
     21      22.9404      0.00000
     22      22.9853      0.00000
     23      23.3835      0.00000
     24      23.3850      0.00000

[...]

 k-point   868 :       0.5000    0.5000    0.5000
  band No.  band energies     occupation
      1      -2.2494      1.00000
      2      -2.2494      1.00000
      3      -2.2494      1.00000
      4      -2.2494      1.00000
      5       1.3579      1.00000
      6       1.3579      1.00000
      7       1.3579      1.00000
      8       1.3579      1.00000
      9       2.9038      1.00001
     10       2.9038      1.00001
     11       3.3078      0.03861
     12       3.3078      0.03861
     13       5.2469     -0.00000
     14       5.2469     -0.00000
     15      10.0970      0.00000
     16      10.0970      0.00000
     17      10.0970      0.00000
     18      10.0970      0.00000
     19      17.0972      0.00000
     20      17.0972      0.00000
     21      17.0972      0.00000
     22      17.0972      0.00000
     23      24.1508      0.00000
     24      24.1508      0.00000

 soft charge-density along one line, spin component           1
         0         1         2         3         4         5         6         7         8         9
 total charge-density along one line

[...]

 soft charge-density along one line, spin component           4
         0         1         2         3         4         5         6         7         8         9
 total charge-density along one line

------------------------ aborting loop because EDIFF is reached ----------------------------------------

  FORCE on cell =-STRESS in cart. coord.  units (eV):
  Direction    XX          YY          ZZ          XY          YZ          ZX
  Alpha Z    85.78503    85.78503    85.78503
  Ewald    -335.95294  -335.95350  -335.95573    -0.00079    -0.00193    -0.00137
  Hartree    42.68056    42.68033    42.67937    -0.00034    -0.00083    -0.00058
  E(xc)     -71.02320   -71.02320   -71.02321    -0.00000    -0.00001    -0.00000
  Local      45.69861    45.69938    45.70251     0.00110     0.00271     0.00191
  n-local   -48.02381   -48.02382   -48.02384    -0.00001    -0.00002    -0.00001
  augment    20.79501    20.79501    20.79502     0.00000     0.00001     0.00001
  Kinetic   260.04106   260.04108   260.04116     0.00003     0.00007     0.00005
  Fock        0.00000     0.00000     0.00000     0.00000     0.00000     0.00000
  Total       0.00033     0.00032     0.00032    -0.00001     0.00000    -0.00000
  in kB       0.02045     0.01954     0.01970    -0.00053     0.00015    -0.00013

 VOLUME and BASIS-vectors are now :
  energy-cutoff  :      600.00
  volume of cell :       26.23
      direct lattice vectors                 reciprocal lattice vectors
     3.242102804  0.000000000  0.000000000     0.308441792  0.109049309  0.188876893
    -1.080689200  3.056687986  0.000000000     0.000000000  0.327151481  0.188876893
    -1.080689200 -1.528319100  2.647183819     0.000000000  0.000000000  0.377759940

  length of vectors
     3.242102804  3.242102804  3.242102804     0.377759940  0.377759940  0.377759940

 FORCES acting on ions
    electron-ion (+dipol)            ewald-force                    non-local-force                 convergence-correction
   -.476E-14 0.153E-14 -.162E-14   -.136E-14 -.342E-15 -.120E-14   0.424E-21 0.424E-21 0.000E+00   0.131E-14 -.456E-14 -.133E-14
   -.476E-14 0.153E-14 -.162E-14   -.136E-14 -.342E-15 -.120E-14   0.424E-21 0.424E-21 0.000E+00   0.131E-14 -.456E-14 -.133E-14

 POSITION                                       TOTAL-FORCE (eV/Angst)
      0.00000      0.00000      0.00000        -0.000000      0.000000      0.000000
    total drift:                               -0.000000     -0.000000     -0.000000

  FREE ENERGIE OF THE ION-ELECTRON SYSTEM (eV)
  free  energy   TOTEN  =        -1.48299730 eV

  energy  without entropy=       -1.48295848  energy(sigma->0) =       -1.48298436

 Quasi-Newton relaxation of ions (Broydens 2nd method)
  g(Force)  = 0.000E+00   g(Stress)= 0.307E-08

 Reset! Starting new Quasi-Newton update for ions

 reached required accuracy - stopping structural energy minimisation

 Spin-Orbit-Coupling matrix elements

 Ion:    1  E_soc:     -2.8473709
 l=   1
     0.0000000    -0.1433344    -0.1433355
    -0.1433344     0.0000000    -0.1433346
    -0.1433355    -0.1433346     0.0000000
 l=   2
     0.0000000    -0.0651807     0.0000000    -0.0634065    -0.2660467
    -0.0651807     0.0000000    -0.2008651    -0.0651807    -0.0669551
     0.0000000    -0.2008651     0.0000000    -0.1982039     0.0000000
    -0.0634065    -0.0651807    -0.1982039     0.0000000    -0.0678423
    -0.2660467    -0.0669551     0.0000000    -0.0678423     0.0000000
 l=   3
     0.0000000     0.0000000     0.0000000     0.0000000     0.0000000     0.0000000     0.0000000
     0.0000000     0.0000000     0.0000000     0.0000000     0.0000000     0.0000000     0.0000000
     0.0000000     0.0000000     0.0000000     0.0000000     0.0000000     0.0000000     0.0000000
     0.0000000     0.0000000     0.0000000     0.0000000     0.0000000     0.0000000     0.0000000
     0.0000000     0.0000000     0.0000000     0.0000000     0.0000000     0.0000000     0.0000000
     0.0000000     0.0000000     0.0000000     0.0000000     0.0000000     0.0000000     0.0000000
     0.0000000     0.0000000     0.0000000     0.0000000     0.0000000     0.0000000     0.0000000