 vasp.5.4.4.18Apr17-6-g9f103f2a35 (build Nov 03 2018 10:20:46) complex

 executed on             LinuxIFC date 2018.12.21  18:35:43

 INCAR:
 POTCAR:    PAW_PBE Rn_d_GW 14Apr2014

 POTCAR:    PAW_PBE Rn_d_GW 14Apr2014
   VRHFIN =Rn:

   TITEL  = PAW_PBE Rn_d_GW 14Apr2014
   POMASS =  220.170; ZVAL   =   18.000    mass and valenz
   ENMAX  =  268.495; ENMIN  =  201.371 eV

  PAW_PBE Rn_d_GW 14Apr2014             :

 POSCAR: Rn_FCC
  positions in direct lattice
  velocities in cartesian coordinates
 exchange correlation table for  LEXCH =        8
   RHO(1)=    0.500       N(1)  =     2000
   RHO(2)=  100.500       N(2)  =     4000

 ion  position               nearest neighbor table
   1  0.000  0.000  0.000-

IMPORTANT INFORMATION: All symmetrisations will be switched off!
NOSYMM: (Re-)initialisation of all symmetry stuff for point group C_1.

 KPOINTS: k-points

Automatic generation of k-mesh.
Space group operators:
 irot       det(A)        alpha          n_x          n_y          n_z        tau_x        tau_y        tau_z
    1     1.000000     0.000000     1.000000     0.000000     0.000000     0.000000     0.000000     0.000000

 Subroutine IBZKPT returns following result:

 Found    172 irreducible k-points:

 Following reciprocal coordinates:
            Coordinates               Weight
  0.000000  0.000000  0.000000      1.000000
  0.142857 -0.000000 -0.000000      2.000000
  0.285714  0.000000 -0.000000      2.000000
  0.428571  0.000000  0.000000      2.000000
  0.000000  0.142857  0.000000      2.000000
  0.142857  0.142857 -0.000000      2.000000
  0.285714  0.142857 -0.000000      2.000000
  0.428571  0.142857  0.000000      2.000000
 -0.428571  0.142857 -0.000000      2.000000
 -0.285714  0.142857  0.000000      2.000000
 -0.142857  0.142857 -0.000000      2.000000
  0.000000  0.285714  0.000000      2.000000
  0.142857  0.285714 -0.000000      2.000000
  0.285714  0.285714 -0.000000      2.000000
  0.428571  0.285714  0.000000      2.000000
 -0.428571  0.285714  0.000000      2.000000
 -0.285714  0.285714  0.000000      2.000000
 -0.142857  0.285714 -0.000000      2.000000
  0.000000  0.428571  0.000000      2.000000
  0.142857  0.428571  0.000000      2.000000
  0.285714  0.428571  0.000000      2.000000
  0.428571  0.428571  0.000000      2.000000
 -0.428571  0.428571 -0.000000      2.000000
 -0.285714  0.428571 -0.000000      2.000000
 -0.142857  0.428571  0.000000      2.000000
  0.000000  0.000000  0.142857      2.000000
  0.142857 -0.000000  0.142857      2.000000
  0.285714 -0.000000  0.142857      2.000000
  0.428571  0.000000  0.142857      2.000000
 -0.428571 -0.000000  0.142857      2.000000
 -0.285714 -0.000000  0.142857      2.000000
 -0.142857  0.000000  0.142857      2.000000
 -0.000000  0.142857  0.142857      2.000000
  0.142857  0.142857  0.142857      2.000000
  0.285714  0.142857  0.142857      2.000000
  0.428571  0.142857  0.142857      2.000000
 -0.428571  0.142857  0.142857      2.000000
 -0.285714  0.142857  0.142857      2.000000
 -0.142857  0.142857  0.142857      2.000000
 -0.000000  0.285714  0.142857      2.000000
  0.142857  0.285714  0.142857      2.000000
  0.285714  0.285714  0.142857      2.000000
  0.428571  0.285714  0.142857      2.000000
 -0.428571  0.285714  0.142857      2.000000
 -0.285714  0.285714  0.142857      2.000000
 -0.142857  0.285714  0.142857      2.000000
 -0.000000  0.428571  0.142857      2.000000
  0.142857  0.428571  0.142857      2.000000
  0.285714  0.428571  0.142857      2.000000
  0.428571  0.428571  0.142857      2.000000
 -0.428571  0.428571  0.142857      2.000000
 -0.285714  0.428571  0.142857      2.000000
 -0.142857  0.428571  0.142857      2.000000
  0.000000 -0.428571  0.142857      2.000000
  0.142857 -0.428571  0.142857      2.000000
  0.285714 -0.428571  0.142857      2.000000
  0.428571 -0.428571  0.142857      2.000000
 -0.428571 -0.428571  0.142857      2.000000
 -0.285714 -0.428571  0.142857      2.000000
 -0.142857 -0.428571  0.142857      2.000000
[...]
 -0.142857 -0.428571  0.428571      2.000000
 -0.000000 -0.285714  0.428571      2.000000
  0.142857 -0.285714  0.428571      2.000000
  0.285714 -0.285714  0.428571      2.000000
  0.428571 -0.285714  0.428571      2.000000
 -0.428571 -0.285714  0.428571      2.000000
 -0.285714 -0.285714  0.428571      2.000000
 -0.142857 -0.285714  0.428571      2.000000
 -0.000000 -0.142857  0.428571      2.000000
  0.142857 -0.142857  0.428571      2.000000
  0.285714 -0.142857  0.428571      2.000000
  0.428571 -0.142857  0.428571      2.000000
 -0.428571 -0.142857  0.428571      2.000000
 -0.285714 -0.142857  0.428571      2.000000
 -0.142857 -0.142857  0.428571      2.000000

 Following cartesian coordinates:
            Coordinates               Weight
  0.000000  0.000000  0.000000      1.000000
  0.031602 -0.018245 -0.012901      2.000000
  0.063203 -0.036490 -0.025803      2.000000
  0.094805 -0.054736 -0.038704      2.000000
  0.000000  0.036490 -0.012901      2.000000
  0.031602  0.018245 -0.025803      2.000000
  0.063203  0.000000 -0.038704      2.000000
  0.094805 -0.018245 -0.051605      2.000000
 -0.094805  0.091226  0.025803      2.000000
 -0.063203  0.072981  0.012901      2.000000
 -0.031602  0.054736  0.000000      2.000000
  0.000000  0.072981 -0.025803      2.000000
  0.031602  0.054736 -0.038704      2.000000
  0.063203  0.036490 -0.051605      2.000000
  0.094805  0.018245 -0.064507      2.000000
 -0.094805  0.127716  0.012901      2.000000
 -0.063203  0.109471  0.000000      2.000000
 -0.031602  0.091226 -0.012901      2.000000
  0.000000  0.109471 -0.038704      2.000000
  0.031602  0.091226 -0.051605      2.000000
  0.063203  0.072981 -0.064507      2.000000
  0.094805  0.054736 -0.077408      2.000000
 -0.094805  0.164207  0.000000      2.000000
 -0.063203  0.145962 -0.012901      2.000000
 -0.031602  0.127716 -0.025803      2.000000
 -0.000000  0.000000  0.038704      2.000000
  0.031602 -0.018245  0.025803      2.000000
  0.063203 -0.036490  0.012901      2.000000
  0.094805 -0.054736 -0.000000      2.000000
 -0.094805  0.054736  0.077408      2.000000
 -0.063203  0.036490  0.064507      2.000000
 -0.031602  0.018245  0.051605      2.000000
 -0.000000  0.036490  0.025803      2.000000
  0.031602  0.018245  0.012901      2.000000
  0.063203  0.000000  0.000000      2.000000
  0.094805 -0.018245 -0.012901      2.000000
 -0.094805  0.091226  0.064507      2.000000
 -0.063203  0.072981  0.051605      2.000000
 -0.031602  0.054736  0.038704      2.000000
 -0.000000  0.072981  0.012901      2.000000
  0.031602  0.054736  0.000000      2.000000
  0.063203  0.036490 -0.012901      2.000000
  0.094805  0.018245 -0.025803      2.000000
 -0.094805  0.127716  0.051605      2.000000
 -0.063203  0.109471  0.038704      2.000000
 -0.031602  0.091226  0.025803      2.000000
 -0.000000  0.109471  0.000000      2.000000
  0.031602  0.091226 -0.012901      2.000000
  0.063203  0.072981 -0.025803      2.000000
  0.094805  0.054736 -0.038704      2.000000
 -0.094805  0.164207  0.038704      2.000000
 -0.063203  0.145962  0.025803      2.000000
 -0.031602  0.127716  0.012901      2.000000
 -0.000000 -0.109471  0.077408      2.000000
  0.031602 -0.127716  0.064507      2.000000
  0.063203 -0.145962  0.051605      2.000000
  0.094805 -0.164207  0.038704      2.000000
 -0.094805 -0.054736  0.116112      2.000000
 -0.063203 -0.072981  0.103210      2.000000
 -0.031602 -0.091226  0.090309      2.000000
[...]
 -0.031602 -0.091226  0.167717      2.000000
 -0.000000 -0.072981  0.141914      2.000000
  0.031602 -0.091226  0.129013      2.000000
  0.063203 -0.109471  0.116112      2.000000
  0.094805 -0.127716  0.103210      2.000000
 -0.094805 -0.018245  0.180618      2.000000
 -0.063203 -0.036490  0.167717      2.000000
 -0.031602 -0.054736  0.154816      2.000000
 -0.000000 -0.036490  0.129013      2.000000
  0.031602 -0.054736  0.116112      2.000000
  0.063203 -0.072981  0.103210      2.000000
  0.094805 -0.091226  0.090309      2.000000
 -0.094805  0.018245  0.167717      2.000000
 -0.063203 -0.000000  0.154816      2.000000
 -0.031602 -0.018245  0.141914      2.000000

 SYSTEM =  Og_FCC
 POSCAR =  Rn_FCC

 Startparameter for this run:
   NWRITE =      2    write-flag & timer
   PREC   = accura    normal or accurate (medium, high low for compatibility)
   ISTART =      1    job   : 0-new  1-cont  2-samecut
   ICHARG =      0    charge: 1-file 2-atom 10-const
   ISPIN  =      1    spin polarized calculation?
   LNONCOLLINEAR =      F non collinear calculations
   LSORBIT =      F    spin-orbit coupling
   INIWAV =      1    electr: 0-lowe 1-rand  2-diag
   LASPH  =      F    aspherical Exc in radial PAW
   METAGGA=      F    non-selfconsistent MetaGGA calc.

 Electronic Relaxation 1
   ENCUT  =  300.0 eV  22.05 Ry    4.70 a.u.   6.23  6.23  6.23*2*pi/ulx,y,z
   ENINI  =  300.0     initial cutoff
   ENAUG  =  715.6 eV  augmentation charge cutoff
   NELM   =     50;   NELMIN=  2; NELMDL= -5     # of ELM steps
   EDIFF  = 0.1E-07   stopping-criterion for ELM
   LREAL  =      F    real-space projection
   NLSPLINE    = F    spline interpolate recip. space projectors
   LCOMPAT=      F    compatible to vasp.4.4
   GGA_COMPAT  = F    GGA compatible to vasp.4.4-vasp.4.6
   LMAXPAW     = -100 max onsite density
   LMAXMIX     =    2 max onsite mixed and CHGCAR
   VOSKOWN=      0    Vosko Wilk Nusair interpolation
   ROPT   =    0.00000
 Ionic relaxation
   EDIFFG = 0.1E-04   stopping-criterion for IOM
   NSW    =      1    number of steps for IOM
   NBLOCK =      1;   KBLOCK =      1    inner block; outer block
   IBRION =     -1    ionic relax: 0-MD 1-quasi-New 2-CG
   NFREE  =      5    steps in history (QN), initial steepest desc. (CG)
   ISIF   =      3    stress and relaxation
   IWAVPR =     10    prediction:  0-non 1-charg 2-wave 3-comb
   ISYM   =      0    0-nonsym 1-usesym 2-fastsym
   LCORR  =      T    Harris-Foulkes like correction to forces

   POTIM  = 0.1000    time-step for ionic-motion
   TEIN   =    0.0    initial temperature
   TEBEG  =    0.0;   TEEND  =   0.0 temperature during run
   SMASS  =  -3.00    Nose mass-parameter (am)
   estimated Nose-frequenzy (Omega)   =  0.10E-29 period in steps =****** mass=  -0.445E-27a.u.
   SCALEE = 1.0000    scale energy and forces
   NPACO  =    256;   APACO  = 16.0  distance and # of slots for P.C.
   PSTRESS=    0.0 pullay stress

  Mass of Ions in am
   POMASS = 220.17
  Ionic Valenz
   ZVAL   =  18.00
  Atomic Wigner-Seitz radii
  virtual crystal weights
   VCA    =   1.00
   NELECT =      18.0000    total number of electrons
   NUPDOWN=      -1.0000    fix difference up-down

 DOS related values:
   EMIN   =  10.00;   EMAX   =-10.00  energy-range for DOS
   EFERMI =   0.00
   ISMEAR =     0;   SIGMA  =   0.00  broadening in eV -4-tet -1-fermi 0-gaus

 Electronic relaxation 2 (details)
   IALGO  =     90    algorithm
   LDIAG  =      T    sub-space diagonalisation (order eigenvalues)
   LSUBROT=      F    optimize rotation matrix (better conditioning)
   TURBO    =      0    0=normal 1=particle mesh
   IRESTART =      0    0=no restart 2=restart with 2 vectors
   NREBOOT  =      0    no. of reboots
[...]
   67.086725    0.926049    0.926049    0.926049   -0.000000   -0.000000    0.000000
   69.059864    1.010571    1.010571    1.010571   -0.000000   -0.000000   -0.000000
   71.033003    0.799012    0.799012    0.799012   -0.000000   -0.000000   -0.000000
   73.006142    0.879240    0.879240    0.879240   -0.000000   -0.000000   -0.000000
   74.979281    0.838051    0.838051    0.838051   -0.000000   -0.000000    0.000000
   76.952420    0.876574    0.876574    0.876574   -0.000000   -0.000000   -0.000000
   78.925559    0.881825    0.881825    0.881825   -0.000000   -0.000000   -0.000000
   80.898698    0.920903    0.920903    0.920903   -0.000000   -0.000000    0.000000
   82.871837    0.837822    0.837822    0.837822    0.000000   -0.000000    0.000000
   84.844976    0.873591    0.873591    0.873591    0.000000   -0.000000    0.000000
   86.818115    0.879403    0.879403    0.879403   -0.000000   -0.000000    0.000000
   88.791253    0.904651    0.904651    0.904651   -0.000000   -0.000000    0.000000
   90.764392    0.898381    0.898381    0.898381   -0.000000   -0.000000    0.000000
   92.737531    0.916075    0.916075    0.916075   -0.000000   -0.000000    0.000000
   94.710670    0.914694    0.914694    0.914694   -0.000000   -0.000000    0.000000
   96.683809    0.919363    0.919363    0.919363   -0.000000   -0.000000    0.000000
   98.656948    0.923914    0.923914    0.923914   -0.000000   -0.000000    0.000000
  100.630087    0.916512    0.916512    0.916512   -0.000000   -0.000000    0.000000
  102.603226    0.927928    0.927928    0.927928   -0.000000   -0.000000    0.000000
  104.576365    0.918805    0.918805    0.918805   -0.000000   -0.000000    0.000000
  106.549504    0.929288    0.929288    0.929288   -0.000000   -0.000000    0.000000
  108.522643    0.933443    0.933443    0.933444   -0.000000   -0.000000    0.000000
  110.495782    0.935890    0.935890    0.935890   -0.000000   -0.000000    0.000000
  112.468921    0.942467    0.942467    0.942467   -0.000000   -0.000000    0.000000
  114.442060    0.945129    0.945129    0.945129   -0.000000   -0.000000    0.000000
  116.415199    0.942304    0.942304    0.942304   -0.000000   -0.000000    0.000000
[...]
  167.716812    0.976348    0.976348    0.976347    0.000000    0.000001   -0.000000
  169.689951    0.977106    0.977106    0.977105    0.000000    0.000000   -0.000000
  171.663090    0.977807    0.977807    0.977807    0.000000    0.000000   -0.000000
  173.636229    0.978463    0.978463    0.978463    0.000000    0.000000   -0.000000
  175.609368    0.979079    0.979079    0.979079    0.000000    0.000000   -0.000000
  177.582507    0.979662    0.979662    0.979662    0.000000    0.000000   -0.000000
  179.555646    0.980214    0.980214    0.980214    0.000000    0.000000   -0.000000
  181.528785    0.980739    0.980739    0.980739    0.000000    0.000000   -0.000000
  183.501924    0.981239    0.981240    0.981239    0.000000    0.000000   -0.000000
  185.475063    0.981717    0.981717    0.981717    0.000000    0.000000   -0.000000
  187.448202    0.982174    0.982174    0.982174    0.000000    0.000000   -0.000000
  189.421341    0.982611    0.982612    0.982611    0.000000    0.000000   -0.000000
  191.394480    0.983031    0.983031    0.983031    0.000000    0.000000   -0.000000
  193.367619    0.983434    0.983434    0.983433    0.000000    0.000000   -0.000000
  195.340758    0.983820    0.983820    0.983820    0.000000    0.000000   -0.000000

  frequency dependent IMAGINARY DIELECTRIC FUNCTION (independent particle, no local field effects) current-current (2nd set in vasprun.xml)
     E(ev)      X         Y         Z        XY        YZ        ZX
    0.000000    0.000000    0.000000    0.000000    0.000000    0.000000    0.000000
    1.973139    0.000000    0.000000    0.000000    0.000000    0.000000    0.000000
    3.946278    0.000000    0.000000    0.000000    0.000000    0.000000    0.000000
    5.919417    1.597020    1.597019    1.597020    0.000000    0.000000    0.000000
    7.892556    5.394866    5.394865    5.394865    0.000001    0.000001    0.000001
    9.865695    3.727197    3.727197    3.727197    0.000000    0.000000    0.000000
   11.838834    2.206147    2.206147    2.206147   -0.000000   -0.000000   -0.000000
   13.811973    0.883699    0.883699    0.883699    0.000000    0.000000    0.000000
   15.785112    0.859479    0.859479    0.859479    0.000000    0.000000    0.000000
   17.758251    1.363760    1.363761    1.363761   -0.000000   -0.000000   -0.000000
   19.731390    0.183480    0.183480    0.183480   -0.000000   -0.000000   -0.000000
   21.704529    0.077150    0.077150    0.077150   -0.000000   -0.000000   -0.000000
   23.677668    0.176504    0.176504    0.176504    0.000000    0.000000   -0.000000
   25.650807    0.083101    0.083101    0.083101   -0.000000   -0.000000   -0.000000
   27.623946    0.069060    0.069060    0.069060    0.000001    0.000000    0.000000
   29.597084    0.059448    0.059448    0.059448   -0.000000   -0.000000   -0.000000
   31.570223    0.045729    0.045729    0.045729    0.000000    0.000000    0.000000
   33.543362    0.024099    0.024099    0.024099   -0.000000   -0.000000   -0.000000
   35.516501    0.097900    0.097900    0.097900   -0.000000   -0.000000    0.000000
   37.489640    0.015560    0.015560    0.015560   -0.000000   -0.000000   -0.000000
   39.462779    0.008719    0.008719    0.008719   -0.000000   -0.000000    0.000000
   41.435918    0.029920    0.029920    0.029920    0.000000    0.000000    0.000000
   43.409057    0.006350    0.006350    0.006350    0.000000    0.000000    0.000000
   45.382196    0.006184    0.006184    0.006184   -0.000000   -0.000000   -0.000000
   47.355335    0.044398    0.044398    0.044398   -0.000000   -0.000000    0.000000
   49.328474    0.061193    0.061193    0.061193   -0.000000   -0.000000   -0.000000
   51.301613    0.033876    0.033876    0.033876    0.000000    0.000000    0.000000
   53.274752    0.012663    0.012663    0.012663   -0.000000   -0.000000   -0.000000
   55.247891    0.287710    0.287710    0.287710    0.000000    0.000000    0.000000
   57.221030    0.055167    0.055167    0.055167    0.000000    0.000000    0.000000
   59.194169    0.059715    0.059715    0.059715   -0.000000   -0.000000   -0.000000
   61.167308    0.328548    0.328548    0.328548    0.000000    0.000000   -0.000000
   63.140447    0.204875    0.204875    0.204875    0.000000    0.000000    0.000000
   65.113586    0.036328    0.036328    0.036328   -0.000000   -0.000000    0.000000
   67.086725    0.195024    0.195024    0.195024    0.000000    0.000000    0.000000
   69.059864    0.224623    0.224623    0.224623    0.000000    0.000000    0.000000
   71.033003    0.155523    0.155523    0.155523   -0.000000   -0.000000   -0.000000
   73.006142    0.017202    0.017202    0.017202    0.000000    0.000000    0.000000
   74.979281    0.100845    0.100845    0.100845   -0.000000   -0.000000    0.000000
   76.952420    0.055894    0.055893    0.055893    0.000001    0.000000    0.000001
   78.925559    0.046111    0.046111    0.046111   -0.000000    0.000000   -0.000000
   80.898698    0.128403    0.128403    0.128403    0.000000    0.000000    0.000000
   82.871837    0.051911    0.051911    0.051911   -0.000000    0.000000   -0.000000
   84.844976    0.056101    0.056101    0.056101    0.000000    0.000000    0.000000
   86.818115    0.059564    0.059564    0.059564   -0.000000   -0.000000   -0.000000
   88.791253    0.040830    0.040830    0.040830   -0.000000    0.000000   -0.000000
   90.764392    0.045389    0.045389    0.045389   -0.000000    0.000000   -0.000000
   92.737531    0.060784    0.060784    0.060784   -0.000000    0.000000   -0.000000
   94.710670    0.021388    0.021388    0.021388   -0.000000   -0.000000   -0.000000
   96.683809    0.014840    0.014840    0.014840   -0.000000   -0.000000    0.000000
   98.656948    0.040445    0.040445    0.040445    0.000000    0.000000    0.000000
  100.630087    0.023500    0.023500    0.023500   -0.000000   -0.000000   -0.000000
  102.603226    0.024973    0.024973    0.024973    0.000000    0.000000   -0.000000
  104.576365    0.002124    0.002124    0.002124   -0.000000   -0.000000   -0.000000
  106.549504    0.016734    0.016734    0.016734    0.000000   -0.000000    0.000000
  108.522643    0.019079    0.019079    0.019079    0.000000   -0.000000    0.000000
  110.495782    0.011503    0.011503    0.011503    0.000000   -0.000000    0.000000
  112.468921    0.016927    0.016927    0.016927    0.000000   -0.000000    0.000000
  114.442060    0.004692    0.004692    0.004692   -0.000000   -0.000000   -0.000000
  116.415199    0.011942    0.011942    0.011942   -0.000000   -0.000000   -0.000000
[...]
  167.716812    0.000000    0.000000    0.000000    0.000000    0.000000    0.000000
  169.689951    0.000000    0.000000    0.000000    0.000000    0.000000    0.000000
  171.663090    0.000000    0.000000    0.000000    0.000000    0.000000    0.000000
  173.636229    0.000000    0.000000    0.000000    0.000000    0.000000    0.000000
  175.609368    0.000000    0.000000    0.000000    0.000000    0.000000    0.000000
  177.582507    0.000000    0.000000    0.000000    0.000000    0.000000    0.000000
  179.555646    0.000000    0.000000    0.000000    0.000000    0.000000    0.000000
  181.528785    0.000000    0.000000    0.000000    0.000000    0.000000    0.000000
  183.501924    0.000000    0.000000    0.000000    0.000000    0.000000    0.000000
  185.475063    0.000000    0.000000    0.000000    0.000000    0.000000    0.000000
  187.448202    0.000000    0.000000    0.000000    0.000000    0.000000    0.000000
  189.421341    0.000000    0.000000    0.000000    0.000000    0.000000    0.000000
  191.394480    0.000000    0.000000    0.000000    0.000000    0.000000    0.000000
  193.367619    0.000000    0.000000    0.000000    0.000000    0.000000    0.000000
  195.340758    0.000000    0.000000    0.000000    0.000000    0.000000    0.000000

  frequency dependent      REAL DIELECTRIC FUNCTION (independent particle, no local field effects) current-current (2nd set in vasprun.xml)
     E(ev)        X           Y           Z          XY          YZ          ZX
    0.000000    3.044289    3.045857    3.044289   -0.000000   -0.000000    0.000000
    1.973139    3.155110    3.155110    3.155110   -0.000000   -0.000000    0.000000
    3.946278    3.630792    3.630792    3.630792   -0.000000   -0.000000    0.000000
    5.919417    4.629123    4.629123    4.629123   -0.000000   -0.000000   -0.000000
    7.892556    2.299479    2.299480    2.299479    0.000000   -0.000000    0.000000
    9.865695    1.777234    1.777235    1.777234   -0.000000   -0.000000    0.000000
   11.838834   -0.331926   -0.331926   -0.331927    0.000000    0.000000    0.000000
   13.811973   -0.237374   -0.237374   -0.237374   -0.000000   -0.000000   -0.000000
   15.785112    0.195078    0.195079    0.195079   -0.000000   -0.000000   -0.000000
   17.758251    0.395356    0.395356    0.395356   -0.000000   -0.000000   -0.000000
   19.731390    0.364681    0.364681    0.364681   -0.000000   -0.000000    0.000000
   21.704529    0.395739    0.395739    0.395739   -0.000000   -0.000000    0.000000
   23.677668    0.582914    0.582914    0.582914   -0.000000   -0.000000    0.000000
   25.650807    0.654146    0.654146    0.654146   -0.000000   -0.000000   -0.000000
   27.623946    0.779297    0.779297    0.779297   -0.000000   -0.000000   -0.000000
   29.597084    0.824125    0.824125    0.824125   -0.000000   -0.000000    0.000000
   31.570223    0.803958    0.803958    0.803958   -0.000000   -0.000000    0.000000
   33.543362    0.864444    0.864444    0.864444   -0.000000   -0.000000    0.000000
   35.516501    0.896625    0.896625    0.896625   -0.000000   -0.000000    0.000000
   37.489640    0.913939    0.913939    0.913939   -0.000000   -0.000000    0.000000
   39.462779    0.955632    0.955632    0.955632   -0.000000   -0.000000    0.000000
   41.435918    0.978525    0.978525    0.978525   -0.000000   -0.000000    0.000000
   43.409057    1.005204    1.005204    1.005204   -0.000000   -0.000000    0.000000
   45.382196    1.043642    1.043642    1.043642   -0.000000   -0.000000    0.000000
   47.355335    1.072714    1.072714    1.072714   -0.000000   -0.000000   -0.000000
   49.328474    1.080007    1.080007    1.080007   -0.000000   -0.000000    0.000000
   51.301613    1.115229    1.115229    1.115229   -0.000000   -0.000000    0.000000
   53.274752    1.113533    1.113533    1.113533   -0.000000   -0.000000    0.000000
   55.247891    1.226003    1.226003    1.226003    0.000000   -0.000000    0.000000
   57.221030    1.277984    1.277984    1.277983   -0.000000   -0.000000    0.000000
   59.194169    0.857114    0.857114    0.857114   -0.000000   -0.000000    0.000000
   61.167308    1.106317    1.106317    1.106317   -0.000000   -0.000000    0.000000
   63.140447    0.960721    0.960721    0.960721   -0.000000   -0.000000   -0.000000
   65.113586    0.792699    0.792699    0.792699   -0.000000   -0.000000    0.000000
   67.086725    0.925451    0.925451    0.925451   -0.000000   -0.000000    0.000000
   69.059864    1.009762    1.009762    1.009762   -0.000000   -0.000000   -0.000000
   71.033003    0.798687    0.798687    0.798687   -0.000000   -0.000000   -0.000000
   73.006142    0.879007    0.879007    0.879007   -0.000000   -0.000000   -0.000000
   74.979281    0.837822    0.837822    0.837822   -0.000000   -0.000000    0.000000
   76.952420    0.876348    0.876348    0.876348   -0.000000   -0.000000   -0.000000
   78.925559    0.881646    0.881646    0.881646   -0.000000   -0.000000   -0.000000
   80.898698    0.920640    0.920640    0.920640   -0.000000   -0.000000    0.000000
   82.871837    0.837666    0.837666    0.837666    0.000000   -0.000000    0.000000
   84.844976    0.873449    0.873449    0.873449    0.000000   -0.000000    0.000000
   86.818115    0.879292    0.879292    0.879292   -0.000000   -0.000000    0.000000
   88.791253    0.904583    0.904583    0.904583   -0.000000   -0.000000    0.000000
   90.764392    0.898306    0.898306    0.898306   -0.000000   -0.000000    0.000000
   92.737531    0.915989    0.915989    0.915989   -0.000000   -0.000000    0.000000
   94.710670    0.914660    0.914660    0.914660   -0.000000   -0.000000    0.000000
   96.683809    0.919328    0.919328    0.919328   -0.000000   -0.000000    0.000000
   98.656948    0.923838    0.923838    0.923838   -0.000000   -0.000000    0.000000
  100.630087    0.916451    0.916451    0.916451   -0.000000   -0.000000    0.000000
  102.603226    0.927879    0.927879    0.927879   -0.000000   -0.000000    0.000000
  104.576365    0.918794    0.918794    0.918794   -0.000000   -0.000000    0.000000
  106.549504    0.929253    0.929253    0.929253   -0.000000   -0.000000    0.000000
  108.522643    0.933424    0.933424    0.933424   -0.000000   -0.000000    0.000000
  110.495782    0.935875    0.935875    0.935875   -0.000000   -0.000000    0.000000
  112.468921    0.942452    0.942452    0.942452   -0.000000   -0.000000    0.000000
  114.442060    0.945122    0.945122    0.945122   -0.000000   -0.000000    0.000000
  116.415199    0.942286    0.942286    0.942286   -0.000000   -0.000000    0.000000
[...]
  167.716812    0.976352    0.976352    0.976351    0.000000    0.000001   -0.000000
  169.689951    0.977110    0.977110    0.977109    0.000000    0.000000   -0.000000
  171.663090    0.977811    0.977811    0.977811    0.000000    0.000000   -0.000000
  173.636229    0.978466    0.978466    0.978466    0.000000    0.000000   -0.000000
  175.609368    0.979083    0.979083    0.979082    0.000000    0.000000   -0.000000
  177.582507    0.979665    0.979665    0.979665    0.000000    0.000000   -0.000000
  179.555646    0.980217    0.980217    0.980217    0.000000    0.000000   -0.000000
  181.528785    0.980742    0.980742    0.980742    0.000000    0.000000   -0.000000
  183.501924    0.981243    0.981243    0.981243    0.000000    0.000000   -0.000000
  185.475063    0.981720    0.981720    0.981720    0.000000    0.000000   -0.000000
  187.448202    0.982177    0.982177    0.982177    0.000000    0.000000   -0.000000
  189.421341    0.982614    0.982614    0.982614    0.000000    0.000000   -0.000000
  191.394480    0.983034    0.983034    0.983034    0.000000    0.000000   -0.000000
  193.367619    0.983436    0.983436    0.983436    0.000000    0.000000   -0.000000
  195.340758    0.983823    0.983823    0.983823    0.000000    0.000000   -0.000000

 The outermost node in the dielectric function lies at epsilon=  14.6