 vasp.5.4.4.18Apr17-6-g9f103f2a35 (build Nov 03 2018 10:20:46) complex

 executed on             LinuxIFC date 2019.01.01  14:53:18

 INCAR:
 POTCAR:    PAW-PBE Og 26VE, fit to 4cPBE, JanMewe

 POTCAR:    PAW-PBE Og 26VE, fit to 4cPBE, JanMewe
   VRHFIN =Og : 6s2 6p6 6d10 7s2 7p6

   TITEL  = PAW-PBE Og 26VE, fit to 4cPBE, JanMewes
   POMASS =    0.010; ZVAL   =   26.000    mass and valenz
   ENMAX  =  376.602; ENMIN  =  282.451 eV
   QCUT   =   -5.261; QGAM   =   10.522    optimization parameters

  PAW-PBE Og 26VE, fit to 4cPBE, JanMewe:

 POSCAR: Og_FCC
  positions in direct lattice
  velocities in cartesian coordinates
 exchange correlation table for  LEXCH =        8
   RHO(1)=    0.500       N(1)  =     2000
   RHO(2)=  100.500       N(2)  =     4000

 ion  position               nearest neighbor table
   1  0.000  0.000  0.000-

IMPORTANT INFORMATION: All symmetrisations will be switched off!
NOSYMM: (Re-)initialisation of all symmetry stuff for point group C_1.

 KPOINTS: k-points

Automatic generation of k-mesh.
Space group operators:
 irot       det(A)        alpha          n_x          n_y          n_z        tau_x        tau_y        tau_z
    1     1.000000     0.000000     1.000000     0.000000     0.000000     0.000000     0.000000     0.000000

 Subroutine IBZKPT returns following result:

 Found    216 irreducible k-points:

 Following reciprocal coordinates:
            Coordinates               Weight
  0.000000  0.000000  0.000000      1.000000
  0.166667 -0.000000 -0.000000      1.000000
  0.333333 -0.000000  0.000000      1.000000
  0.500000 -0.000000  0.000000      1.000000
 -0.333333  0.000000 -0.000000      1.000000
 -0.166667  0.000000  0.000000      1.000000
 -0.000000  0.166667  0.000000      1.000000
  0.166667  0.166667  0.000000      1.000000
  0.333333  0.166667  0.000000      1.000000
  0.500000  0.166667  0.000000      1.000000
 -0.333333  0.166667 -0.000000      1.000000
 -0.166667  0.166667 -0.000000      1.000000
 -0.000000  0.333333 -0.000000      1.000000
  0.166667  0.333333 -0.000000      1.000000
  0.333333  0.333333  0.000000      1.000000
  0.500000  0.333333 -0.000000      1.000000
 -0.333333  0.333333 -0.000000      1.000000
 -0.166667  0.333333 -0.000000      1.000000
  0.000000  0.500000 -0.000000      1.000000
  0.166667  0.500000 -0.000000      1.000000
  0.333333  0.500000  0.000000      1.000000
  0.500000  0.500000  0.000000      1.000000
 -0.333333  0.500000 -0.000000      1.000000
 -0.166667  0.500000 -0.000000      1.000000
  0.000000 -0.333333  0.000000      1.000000
  0.166667 -0.333333  0.000000      1.000000
  0.333333 -0.333333  0.000000      1.000000
  0.500000 -0.333333  0.000000      1.000000
 -0.333333 -0.333333 -0.000000      1.000000
 -0.166667 -0.333333  0.000000      1.000000
  0.000000 -0.166667  0.000000      1.000000
  0.166667 -0.166667  0.000000      1.000000
  0.333333 -0.166667  0.000000      1.000000
  0.500000 -0.166667  0.000000      1.000000
 -0.333333 -0.166667  0.000000      1.000000
 -0.166667 -0.166667  0.000000      1.000000
  0.000000  0.000000  0.166667      1.000000
  0.166667 -0.000000  0.166667      1.000000
  0.333333 -0.000000  0.166667      1.000000
  0.500000 -0.000000  0.166667      1.000000
 -0.333333  0.000000  0.166667      1.000000
 -0.166667  0.000000  0.166667      1.000000
 -0.000000  0.166667  0.166667      1.000000
  0.166667  0.166667  0.166667      1.000000
  0.333333  0.166667  0.166667      1.000000
  0.500000  0.166667  0.166667      1.000000
 -0.333333  0.166667  0.166667      1.000000
 -0.166667  0.166667  0.166667      1.000000
  0.000000  0.333333  0.166667      1.000000
  0.166667  0.333333  0.166667      1.000000
  0.333333  0.333333  0.166667      1.000000
  0.500000  0.333333  0.166667      1.000000
 -0.333333  0.333333  0.166667      1.000000
 -0.166667  0.333333  0.166667      1.000000
  0.000000  0.500000  0.166667      1.000000
  0.166667  0.500000  0.166667      1.000000
  0.333333  0.500000  0.166667      1.000000
  0.500000  0.500000  0.166667      1.000000
 -0.333333  0.500000  0.166667      1.000000
 -0.166667  0.500000  0.166667      1.000000
[...]
  0.500000  0.500000 -0.166667      1.000000
 -0.333333  0.500000 -0.166667      1.000000
 -0.166667  0.500000 -0.166667      1.000000
 -0.000000 -0.333333 -0.166667      1.000000
  0.166667 -0.333333 -0.166667      1.000000
  0.333333 -0.333333 -0.166667      1.000000
  0.500000 -0.333333 -0.166667      1.000000
 -0.333333 -0.333333 -0.166667      1.000000
 -0.166667 -0.333333 -0.166667      1.000000
  0.000000 -0.166667 -0.166667      1.000000
  0.166667 -0.166667 -0.166667      1.000000
  0.333333 -0.166667 -0.166667      1.000000
  0.500000 -0.166667 -0.166667      1.000000
 -0.333333 -0.166667 -0.166667      1.000000
 -0.166667 -0.166667 -0.166667      1.000000

 Following cartesian coordinates:
            Coordinates               Weight
  0.000000  0.000000  0.000000      1.000000
  0.038382 -0.022160 -0.015669      1.000000
  0.076763 -0.044319 -0.031339      1.000000
  0.115145 -0.066479 -0.047008      1.000000
 -0.076763  0.044319  0.031339      1.000000
 -0.038382  0.022160  0.015669      1.000000
  0.000000  0.044319 -0.015669      1.000000
  0.038382  0.022160 -0.031339      1.000000
  0.076763  0.000000 -0.047008      1.000000
  0.115145 -0.022160 -0.062677      1.000000
 -0.076763  0.088639  0.015669      1.000000
 -0.038382  0.066479  0.000000      1.000000
  0.000000  0.088639 -0.031339      1.000000
  0.038382  0.066479 -0.047008      1.000000
  0.076763  0.044319 -0.062677      1.000000
  0.115145  0.022160 -0.078346      1.000000
 -0.076763  0.132958  0.000000      1.000000
 -0.038382  0.110798 -0.015669      1.000000
  0.000000  0.132958 -0.047008      1.000000
  0.038382  0.110798 -0.062677      1.000000
  0.076763  0.088639 -0.078346      1.000000
  0.115145  0.066479 -0.094016      1.000000
 -0.076763  0.177278 -0.015669      1.000000
 -0.038382  0.155118 -0.031339      1.000000
 -0.000000 -0.088639  0.031339      1.000000
  0.038382 -0.110798  0.015669      1.000000
  0.076763 -0.132958 -0.000000      1.000000
  0.115145 -0.155118 -0.015669      1.000000
 -0.076763 -0.044319  0.062677      1.000000
 -0.038382 -0.066479  0.047008      1.000000
 -0.000000 -0.044319  0.015669      1.000000
  0.038382 -0.066479 -0.000000      1.000000
  0.076763 -0.088639 -0.015669      1.000000
  0.115145 -0.110798 -0.031339      1.000000
 -0.076763 -0.000000  0.047008      1.000000
 -0.038382 -0.022160  0.031339      1.000000
 -0.000000  0.000000  0.047008      1.000000
  0.038382 -0.022160  0.031339      1.000000
  0.076763 -0.044319  0.015669      1.000000
  0.115145 -0.066479  0.000000      1.000000
 -0.076763  0.044319  0.078346      1.000000
 -0.038382  0.022160  0.062677      1.000000
 -0.000000  0.044319  0.031339      1.000000
  0.038382  0.022160  0.015669      1.000000
  0.076763  0.000000  0.000000      1.000000
  0.115145 -0.022160 -0.015669      1.000000
 -0.076763  0.088639  0.062677      1.000000
 -0.038382  0.066479  0.047008      1.000000
 -0.000000  0.088639  0.015669      1.000000
  0.038382  0.066479  0.000000      1.000000
  0.076763  0.044319 -0.015669      1.000000
  0.115145  0.022160 -0.031339      1.000000
 -0.076763  0.132958  0.047008      1.000000
 -0.038382  0.110798  0.031339      1.000000
 -0.000000  0.132958  0.000000      1.000000
  0.038382  0.110798 -0.015669      1.000000
  0.076763  0.088639 -0.031339      1.000000
  0.115145  0.066479 -0.047008      1.000000
 -0.076763  0.177278  0.031339      1.000000
 -0.038382  0.155118  0.015669      1.000000
[...]
  0.115145  0.066479 -0.141023      1.000000
 -0.076763  0.177278 -0.062677      1.000000
 -0.038382  0.155118 -0.078346      1.000000
  0.000000 -0.088639 -0.015669      1.000000
  0.038382 -0.110798 -0.031339      1.000000
  0.076763 -0.132958 -0.047008      1.000000
  0.115145 -0.155118 -0.062677      1.000000
 -0.076763 -0.044319  0.015669      1.000000
 -0.038382 -0.066479 -0.000000      1.000000
  0.000000 -0.044319 -0.031339      1.000000
  0.038382 -0.066479 -0.047008      1.000000
  0.076763 -0.088639 -0.062677      1.000000
  0.115145 -0.110798 -0.078346      1.000000
 -0.076763 -0.000000 -0.000000      1.000000
 -0.038382 -0.022160 -0.015669      1.000000

 SYSTEM =  Og_FCC
 POSCAR =  Og_FCC

 Startparameter for this run:
   NWRITE =      2    write-flag & timer
   PREC   = accura    normal or accurate (medium, high low for compatibility)
   ISTART =      0    job   : 0-new  1-cont  2-samecut
   ICHARG =      2    charge: 1-file 2-atom 10-const
   ISPIN  =      1    spin polarized calculation?
   LNONCOLLINEAR =      T non collinear calculations
   LSORBIT =      T    spin-orbit coupling
   INIWAV =      1    electr: 0-lowe 1-rand  2-diag
   LASPH  =      F    aspherical Exc in radial PAW
   METAGGA=      F    non-selfconsistent MetaGGA calc.

 Electronic Relaxation 1
   ENCUT  =  300.0 eV  22.05 Ry    4.70 a.u.   6.21  6.21  6.21*2*pi/ulx,y,z
   ENINI  =  300.0     initial cutoff
   ENAUG  =  441.0 eV  augmentation charge cutoff
   NELM   =     50;   NELMIN=  2; NELMDL= -5     # of ELM steps
   EDIFF  = 0.1E-07   stopping-criterion for ELM
   LREAL  =      F    real-space projection
   NLSPLINE    = F    spline interpolate recip. space projectors
   LCOMPAT=      F    compatible to vasp.4.4
   GGA_COMPAT  = F    GGA compatible to vasp.4.4-vasp.4.6
   LMAXPAW     = -100 max onsite density
   LMAXMIX     =    2 max onsite mixed and CHGCAR
   VOSKOWN=      0    Vosko Wilk Nusair interpolation
   ROPT   =    0.00000
 Ionic relaxation
   EDIFFG = 0.1E-04   stopping-criterion for IOM
   NSW    =      1    number of steps for IOM
   NBLOCK =      1;   KBLOCK =      1    inner block; outer block
   IBRION =     -1    ionic relax: 0-MD 1-quasi-New 2-CG
   NFREE  =      5    steps in history (QN), initial steepest desc. (CG)
   ISIF   =      3    stress and relaxation
   IWAVPR =     10    prediction:  0-non 1-charg 2-wave 3-comb
   ISYM   =      0    0-nonsym 1-usesym 2-fastsym
   LCORR  =      T    Harris-Foulkes like correction to forces

   POTIM  = 0.1000    time-step for ionic-motion
   TEIN   =    0.0    initial temperature
   TEBEG  =    0.0;   TEEND  =   0.0 temperature during run
   SMASS  =  -3.00    Nose mass-parameter (am)
   estimated Nose-frequenzy (Omega)   =  0.10E-29 period in steps =****** mass=  -0.442E-27a.u.
   SCALEE = 1.0000    scale energy and forces
   NPACO  =    256;   APACO  = 16.0  distance and # of slots for P.C.
   PSTRESS=    0.0 pullay stress

  Mass of Ions in am
   POMASS =   0.01
  Ionic Valenz
   ZVAL   =  26.00
  Atomic Wigner-Seitz radii
  virtual crystal weights
   VCA    =   1.00
   NELECT =      26.0000    total number of electrons
   NUPDOWN=      -1.0000    fix difference up-down

 DOS related values:
   EMIN   =  10.00;   EMAX   =-10.00  energy-range for DOS
   EFERMI =   0.00
   ISMEAR =     0;   SIGMA  =   0.00  broadening in eV -4-tet -1-fermi 0-gaus

 Electronic relaxation 2 (details)
   IALGO  =     38    algorithm
   LDIAG  =      T    sub-space diagonalisation (order eigenvalues)
   LSUBROT=      F    optimize rotation matrix (better conditioning)
[...]
  138.270672    0.990496    0.990501    0.990497    0.000002   -0.000000    0.000000
  141.092522    0.991100    0.991105    0.991101    0.000002   -0.000000    0.000000
  143.914373    0.992145    0.992150    0.992147    0.000002   -0.000000    0.000000
  146.736223    0.991136    0.991140    0.991137    0.000002   -0.000000    0.000000
  149.558074    0.992015    0.992021    0.992017    0.000001   -0.000010   -0.000002
  152.379924    0.989803    0.989807    0.989804    0.000002    0.000000    0.000000
  155.201775    0.991333    0.991337    0.991334    0.000002    0.000000    0.000000
  158.023625    0.991938    0.991942    0.991939    0.000002    0.000000    0.000000
  160.845476    0.992340    0.992343    0.992341    0.000002    0.000000    0.000000
  163.667326    0.992671    0.992675    0.992672    0.000002    0.000000    0.000000
  166.489176    0.992964    0.992967    0.992965    0.000002    0.000000    0.000000
[...]
  239.857288    0.996612    0.996614    0.996613    0.000001    0.000000   -0.000000
  242.679139    0.996714    0.996716    0.996715    0.000001    0.000000   -0.000000
  245.500989    0.996803    0.996805    0.996804    0.000001    0.000000   -0.000000
  248.322839    0.996885    0.996886    0.996885    0.000001    0.000000   -0.000000
  251.144690    0.996961    0.996963    0.996962    0.000001    0.000000   -0.000000
  253.966540    0.997033    0.997035    0.997034    0.000001    0.000000   -0.000000
  256.788391    0.997102    0.997104    0.997103    0.000001    0.000000   -0.000000
  259.610241    0.997168    0.997170    0.997169    0.000001    0.000000   -0.000000
  262.432092    0.997232    0.997233    0.997232    0.000001    0.000000   -0.000000
  265.253942    0.997292    0.997294    0.997293    0.000001    0.000000   -0.000000
  268.075793    0.997351    0.997352    0.997352    0.000001    0.000000   -0.000000
  270.897643    0.997408    0.997409    0.997408    0.000001    0.000000   -0.000000
  273.719494    0.997462    0.997464    0.997463    0.000001    0.000000   -0.000000
  276.541344    0.997515    0.997517    0.997516    0.000001    0.000000   -0.000000
  279.363194    0.997566    0.997568    0.997567    0.000001    0.000000   -0.000000

  frequency dependent IMAGINARY DIELECTRIC FUNCTION (independent particle, no local field effects) current-current (2nd set in vasprun.xml)
     E(ev)      X         Y         Z        XY        YZ        ZX
    0.000000    0.000000    0.000000    0.000000    1.420541   20.931814    3.198588
    2.821850   10.220360   10.220360   10.220364    0.001493    0.023090    0.003412
    5.643701    5.647145    5.664530    5.664420    0.000757    0.041965    0.006842
    8.465551    3.321885    3.321845    3.321869    0.000093    0.000260    0.000140
   11.287402    0.664538    0.664538    0.664538   -0.000007   -0.000066   -0.000013
   14.109252    0.774208    0.774208    0.774208    0.000014   -0.000208   -0.000029
   16.931103    0.141605    0.141605    0.141605    0.000013   -0.000027    0.000009
   19.752953    0.000000    0.000000    0.000000   -0.000004   -0.000063   -0.000013
   22.574804    0.000000    0.000000    0.000000   -0.000008   -0.000199   -0.000028
   25.396654    0.000000    0.000000    0.000000    0.000139    0.001939    0.000301
   28.218504    0.105517    0.105517    0.105517    0.000032    0.000309    0.000054
   31.040355    0.024675    0.024675    0.024675    0.000015   -0.000056    0.000000
   33.862205    0.024961    0.024961    0.024961    0.000055    0.000048    0.000034
   36.684056    0.056377    0.056377    0.056377   -0.000322   -0.000109   -0.000099
   39.505906    0.000928    0.000923    0.000940   -0.000129   -0.000046   -0.000052
   42.327757    0.025459    0.025459    0.025458    0.000013    0.000013   -0.000004
   45.149607    0.011677    0.011677    0.011677   -0.000017   -0.000006   -0.000015
   47.971458    0.005009    0.002933    0.004385   -0.000931   -0.000125   -0.000247
   50.793308    0.000000    0.000000    0.000000    0.000018    0.000018    0.000014
   53.615159    0.000000    0.000000    0.000000    0.000008    0.000011    0.000006
   56.437009    0.000000    0.000000    0.000000    0.000005    0.000008    0.000004
   59.258859    0.000000    0.000000    0.000000    0.000003    0.000006    0.000003
   62.080710    0.000000    0.000000    0.000000    0.000002    0.000005    0.000002
   64.902560    0.000000    0.000000    0.000000    0.000002    0.000004    0.000002
   67.724411    0.000000    0.000000    0.000000    0.000001    0.000004    0.000001
   70.546261    0.000000    0.000000    0.000000    0.000001    0.000003    0.000001
   73.368112    0.000000    0.000000    0.000000    0.000001    0.000003    0.000001
   76.189962    0.000000    0.000000    0.000000    0.000001    0.000002    0.000001
   79.011813    0.000000    0.000000    0.000000    0.000001    0.000002    0.000001
   81.833663    0.000000    0.000000    0.000000    0.000001    0.000002    0.000001
   84.655513    0.000000    0.000000    0.000000    0.000001    0.000002    0.000000
   87.477364    0.000000    0.000000    0.000000    0.000000    0.000002    0.000000
   90.299214    0.000000    0.000000    0.000000    0.000000    0.000001    0.000000
   93.121065    0.000000    0.000000    0.000000    0.000000    0.000001    0.000000
   95.942915    0.000000    0.000000    0.000000    0.000000    0.000001    0.000000
   98.764766    0.000000    0.000000    0.000000    0.000000    0.000001    0.000000
  101.586616    0.007862    0.007862    0.007862    0.000000    0.000001    0.000000
  104.408467    0.000172    0.000172    0.000172    0.000000    0.000001   -0.000000
  107.230317    0.000000    0.000000    0.000000    0.000000    0.000000    0.000000
  110.052167    0.000000    0.000000    0.000000    0.000000    0.000001    0.000000
  112.874018    0.000000    0.000000    0.000000    0.000000    0.000001    0.000000
  115.695868    0.000000    0.000000    0.000000    0.000000    0.000001    0.000000
  118.517719    0.000000    0.000000    0.000000    0.000000    0.000001    0.000000
  121.339569    0.000000    0.000000    0.000000    0.000000    0.000000    0.000000
  124.161420    0.000000    0.000000    0.000000    0.000000    0.000000    0.000000
  126.983270    0.000000    0.000000    0.000000    0.000000    0.000000    0.000000
  129.805121    0.000000    0.000000    0.000000    0.000000    0.000000    0.000000
  132.626971    0.000000    0.000000    0.000000    0.000000    0.000000    0.000000
  135.448822    0.000000    0.000000    0.000000    0.000000    0.000000    0.000000
  138.270672    0.000000    0.000000    0.000000    0.000000    0.000000    0.000000
  141.092522    0.000000    0.000000    0.000000    0.000000    0.000000    0.000000
  143.914373    0.000000    0.000000    0.000000    0.000000    0.000000    0.000000
  146.736223    0.001259    0.001259    0.001259    0.000000    0.000000    0.000000
  149.558074    0.001373    0.001368    0.001371    0.000000   -0.000007   -0.000001
  152.379924    0.001077    0.001077    0.001077    0.000000    0.000000    0.000000
  155.201775    0.000000    0.000000    0.000000   -0.000000    0.000001   -0.000000
  158.023625    0.000000    0.000000    0.000000    0.000000    0.000000    0.000000
  160.845476    0.000000    0.000000    0.000000    0.000000    0.000000    0.000000
  163.667326    0.000000    0.000000    0.000000    0.000000    0.000000    0.000000
  166.489176    0.000000    0.000000    0.000000    0.000000    0.000000    0.000000
[...]
  239.857288    0.000000    0.000000    0.000000   -0.000000    0.000000   -0.000000
  242.679139    0.000000    0.000000    0.000000   -0.000000    0.000000   -0.000000
  245.500989    0.000000    0.000000    0.000000   -0.000000    0.000000   -0.000000
  248.322839    0.000000    0.000000    0.000000   -0.000000    0.000000   -0.000000
  251.144690    0.000000    0.000000    0.000000   -0.000000    0.000000   -0.000000
  253.966540    0.000000    0.000000    0.000000   -0.000000    0.000000   -0.000000
  256.788391    0.000000    0.000000    0.000000   -0.000000    0.000000   -0.000000
  259.610241    0.000000    0.000000    0.000000   -0.000000    0.000000   -0.000000
  262.432092    0.000000    0.000000    0.000000   -0.000000    0.000000   -0.000000
  265.253942    0.000000    0.000000    0.000000   -0.000000    0.000000   -0.000000
  268.075793    0.000000    0.000000    0.000000   -0.000000    0.000000   -0.000000
  270.897643    0.000000    0.000000    0.000000   -0.000000    0.000000   -0.000000
  273.719494    0.000000    0.000000    0.000000   -0.000000    0.000000   -0.000000
  276.541344    0.000000    0.000000    0.000000   -0.000000    0.000000   -0.000000
  279.363194    0.000000    0.000000    0.000000   -0.000000    0.000000   -0.000000

  frequency dependent      REAL DIELECTRIC FUNCTION (independent particle, no local field effects) current-current (2nd set in vasprun.xml)
     E(ev)        X           Y           Z          XY          YZ          ZX
    0.000000    6.687237    6.687237    6.687237   -4.011371  -59.084883   -9.031366
    2.821850    4.809194    4.808968    4.809006   -0.044903   -0.662086   -0.101139
    5.643701    1.302218    1.307068    1.307076   -0.022818   -0.265860   -0.046146
    8.465551   -0.821080   -0.821570   -0.821567   -0.005084   -0.075362   -0.011525
   11.287402   -0.385165   -0.385205   -0.385149   -0.002839   -0.041466   -0.006328
   14.109252    0.219196    0.219354    0.219411   -0.001864   -0.026472   -0.004052
   16.931103   -0.001807   -0.001872   -0.001822   -0.001275   -0.018420   -0.002814
   19.752953    0.472016    0.471978    0.472008   -0.000957   -0.013551   -0.002066
   22.574804    0.649327    0.649263    0.649308   -0.000741   -0.010375   -0.001582
   25.396654    0.752490    0.752413    0.752465   -0.000553   -0.007553   -0.001149
   28.218504    0.824575    0.824481    0.824542   -0.000497   -0.006634   -0.001007
   31.040355    0.847874    0.847752    0.847827   -0.000434   -0.005513   -0.000830
   33.862205    0.866926    0.866735    0.866824   -0.000408   -0.004622   -0.000668
   36.684056    0.915561    0.915672    0.915890   -0.000259   -0.003953   -0.000862
   39.505906    0.815363    0.814950    0.815386   -0.000415   -0.003341   -0.000624
   42.327757    0.885858    0.886237    0.885912   -0.000025   -0.002991   -0.000396
   45.149607    0.893104    0.893148    0.893119   -0.000156   -0.002605   -0.000384
   47.971458    0.887235    0.886978    0.887303   -0.000296   -0.002323   -0.000055
   50.793308    0.912944    0.913115    0.912974   -0.000057   -0.002048   -0.000311
   53.615159    0.925743    0.925843    0.925763   -0.000078   -0.001841   -0.000280
   56.437009    0.934949    0.935021    0.934965   -0.000079   -0.001662   -0.000253
   59.258859    0.942204    0.942261    0.942217   -0.000076   -0.001508   -0.000230
   62.080710    0.948158    0.948204    0.948168   -0.000072   -0.001374   -0.000209
   64.902560    0.953161    0.953199    0.953170   -0.000067   -0.001257   -0.000192
   67.724411    0.957435    0.957469    0.957443   -0.000063   -0.001155   -0.000176
   70.546261    0.961135    0.961164    0.961141   -0.000059   -0.001064   -0.000162
   73.368112    0.964370    0.964396    0.964376   -0.000055   -0.000984   -0.000150
   76.189962    0.967227    0.967250    0.967233   -0.000051   -0.000912   -0.000139
   79.011813    0.969774    0.969795    0.969779   -0.000048   -0.000848   -0.000130
   81.833663    0.972069    0.972088    0.972074   -0.000045   -0.000791   -0.000121
   84.655513    0.974165    0.974182    0.974170   -0.000042   -0.000739   -0.000113
   87.477364    0.976123    0.976139    0.976127   -0.000040   -0.000692   -0.000106
   90.299214    0.978035    0.978049    0.978039   -0.000038   -0.000649   -0.000099
   93.121065    0.980146    0.980159    0.980149   -0.000035   -0.000611   -0.000093
   95.942915    0.984897    0.984909    0.984900   -0.000033   -0.000575   -0.000088
   98.764766    0.978229    0.978240    0.978232   -0.000032   -0.000543   -0.000083
  101.586616    0.981136    0.981146    0.981138   -0.000030   -0.000513   -0.000078
  104.408467    0.980003    0.980013    0.980006   -0.000028   -0.000486   -0.000074
  107.230317    0.982122    0.982132    0.982125   -0.000027   -0.000460   -0.000070
  110.052167    0.983535    0.983544    0.983537   -0.000026   -0.000437   -0.000067
  112.874018    0.984590    0.984598    0.984592   -0.000024   -0.000416   -0.000063
  115.695868    0.985485    0.985493    0.985487   -0.000023   -0.000396   -0.000060
  118.517719    0.986279    0.986286    0.986280   -0.000022   -0.000377   -0.000058
  121.339569    0.986998    0.987005    0.986999   -0.000021   -0.000360   -0.000055
  124.161420    0.987658    0.987665    0.987660   -0.000020   -0.000344   -0.000052
  126.983270    0.988272    0.988279    0.988274   -0.000019   -0.000328   -0.000050
  129.805121    0.988849    0.988855    0.988850   -0.000019   -0.000314   -0.000048
  132.626971    0.989397    0.989403    0.989399   -0.000018   -0.000301   -0.000046
  135.448822    0.989931    0.989936    0.989932   -0.000017   -0.000289   -0.000044
  138.270672    0.990471    0.990476    0.990472   -0.000016   -0.000277   -0.000042
  141.092522    0.991076    0.991081    0.991077   -0.000016   -0.000266   -0.000041
  143.914373    0.992122    0.992127    0.992123   -0.000015   -0.000256   -0.000039
  146.736223    0.991111    0.991115    0.991112   -0.000015   -0.000246   -0.000038
  149.558074    0.991991    0.991996    0.991992   -0.000015   -0.000247   -0.000038
  152.379924    0.989781    0.989785    0.989782   -0.000014   -0.000228   -0.000035
  155.201775    0.991313    0.991317    0.991314   -0.000013   -0.000220   -0.000034
  158.023625    0.991919    0.991923    0.991920   -0.000013   -0.000212   -0.000032
  160.845476    0.992321    0.992325    0.992322   -0.000012   -0.000205   -0.000031
  163.667326    0.992653    0.992657    0.992654   -0.000012   -0.000198   -0.000030
  166.489176    0.992946    0.992950    0.992947   -0.000011   -0.000191   -0.000029
[...]
  239.857288    0.996603    0.996605    0.996604   -0.000005   -0.000092   -0.000014
  242.679139    0.996706    0.996708    0.996706   -0.000005   -0.000090   -0.000014
  245.500989    0.996795    0.996797    0.996796   -0.000005   -0.000088   -0.000014
  248.322839    0.996877    0.996879    0.996878   -0.000005   -0.000086   -0.000013
  251.144690    0.996953    0.996955    0.996954   -0.000005   -0.000084   -0.000013
  253.966540    0.997026    0.997028    0.997026   -0.000005   -0.000082   -0.000013
  256.788391    0.997095    0.997097    0.997095   -0.000005   -0.000080   -0.000012
  259.610241    0.997161    0.997163    0.997162   -0.000005   -0.000079   -0.000012
  262.432092    0.997225    0.997226    0.997225   -0.000005   -0.000077   -0.000012
  265.253942    0.997286    0.997287    0.997286   -0.000004   -0.000075   -0.000012
  268.075793    0.997344    0.997346    0.997345   -0.000004   -0.000074   -0.000011
  270.897643    0.997401    0.997403    0.997402   -0.000004   -0.000072   -0.000011
  273.719494    0.997456    0.997457    0.997456   -0.000004   -0.000071   -0.000011
  276.541344    0.997509    0.997510    0.997509   -0.000004   -0.000069   -0.000011
  279.363194    0.997560    0.997561    0.997561   -0.000004   -0.000068   -0.000010

 The outermost node in the dielectric function lies at epsilon=  16.1

 Spin-Orbit-Coupling matrix elements

 Ion:    1  E_soc:    -34.6010763
 l=   1
     0.0000000    -5.4002556    -5.4002561
    -5.4002556     0.0000000    -5.4002559
    -5.4002561    -5.4002559     0.0000000
 l=   2
     0.0000000    -0.0733217     0.0000000    -0.0733217    -0.2932624
    -0.0733217     0.0000000    -0.2199468    -0.0733278    -0.0733217
     0.0000000    -0.2199468     0.0000000    -0.2199468     0.0000000
    -0.0733217    -0.0733278    -0.2199468     0.0000000    -0.0733217
    -0.2932624    -0.0733217     0.0000000    -0.0733217     0.0000000
 l=   3
     0.0000000     0.0000000     0.0000000     0.0000000     0.0000000     0.0000000     0.0000000
     0.0000000     0.0000000     0.0000000     0.0000000     0.0000000     0.0000000     0.0000000
     0.0000000     0.0000000     0.0000000     0.0000000     0.0000000     0.0000000     0.0000000
     0.0000000     0.0000000     0.0000000     0.0000000     0.0000000     0.0000000     0.0000000
     0.0000000     0.0000000     0.0000000     0.0000000     0.0000000     0.0000000     0.0000000
     0.0000000     0.0000000     0.0000000     0.0000000     0.0000000     0.0000000     0.0000000
     0.0000000     0.0000000     0.0000000     0.0000000     0.0000000     0.0000000     0.0000000