 vasp.5.4.4.18Apr17-6-g9f103f2a35 (build Nov 03 2018 10:20:46) complex

 executed on             LinuxIFC date 2018.12.14  07:54:36

 INCAR:
 POTCAR:    PAW_PBE Ne_GW 22Sep2014

 POTCAR:    PAW_PBE Ne_GW 22Sep2014
   VRHFIN =Ne: s2p6

   TITEL  = PAW_PBE Ne_GW 22Sep2014
   POMASS =   20.180; ZVAL   =    8.000    mass and valenz
   ENMAX  =  432.275; ENMIN  =  324.206 eV

  PAW_PBE Ne_GW 22Sep2014               :

 POSCAR: Ne_FCC
  positions in direct lattice
  velocities in cartesian coordinates
 exchange correlation table for  LEXCH =        8
   RHO(1)=    0.500       N(1)  =     2000
   RHO(2)=  100.500       N(2)  =     4000

 ion  position               nearest neighbor table
   1  0.000  0.000  0.000-

IMPORTANT INFORMATION: All symmetrisations will be switched off!
NOSYMM: (Re-)initialisation of all symmetry stuff for point group C_1.

 KPOINTS: k-points

Automatic generation of k-mesh.
Space group operators:
 irot       det(A)        alpha          n_x          n_y          n_z        tau_x        tau_y        tau_z
    1     1.000000     0.000000     1.000000     0.000000     0.000000     0.000000     0.000000     0.000000

 Subroutine IBZKPT returns following result:

 Found    172 irreducible k-points:

 Following reciprocal coordinates:
            Coordinates               Weight
  0.000000  0.000000  0.000000      1.000000
  0.142857 -0.000000 -0.000000      2.000000
  0.285714 -0.000000 -0.000000      2.000000
  0.428571  0.000000  0.000000      2.000000
  0.000000  0.142857  0.000000      2.000000
  0.142857  0.142857  0.000000      2.000000
  0.285714  0.142857  0.000000      2.000000
  0.428571  0.142857 -0.000000      2.000000
 -0.428571  0.142857  0.000000      2.000000
 -0.285714  0.142857  0.000000      2.000000
 -0.142857  0.142857 -0.000000      2.000000
  0.000000  0.285714  0.000000      2.000000
  0.142857  0.285714 -0.000000      2.000000
  0.285714  0.285714 -0.000000      2.000000
  0.428571  0.285714 -0.000000      2.000000
 -0.428571  0.285714  0.000000      2.000000
 -0.285714  0.285714  0.000000      2.000000
 -0.142857  0.285714 -0.000000      2.000000
  0.000000  0.428571  0.000000      2.000000
  0.142857  0.428571 -0.000000      2.000000
  0.285714  0.428571  0.000000      2.000000
  0.428571  0.428571  0.000000      2.000000
 -0.428571  0.428571  0.000000      2.000000
 -0.285714  0.428571 -0.000000      2.000000
 -0.142857  0.428571 -0.000000      2.000000
  0.000000  0.000000  0.142857      2.000000
  0.142857 -0.000000  0.142857      2.000000
  0.285714 -0.000000  0.142857      2.000000
  0.428571  0.000000  0.142857      2.000000
 -0.428571  0.000000  0.142857      2.000000
 -0.285714  0.000000  0.142857      2.000000
 -0.142857 -0.000000  0.142857      2.000000
  0.000000  0.142857  0.142857      2.000000
  0.142857  0.142857  0.142857      2.000000
  0.285714  0.142857  0.142857      2.000000
  0.428571  0.142857  0.142857      2.000000
 -0.428571  0.142857  0.142857      2.000000
 -0.285714  0.142857  0.142857      2.000000
 -0.142857  0.142857  0.142857      2.000000
  0.000000  0.285714  0.142857      2.000000
  0.142857  0.285714  0.142857      2.000000
  0.285714  0.285714  0.142857      2.000000
  0.428571  0.285714  0.142857      2.000000
 -0.428571  0.285714  0.142857      2.000000
 -0.285714  0.285714  0.142857      2.000000
 -0.142857  0.285714  0.142857      2.000000
  0.000000  0.428571  0.142857      2.000000
  0.142857  0.428571  0.142857      2.000000
  0.285714  0.428571  0.142857      2.000000
  0.428571  0.428571  0.142857      2.000000
 -0.428571  0.428571  0.142857      2.000000
 -0.285714  0.428571  0.142857      2.000000
 -0.142857  0.428571  0.142857      2.000000
  0.000000 -0.428571  0.142857      2.000000
  0.142857 -0.428571  0.142857      2.000000
  0.285714 -0.428571  0.142857      2.000000
  0.428571 -0.428571  0.142857      2.000000
 -0.428571 -0.428571  0.142857      2.000000
 -0.285714 -0.428571  0.142857      2.000000
 -0.142857 -0.428571  0.142857      2.000000
[...]
 -0.142857 -0.428571  0.428571      2.000000
  0.000000 -0.285714  0.428571      2.000000
  0.142857 -0.285714  0.428571      2.000000
  0.285714 -0.285714  0.428571      2.000000
  0.428571 -0.285714  0.428571      2.000000
 -0.428571 -0.285714  0.428571      2.000000
 -0.285714 -0.285714  0.428571      2.000000
 -0.142857 -0.285714  0.428571      2.000000
  0.000000 -0.142857  0.428571      2.000000
  0.142857 -0.142857  0.428571      2.000000
  0.285714 -0.142857  0.428571      2.000000
  0.428571 -0.142857  0.428571      2.000000
 -0.428571 -0.142857  0.428571      2.000000
 -0.285714 -0.142857  0.428571      2.000000
 -0.142857 -0.142857  0.428571      2.000000

 Following cartesian coordinates:
            Coordinates               Weight
  0.000000  0.000000  0.000000      1.000000
  0.048032 -0.027731 -0.019609      2.000000
  0.096064 -0.055462 -0.039218      2.000000
  0.144095 -0.083193 -0.058827      2.000000
  0.000000  0.055462 -0.019609      2.000000
  0.048032  0.027731 -0.039218      2.000000
  0.096064  0.000000 -0.058827      2.000000
  0.144095 -0.027731 -0.078436      2.000000
 -0.144095  0.138656  0.039218      2.000000
 -0.096064  0.110925  0.019609      2.000000
 -0.048032  0.083193  0.000000      2.000000
  0.000000  0.110925 -0.039218      2.000000
  0.048032  0.083193 -0.058827      2.000000
  0.096064  0.055462 -0.078436      2.000000
  0.144095  0.027731 -0.098044      2.000000
 -0.144095  0.194118  0.019609      2.000000
 -0.096064  0.166387  0.000000      2.000000
 -0.048032  0.138656 -0.019609      2.000000
  0.000000  0.166387 -0.058827      2.000000
  0.048032  0.138656 -0.078436      2.000000
  0.096064  0.110925 -0.098044      2.000000
  0.144095  0.083193 -0.117653      2.000000
 -0.144095  0.249580  0.000000      2.000000
 -0.096064  0.221849 -0.019609      2.000000
 -0.048032  0.194118 -0.039218      2.000000
  0.000000  0.000000  0.058827      2.000000
  0.048032 -0.027731  0.039218      2.000000
  0.096064 -0.055462  0.019609      2.000000
  0.144095 -0.083193 -0.000000      2.000000
 -0.144095  0.083193  0.117653      2.000000
 -0.096064  0.055462  0.098044      2.000000
 -0.048032  0.027731  0.078436      2.000000
  0.000000  0.055462  0.039218      2.000000
  0.048032  0.027731  0.019609      2.000000
  0.096064  0.000000  0.000000      2.000000
  0.144095 -0.027731 -0.019609      2.000000
 -0.144095  0.138656  0.098044      2.000000
 -0.096064  0.110925  0.078436      2.000000
 -0.048032  0.083193  0.058827      2.000000
  0.000000  0.110925  0.019609      2.000000
  0.048032  0.083193  0.000000      2.000000
  0.096064  0.055462 -0.019609      2.000000
  0.144095  0.027731 -0.039218      2.000000
 -0.144095  0.194118  0.078436      2.000000
 -0.096064  0.166387  0.058827      2.000000
 -0.048032  0.138656  0.039218      2.000000
  0.000000  0.166387  0.000000      2.000000
  0.048032  0.138656 -0.019609      2.000000
  0.096064  0.110925 -0.039218      2.000000
  0.144095  0.083193 -0.058827      2.000000
 -0.144095  0.249580  0.058827      2.000000
 -0.096064  0.221849  0.039218      2.000000
 -0.048032  0.194118  0.019609      2.000000
  0.000000 -0.166387  0.117653      2.000000
  0.048032 -0.194118  0.098044      2.000000
  0.096064 -0.221849  0.078436      2.000000
  0.144095 -0.249580  0.058827      2.000000
 -0.144095 -0.083193  0.176480      2.000000
 -0.096064 -0.110925  0.156871      2.000000
 -0.048032 -0.138656  0.137262      2.000000
[...]
 -0.048032 -0.138656  0.254916      2.000000
  0.000000 -0.110925  0.215698      2.000000
  0.048032 -0.138656  0.196089      2.000000
  0.096064 -0.166387  0.176480      2.000000
  0.144095 -0.194118  0.156871      2.000000
 -0.144095 -0.027731  0.274525      2.000000
 -0.096064 -0.055462  0.254916      2.000000
 -0.048032 -0.083193  0.235307      2.000000
  0.000000 -0.055462  0.196089      2.000000
  0.048032 -0.083193  0.176480      2.000000
  0.096064 -0.110925  0.156871      2.000000
  0.144095 -0.138656  0.137262      2.000000
 -0.144095  0.027731  0.254916      2.000000
 -0.096064  0.000000  0.235307      2.000000
 -0.048032 -0.027731  0.215698      2.000000

 SYSTEM =  Og_FCC
 POSCAR =  Ne_FCC

 Startparameter for this run:
   NWRITE =      2    write-flag & timer
   PREC   = accura    normal or accurate (medium, high low for compatibility)
   ISTART =      0    job   : 0-new  1-cont  2-samecut
   ICHARG =      2    charge: 1-file 2-atom 10-const
   ISPIN  =      1    spin polarized calculation?
   LNONCOLLINEAR =      F non collinear calculations
   LSORBIT =      F    spin-orbit coupling
   INIWAV =      1    electr: 0-lowe 1-rand  2-diag
   LASPH  =      F    aspherical Exc in radial PAW
   METAGGA=      F    non-selfconsistent MetaGGA calc.

 Electronic Relaxation 1
   ENCUT  =  300.0 eV  22.05 Ry    4.70 a.u.   4.46  4.46  4.46*2*pi/ulx,y,z
   ENINI  =  300.0     initial cutoff
   ENAUG  =  755.8 eV  augmentation charge cutoff
   NELM   =     50;   NELMIN=  2; NELMDL= -5     # of ELM steps
   EDIFF  = 0.1E-07   stopping-criterion for ELM
   LREAL  =      F    real-space projection
   NLSPLINE    = F    spline interpolate recip. space projectors
   LCOMPAT=      F    compatible to vasp.4.4
   GGA_COMPAT  = F    GGA compatible to vasp.4.4-vasp.4.6
   LMAXPAW     = -100 max onsite density
   LMAXMIX     =    2 max onsite mixed and CHGCAR
   VOSKOWN=      0    Vosko Wilk Nusair interpolation
   ROPT   =    0.00000
 Ionic relaxation
   EDIFFG = 0.1E-04   stopping-criterion for IOM
   NSW    =      1    number of steps for IOM
   NBLOCK =      1;   KBLOCK =      1    inner block; outer block
   IBRION =     -1    ionic relax: 0-MD 1-quasi-New 2-CG
   NFREE  =      5    steps in history (QN), initial steepest desc. (CG)
   ISIF   =      3    stress and relaxation
   IWAVPR =     10    prediction:  0-non 1-charg 2-wave 3-comb
   ISYM   =      0    0-nonsym 1-usesym 2-fastsym
   LCORR  =      T    Harris-Foulkes like correction to forces

   POTIM  = 0.1000    time-step for ionic-motion
   TEIN   =    0.0    initial temperature
   TEBEG  =    0.0;   TEEND  =   0.0 temperature during run
   SMASS  =  -3.00    Nose mass-parameter (am)
   estimated Nose-frequenzy (Omega)   =  0.10E-29 period in steps =****** mass=  -0.228E-27a.u.
   SCALEE = 1.0000    scale energy and forces
   NPACO  =    256;   APACO  = 16.0  distance and # of slots for P.C.
   PSTRESS=    0.0 pullay stress

  Mass of Ions in am
   POMASS =  20.18
  Ionic Valenz
   ZVAL   =   8.00
  Atomic Wigner-Seitz radii
  virtual crystal weights
   VCA    =   1.00
   NELECT =       8.0000    total number of electrons
   NUPDOWN=      -1.0000    fix difference up-down

 DOS related values:
   EMIN   =  10.00;   EMAX   =-10.00  energy-range for DOS
   EFERMI =   0.00
   ISMEAR =     0;   SIGMA  =   0.00  broadening in eV -4-tet -1-fermi 0-gaus

 Electronic relaxation 2 (details)
   IALGO  =     38    algorithm
   LDIAG  =      T    sub-space diagonalisation (order eigenvalues)
   LSUBROT=      F    optimize rotation matrix (better conditioning)
   TURBO    =      0    0=normal 1=particle mesh
   IRESTART =      0    0=no restart 2=restart with 2 vectors
   NREBOOT  =      0    no. of reboots
[...]
   22.478418    0.705685    0.705641    0.706009   -0.000049    0.000091    0.000053
   23.139548    1.158580    1.158529    1.158941   -0.000054    0.000103    0.000058
   23.800677    0.858492    0.858435    0.858910   -0.000063    0.000117    0.000068
   24.461807    0.809949    0.809881    0.810439   -0.000075    0.000140    0.000077
   25.122937    1.122895    1.122814    1.123497   -0.000091    0.000173    0.000091
   25.784067    0.847027    0.846917    0.847829   -0.000122    0.000224    0.000120
   26.445197    1.052657    1.052489    1.053865   -0.000182    0.000331    0.000159
   27.106327    0.870569    0.870217    0.873149   -0.000339    0.000637    0.000175
   27.767457    0.878696    0.879599    0.872622    0.001187   -0.003164   -0.006401
   28.428587    0.676952    0.677221    0.675180    0.000346   -0.000584   -0.000516
   29.089717    0.777272    0.777416    0.776344    0.000184   -0.000298   -0.000231
   29.750847    0.551393    0.551495    0.550785    0.000130   -0.000200   -0.000142
   30.411977    0.735105    0.735196    0.734674    0.000113   -0.000152   -0.000093
   31.073107    0.766722    0.766707    0.766284   -0.000024   -0.000095   -0.000145
   31.734237    0.788810    0.788838    0.788497    0.000037   -0.000081   -0.000086
   32.395367    0.827272    0.827300    0.827018    0.000038   -0.000073   -0.000069
   33.056496    0.848943    0.848968    0.848730    0.000036   -0.000063   -0.000058
   33.717626    0.864844    0.864866    0.864661    0.000033   -0.000055   -0.000051
   34.378756    0.877459    0.877479    0.877301    0.000030   -0.000049   -0.000045
   35.039886    0.887888    0.887905    0.887750    0.000027   -0.000043   -0.000041
   35.701016    0.896754    0.896770    0.896634    0.000025   -0.000039   -0.000037
   36.362146    0.904506    0.904520    0.904401    0.000023   -0.000035   -0.000034
   37.023276    0.911294    0.911307    0.911202    0.000022   -0.000031   -0.000032
   37.684406    0.917514    0.917525    0.917433    0.000020   -0.000028   -0.000030
   38.345536    0.922436    0.922446    0.922365    0.000019   -0.000025   -0.000028
   39.006666    0.928619    0.928628    0.928559    0.000018   -0.000023   -0.000027
[...]
   56.196044    0.969904    0.969918    0.969778    0.000003   -0.000027    0.000002
   56.857174    0.970930    0.970942    0.970816    0.000003   -0.000024    0.000001
   57.518304    0.971869    0.971880    0.971765    0.000003   -0.000022    0.000001
   58.179434    0.972740    0.972750    0.972645    0.000003   -0.000020    0.000000
   58.840564    0.973554    0.973564    0.973466    0.000003   -0.000019   -0.000000
   59.501694    0.974320    0.974330    0.974238    0.000003   -0.000018   -0.000000
   60.162824    0.975044    0.975053    0.974967    0.000003   -0.000017   -0.000001
   60.823953    0.975731    0.975739    0.975658    0.000003   -0.000016   -0.000001
   61.485083    0.976383    0.976391    0.976314    0.000003   -0.000015   -0.000001
   62.146213    0.977005    0.977012    0.976939    0.000003   -0.000014   -0.000001
   62.807343    0.977598    0.977605    0.977536    0.000003   -0.000014   -0.000001
   63.468473    0.978165    0.978172    0.978106    0.000003   -0.000013   -0.000001
   64.129603    0.978708    0.978714    0.978651    0.000003   -0.000013   -0.000001
   64.790733    0.979228    0.979234    0.979174    0.000002   -0.000012   -0.000001
   65.451863    0.979727    0.979733    0.979675    0.000002   -0.000012   -0.000001

  frequency dependent IMAGINARY DIELECTRIC FUNCTION (independent particle, no local field effects) current-current (2nd set in vasprun.xml)
     E(ev)      X         Y         Z        XY        YZ        ZX
    0.000000    0.520598    0.520551    0.520966   -0.001417    0.008332    0.025353
    0.661130    0.052196    0.052191    0.052233   -0.000142    0.000834    0.002537
    1.322260    0.026306    0.026304    0.026325   -0.000071    0.000417    0.001270
    1.983390    0.017774    0.017772    0.017786   -0.000047    0.000279    0.000849
    2.644520    0.013586    0.013585    0.013596   -0.000036    0.000210    0.000639
    3.305650    0.011144    0.011143    0.011151   -0.000029    0.000169    0.000514
    3.966780    0.009582    0.009581    0.009588   -0.000024    0.000141    0.000431
    4.627910    0.008533    0.008533    0.008539   -0.000021    0.000122    0.000372
    5.289039    0.007818    0.007817    0.007823   -0.000018    0.000107    0.000328
    5.950169    0.007341    0.007340    0.007345   -0.000016    0.000096    0.000294
    6.611299    0.007051    0.007050    0.007055   -0.000015    0.000088    0.000267
    7.272429    0.006926    0.006926    0.006930   -0.000013    0.000080    0.000246
    7.933559    0.006969    0.006968    0.006973   -0.000012    0.000075    0.000228
    8.594689    0.007209    0.007209    0.007213   -0.000012    0.000070    0.000214
    9.255819    0.007730    0.007729    0.007733   -0.000011    0.000066    0.000202
    9.916949    0.008742    0.008742    0.008745   -0.000010    0.000062    0.000192
   10.578079    0.010961    0.010961    0.010964   -0.000010    0.000060    0.000183
   11.239209    0.022056    0.022056    0.022059   -0.000009    0.000057    0.000176
   11.900339    0.039953    0.039953    0.039956   -0.000009    0.000055    0.000170
   12.561469    0.219531    0.219531    0.219534   -0.000008    0.000053    0.000165
   13.222599    0.192996    0.192997    0.193002   -0.000008    0.000051    0.000161
   13.883729    0.519604    0.519609    0.519610   -0.000006    0.000052    0.000158
   14.544858    0.146014    0.146015    0.146018   -0.000008    0.000050    0.000155
   15.205988    0.435127    0.435129    0.435137   -0.000006    0.000049    0.000155
   15.867118    0.443426    0.443428    0.443433   -0.000006    0.000048    0.000154
   16.528248    0.302491    0.302494    0.302497   -0.000006    0.000048    0.000153
   17.189378    0.196962    0.196963    0.196967   -0.000007    0.000048    0.000154
   17.850508    0.225513    0.225514    0.225518   -0.000006    0.000049    0.000155
   18.511638    0.358031    0.358031    0.358036   -0.000008    0.000049    0.000157
   19.172768    0.218605    0.218618    0.218629   -0.000001    0.000043    0.000166
   19.833898    0.254798    0.254796    0.254800   -0.000008    0.000052    0.000165
   20.495028    0.422107    0.422108    0.422112   -0.000006    0.000056    0.000166
   21.156158    0.323832    0.323839    0.323849   -0.000005    0.000051    0.000185
   21.817288    0.357874    0.357873    0.357880   -0.000009    0.000059    0.000190
   22.478418    0.324171    0.324170    0.324180   -0.000008    0.000064    0.000202
   23.139548    0.435566    0.435564    0.435575   -0.000009    0.000069    0.000222
   23.800677    0.153691    0.153689    0.153704   -0.000011    0.000078    0.000248
   24.461807    0.195723    0.195725    0.195745   -0.000010    0.000088    0.000286
   25.122937    0.298775    0.298764    0.298806   -0.000020    0.000105    0.000349
   25.784067    0.166769    0.166762    0.166812   -0.000021    0.000143    0.000441
   26.445197    0.313761    0.313744    0.313862   -0.000037    0.000218    0.000646
   27.106327    0.292050    0.291979    0.292561   -0.000105    0.000513    0.001288
   27.767457    0.263956    0.262640    0.272538   -0.001867    0.001891   -0.001073
   28.428587    0.236697    0.236662    0.236927   -0.000032   -0.000181   -0.000881
   29.089717    0.386508    0.386499    0.386569   -0.000003   -0.000110   -0.000459
   29.750847    0.193595    0.193592    0.193623    0.000003   -0.000075   -0.000300
   30.411977    0.014403    0.014405    0.014424    0.000009   -0.000058   -0.000214
   31.073107    0.054923    0.055019    0.055049    0.000096   -0.000070   -0.000107
   31.734237    0.009140    0.009141    0.009149   -0.000003   -0.000030   -0.000133
   32.395367    0.002940    0.002940    0.002945   -0.000003   -0.000025   -0.000111
   33.056496    0.001836    0.001836    0.001840   -0.000003   -0.000021   -0.000092
   33.717626    0.001319    0.001319    0.001322   -0.000003   -0.000017   -0.000078
   34.378756    0.001011    0.001011    0.001013   -0.000003   -0.000014   -0.000067
   35.039886    0.000808    0.000807    0.000810   -0.000003   -0.000012   -0.000058
   35.701016    0.000668    0.000668    0.000670   -0.000003   -0.000009   -0.000050
   36.362146    0.000615    0.000615    0.000617   -0.000003   -0.000008   -0.000044
   37.023276    0.000551    0.000551    0.000553   -0.000003   -0.000006   -0.000038
   37.684406    0.000733    0.000733    0.000734   -0.000003   -0.000005   -0.000033
   38.345536    0.000556    0.000555    0.000557   -0.000003   -0.000003   -0.000029
   39.006666    0.001331    0.001331    0.001332   -0.000003   -0.000002   -0.000025
[...]
   56.196044    0.000056    0.000056    0.000058    0.000005   -0.000014   -0.000029
   56.857174    0.000046    0.000046    0.000047    0.000005   -0.000012   -0.000026
   57.518304    0.000039    0.000039    0.000040    0.000004   -0.000011   -0.000023
   58.179434    0.000034    0.000033    0.000034    0.000004   -0.000010   -0.000021
   58.840564    0.000029    0.000029    0.000030    0.000003   -0.000009   -0.000019
   59.501694    0.000026    0.000026    0.000027    0.000003   -0.000008   -0.000018
   60.162824    0.000024    0.000024    0.000024    0.000003   -0.000008   -0.000016
   60.823953    0.000021    0.000021    0.000022    0.000003   -0.000007   -0.000015
   61.485083    0.000019    0.000019    0.000020    0.000002   -0.000007   -0.000014
   62.146213    0.000018    0.000018    0.000018    0.000002   -0.000006   -0.000013
   62.807343    0.000016    0.000016    0.000017    0.000002   -0.000006   -0.000013
   63.468473    0.000015    0.000015    0.000015    0.000002   -0.000005   -0.000012
   64.129603    0.000014    0.000014    0.000014    0.000002   -0.000005   -0.000011
   64.790733    0.000013    0.000013    0.000013    0.000002   -0.000005   -0.000011
   65.451863    0.000012    0.000012    0.000012    0.000002   -0.000005   -0.000010

  frequency dependent      REAL DIELECTRIC FUNCTION (independent particle, no local field effects) current-current (2nd set in vasprun.xml)
     E(ev)        X           Y           Z          XY          YZ          ZX
    0.000000    1.172068    1.172053    1.172190   -0.000015    0.000033    0.000018
    0.661130    1.172293    1.172278    1.172415   -0.000015    0.000033    0.000018
    1.322260    1.172979    1.172964    1.173101   -0.000016    0.000033    0.000018
    1.983390    1.174138    1.174122    1.174260   -0.000016    0.000033    0.000018
    2.644520    1.175794    1.175778    1.175916   -0.000016    0.000033    0.000018
    3.305650    1.177983    1.177968    1.178107   -0.000016    0.000033    0.000018
    3.966780    1.180757    1.180742    1.180881   -0.000016    0.000033    0.000018
    4.627910    1.184185    1.184170    1.184310   -0.000016    0.000034    0.000018
    5.289039    1.188361    1.188345    1.188487   -0.000016    0.000034    0.000019
    5.950169    1.193411    1.193395    1.193538   -0.000016    0.000034    0.000019
    6.611299    1.199512    1.199496    1.199640   -0.000016    0.000035    0.000019
    7.272429    1.206911    1.206895    1.207041   -0.000017    0.000035    0.000019
    7.933559    1.215975    1.215958    1.216107   -0.000017    0.000035    0.000020
    8.594689    1.227268    1.227251    1.227401   -0.000017    0.000036    0.000020
    9.255819    1.241733    1.241717    1.241869   -0.000017    0.000036    0.000020
    9.916949    1.261147    1.261130    1.261286   -0.000018    0.000037    0.000021
   10.578079    1.289642    1.289625    1.289783   -0.000018    0.000038    0.000021
   11.239209    1.344503    1.344486    1.344647   -0.000018    0.000038    0.000022
   11.900339    1.409814    1.409797    1.409961   -0.000019    0.000039    0.000023
   12.561469    1.151973    1.151953    1.152122   -0.000020    0.000041    0.000023
   13.222599    1.501004    1.500986    1.501160   -0.000020    0.000041    0.000024
   13.883729    1.067357    1.067336    1.067513   -0.000020    0.000044    0.000024
   14.544858    1.169796    1.169775    1.169959   -0.000022    0.000044    0.000025
   15.205988    1.206112    1.206091    1.206281   -0.000022    0.000046    0.000026
   15.867118    1.153533    1.153511    1.153707   -0.000024    0.000047    0.000027
   16.528248    0.976927    0.976903    0.977107   -0.000025    0.000050    0.000027
   17.189378    1.348679    1.348657    1.348871   -0.000025    0.000051    0.000030
   17.850508    1.059748    1.059718    1.059941   -0.000029    0.000055    0.000029
   18.511638    1.324215    1.324185    1.324419   -0.000031    0.000058    0.000031
   19.172768    1.185610    1.185585    1.185838   -0.000029    0.000057    0.000036
   19.833898    1.061516    1.061485    1.061750   -0.000033    0.000064    0.000036
   20.495028    1.109069    1.109040    1.109322   -0.000033    0.000072    0.000035
   21.156158    1.013890    1.013844    1.014145   -0.000043    0.000082    0.000033
   21.817288    1.252856    1.252812    1.253144   -0.000045    0.000083    0.000046
   22.478418    0.702381    0.702337    0.702705   -0.000048    0.000090    0.000052
   23.139548    1.154410    1.154359    1.154771   -0.000054    0.000103    0.000056
   23.800677    0.857189    0.857133    0.857607   -0.000063    0.000116    0.000066
   24.461807    0.808483    0.808415    0.808973   -0.000075    0.000139    0.000075
   25.122937    1.120413    1.120332    1.121015   -0.000091    0.000173    0.000088
   25.784067    0.845810    0.845700    0.846612   -0.000122    0.000223    0.000117
   26.445197    1.050253    1.050085    1.051460   -0.000182    0.000329    0.000155
   27.106327    0.868460    0.868108    0.871038   -0.000338    0.000634    0.000166
   27.767457    0.876808    0.877722    0.870671    0.001201   -0.003179   -0.006395
   28.428587    0.675643    0.675912    0.673869    0.000346   -0.000583   -0.000509
   29.089717    0.774766    0.774910    0.773837    0.000184   -0.000297   -0.000228
   29.750847    0.550066    0.550168    0.549458    0.000130   -0.000199   -0.000140
   30.411977    0.735002    0.735093    0.734570    0.000113   -0.000151   -0.000091
   31.073107    0.766373    0.766357    0.765934   -0.000025   -0.000094   -0.000144
   31.734237    0.788755    0.788783    0.788441    0.000037   -0.000081   -0.000085
   32.395367    0.827259    0.827286    0.827004    0.000038   -0.000073   -0.000068
   33.056496    0.848937    0.848962    0.848723    0.000036   -0.000063   -0.000057
   33.717626    0.864841    0.864864    0.864658    0.000033   -0.000055   -0.000050
   34.378756    0.877458    0.877478    0.877300    0.000030   -0.000049   -0.000045
   35.039886    0.887888    0.887906    0.887750    0.000027   -0.000043   -0.000040
   35.701016    0.896755    0.896771    0.896635    0.000025   -0.000038   -0.000037
   36.362146    0.904507    0.904521    0.904402    0.000023   -0.000034   -0.000034
   37.023276    0.911295    0.911308    0.911203    0.000022   -0.000031   -0.000032
   37.684406    0.917514    0.917525    0.917433    0.000020   -0.000028   -0.000030
   38.345536    0.922437    0.922447    0.922367    0.000019   -0.000025   -0.000028
   39.006666    0.928617    0.928626    0.928556    0.000018   -0.000023   -0.000027
[...]
   56.196044    0.969904    0.969918    0.969778    0.000003   -0.000026    0.000002
   56.857174    0.970930    0.970943    0.970817    0.000003   -0.000024    0.000001
   57.518304    0.971869    0.971881    0.971766    0.000003   -0.000022    0.000001
   58.179434    0.972740    0.972751    0.972645    0.000003   -0.000020    0.000000
   58.840564    0.973555    0.973565    0.973467    0.000003   -0.000019    0.000000
   59.501694    0.974321    0.974330    0.974239    0.000003   -0.000018   -0.000000
   60.162824    0.975045    0.975054    0.974968    0.000003   -0.000017   -0.000000
   60.823953    0.975731    0.975740    0.975659    0.000003   -0.000016   -0.000001
   61.485083    0.976384    0.976392    0.976315    0.000003   -0.000015   -0.000001
   62.146213    0.977005    0.977013    0.976940    0.000003   -0.000014   -0.000001
   62.807343    0.977598    0.977606    0.977536    0.000003   -0.000014   -0.000001
   63.468473    0.978166    0.978172    0.978106    0.000003   -0.000013   -0.000001
   64.129603    0.978708    0.978715    0.978652    0.000003   -0.000013   -0.000001
   64.790733    0.979229    0.979235    0.979175    0.000002   -0.000012   -0.000001
   65.451863    0.979728    0.979734    0.979676    0.000002   -0.000012   -0.000001

 The outermost node in the dielectric function lies at epsilon=  -1.0