 vasp.5.4.4.18Apr17-6-g9f103f2a35 (build Jul 09 2018 16:43:14) complex

 executed on             LinuxIFC date 2018.11.29  20:43:28

 INCAR:
 POTCAR:    PAW_PBE Ne_GW 22Sep2014

 POTCAR:    PAW_PBE Ne_GW 22Sep2014
   VRHFIN =Ne: s2p6

   TITEL  = PAW_PBE Ne_GW 22Sep2014
   POMASS =   20.180; ZVAL   =    8.000    mass and valenz
   ENMAX  =  432.275; ENMIN  =  324.206 eV

  PAW_PBE Ne_GW 22Sep2014               :

 POSCAR: Ne_FCC
  positions in direct lattice
  velocities in cartesian coordinates

 METAGGA = SCAN     LMAXTAU =  0    LMIXTAU =  F

 ion  position               nearest neighbor table
   1  0.000  0.000  0.000-

IMPORTANT INFORMATION: All symmetrisations will be switched off!
NOSYMM: (Re-)initialisation of all symmetry stuff for point group C_1.

 KPOINTS: k-points

Automatic generation of k-mesh.
Space group operators:
 irot       det(A)        alpha          n_x          n_y          n_z        tau_x        tau_y        tau_z
    1     1.000000     0.000000     1.000000     0.000000     0.000000     0.000000     0.000000     0.000000

 Subroutine IBZKPT returns following result:

 Found    216 irreducible k-points:

 Following reciprocal coordinates:
            Coordinates               Weight
  0.000000  0.000000  0.000000      1.000000
  0.166667  0.000000  0.000000      1.000000
  0.333333 -0.000000  0.000000      1.000000
  0.500000  0.000000 -0.000000      1.000000
 -0.333333  0.000000  0.000000      1.000000
 -0.166667  0.000000 -0.000000      1.000000
  0.000000  0.166667  0.000000      1.000000
  0.166667  0.166667  0.000000      1.000000
  0.333333  0.166667  0.000000      1.000000
  0.500000  0.166667  0.000000      1.000000
 -0.333333  0.166667 -0.000000      1.000000
 -0.166667  0.166667 -0.000000      1.000000
  0.000000  0.333333  0.000000      1.000000
  0.166667  0.333333  0.000000      1.000000
  0.333333  0.333333  0.000000      1.000000
  0.500000  0.333333  0.000000      1.000000
 -0.333333  0.333333 -0.000000      1.000000
 -0.166667  0.333333  0.000000      1.000000
  0.000000  0.500000  0.000000      1.000000
  0.166667  0.500000  0.000000      1.000000
  0.333333  0.500000  0.000000      1.000000
  0.500000  0.500000  0.000000      1.000000
 -0.333333  0.500000  0.000000      1.000000
 -0.166667  0.500000  0.000000      1.000000
  0.000000 -0.333333 -0.000000      1.000000
  0.166667 -0.333333 -0.000000      1.000000
  0.333333 -0.333333  0.000000      1.000000
  0.500000 -0.333333  0.000000      1.000000
 -0.333333 -0.333333 -0.000000      1.000000
 -0.166667 -0.333333 -0.000000      1.000000
  0.000000 -0.166667 -0.000000      1.000000
  0.166667 -0.166667  0.000000      1.000000
  0.333333 -0.166667  0.000000      1.000000
  0.500000 -0.166667  0.000000      1.000000
 -0.333333 -0.166667 -0.000000      1.000000
 -0.166667 -0.166667 -0.000000      1.000000
  0.000000  0.000000  0.166667      1.000000
  0.166667  0.000000  0.166667      1.000000
  0.333333 -0.000000  0.166667      1.000000
  0.500000  0.000000  0.166667      1.000000
 -0.333333  0.000000  0.166667      1.000000
 -0.166667  0.000000  0.166667      1.000000
  0.000000  0.166667  0.166667      1.000000
  0.166667  0.166667  0.166667      1.000000
  0.333333  0.166667  0.166667      1.000000
  0.500000  0.166667  0.166667      1.000000
 -0.333333  0.166667  0.166667      1.000000
 -0.166667  0.166667  0.166667      1.000000
  0.000000  0.333333  0.166667      1.000000
  0.166667  0.333333  0.166667      1.000000
  0.333333  0.333333  0.166667      1.000000
  0.500000  0.333333  0.166667      1.000000
 -0.333333  0.333333  0.166667      1.000000
 -0.166667  0.333333  0.166667      1.000000
  0.000000  0.500000  0.166667      1.000000
  0.166667  0.500000  0.166667      1.000000
  0.333333  0.500000  0.166667      1.000000
  0.500000  0.500000  0.166667      1.000000
 -0.333333  0.500000  0.166667      1.000000
 -0.166667  0.500000  0.166667      1.000000
[...]
  0.500000  0.500000 -0.166667      1.000000
 -0.333333  0.500000 -0.166667      1.000000
 -0.166667  0.500000 -0.166667      1.000000
  0.000000 -0.333333 -0.166667      1.000000
  0.166667 -0.333333 -0.166667      1.000000
  0.333333 -0.333333 -0.166667      1.000000
  0.500000 -0.333333 -0.166667      1.000000
 -0.333333 -0.333333 -0.166667      1.000000
 -0.166667 -0.333333 -0.166667      1.000000
  0.000000 -0.166667 -0.166667      1.000000
  0.166667 -0.166667 -0.166667      1.000000
  0.333333 -0.166667 -0.166667      1.000000
  0.500000 -0.166667 -0.166667      1.000000
 -0.333333 -0.166667 -0.166667      1.000000
 -0.166667 -0.166667 -0.166667      1.000000

 Following cartesian coordinates:
            Coordinates               Weight
  0.000000  0.000000  0.000000      1.000000
  0.056037 -0.032353 -0.022877      1.000000
  0.112074 -0.064706 -0.045754      1.000000
  0.168111 -0.097059 -0.068631      1.000000
 -0.112074  0.064706  0.045754      1.000000
 -0.056037  0.032353  0.022877      1.000000
  0.000000  0.064706 -0.022877      1.000000
  0.056037  0.032353 -0.045754      1.000000
  0.112074  0.000000 -0.068631      1.000000
  0.168111 -0.032353 -0.091508      1.000000
 -0.112074  0.129412  0.022877      1.000000
 -0.056037  0.097059  0.000000      1.000000
  0.000000  0.129412 -0.045754      1.000000
  0.056037  0.097059 -0.068631      1.000000
  0.112074  0.064706 -0.091508      1.000000
  0.168111  0.032353 -0.114385      1.000000
 -0.112074  0.194118  0.000000      1.000000
 -0.056037  0.161765 -0.022877      1.000000
  0.000000  0.194118 -0.068631      1.000000
  0.056037  0.161765 -0.091508      1.000000
  0.112074  0.129412 -0.114385      1.000000
  0.168111  0.097059 -0.137262      1.000000
 -0.112074  0.258824 -0.022877      1.000000
 -0.056037  0.226471 -0.045754      1.000000
  0.000000 -0.129412  0.045754      1.000000
  0.056037 -0.161765  0.022877      1.000000
  0.112074 -0.194118 -0.000000      1.000000
  0.168111 -0.226471 -0.022877      1.000000
 -0.112074 -0.064706  0.091508      1.000000
 -0.056037 -0.097059  0.068631      1.000000
  0.000000 -0.064706  0.022877      1.000000
  0.056037 -0.097059 -0.000000      1.000000
  0.112074 -0.129412 -0.022877      1.000000
  0.168111 -0.161765 -0.045754      1.000000
 -0.112074 -0.000000  0.068631      1.000000
 -0.056037 -0.032353  0.045754      1.000000
  0.000000  0.000000  0.068631      1.000000
  0.056037 -0.032353  0.045754      1.000000
  0.112074 -0.064706  0.022877      1.000000
  0.168111 -0.097059 -0.000000      1.000000
 -0.112074  0.064706  0.114385      1.000000
 -0.056037  0.032353  0.091508      1.000000
  0.000000  0.064706  0.045754      1.000000
  0.056037  0.032353  0.022877      1.000000
  0.112074  0.000000  0.000000      1.000000
  0.168111 -0.032353 -0.022877      1.000000
 -0.112074  0.129412  0.091508      1.000000
 -0.056037  0.097059  0.068631      1.000000
  0.000000  0.129412  0.022877      1.000000
  0.056037  0.097059  0.000000      1.000000
  0.112074  0.064706 -0.022877      1.000000
  0.168111  0.032353 -0.045754      1.000000
 -0.112074  0.194118  0.068631      1.000000
 -0.056037  0.161765  0.045754      1.000000
  0.000000  0.194118  0.000000      1.000000
  0.056037  0.161765 -0.022877      1.000000
  0.112074  0.129412 -0.045754      1.000000
  0.168111  0.097059 -0.068631      1.000000
 -0.112074  0.258824  0.045754      1.000000
 -0.056037  0.226471  0.022877      1.000000
[...]
  0.168111  0.097059 -0.205893      1.000000
 -0.112074  0.258824 -0.091508      1.000000
 -0.056037  0.226471 -0.114385      1.000000
  0.000000 -0.129412 -0.022877      1.000000
  0.056037 -0.161765 -0.045754      1.000000
  0.112074 -0.194118 -0.068631      1.000000
  0.168111 -0.226471 -0.091508      1.000000
 -0.112074 -0.064706  0.022877      1.000000
 -0.056037 -0.097059 -0.000000      1.000000
  0.000000 -0.064706 -0.045754      1.000000
  0.056037 -0.097059 -0.068631      1.000000
  0.112074 -0.129412 -0.091508      1.000000
  0.168111 -0.161765 -0.114385      1.000000
 -0.112074 -0.000000  0.000000      1.000000
 -0.056037 -0.032353 -0.022877      1.000000

 SYSTEM =  Og_FCC
 POSCAR =  Ne_FCC

 Startparameter for this run:
   NWRITE =      2    write-flag & timer
   PREC   = accura    normal or accurate (medium, high low for compatibility)
   ISTART =      1    job   : 0-new  1-cont  2-samecut
   ICHARG =      0    charge: 1-file 2-atom 10-const
   ISPIN  =      1    spin polarized calculation?
   LNONCOLLINEAR =      T non collinear calculations
   LSORBIT =      T    spin-orbit coupling
   INIWAV =      1    electr: 0-lowe 1-rand  2-diag
   LASPH  =      F    aspherical Exc in radial PAW
   METAGGA=      F    non-selfconsistent MetaGGA calc.

 Electronic Relaxation 1
   ENCUT  =  300.0 eV  22.05 Ry    4.70 a.u.   4.20  4.20  4.20*2*pi/ulx,y,z
   ENINI  =  300.0     initial cutoff
   ENAUG  =  755.8 eV  augmentation charge cutoff
   NELM   =     50;   NELMIN=  2; NELMDL= -5     # of ELM steps
   EDIFF  = 0.1E-07   stopping-criterion for ELM
   LREAL  =      F    real-space projection
   NLSPLINE    = F    spline interpolate recip. space projectors
   LCOMPAT=      F    compatible to vasp.4.4
   GGA_COMPAT  = F    GGA compatible to vasp.4.4-vasp.4.6
   LMAXPAW     = -100 max onsite density
   LMAXMIX     =    2 max onsite mixed and CHGCAR
   VOSKOWN=      0    Vosko Wilk Nusair interpolation
   ROPT   =    0.00000
 Ionic relaxation
   EDIFFG = 0.1E-04   stopping-criterion for IOM
   NSW    =      1    number of steps for IOM
   NBLOCK =      1;   KBLOCK =      1    inner block; outer block
   IBRION =     -1    ionic relax: 0-MD 1-quasi-New 2-CG
   NFREE  =      5    steps in history (QN), initial steepest desc. (CG)
   ISIF   =      3    stress and relaxation
   IWAVPR =     10    prediction:  0-non 1-charg 2-wave 3-comb
   ISYM   =      0    0-nonsym 1-usesym 2-fastsym
   LCORR  =      T    Harris-Foulkes like correction to forces

   POTIM  = 0.1000    time-step for ionic-motion
   TEIN   =    0.0    initial temperature
   TEBEG  =    0.0;   TEEND  =   0.0 temperature during run
   SMASS  =  -3.00    Nose mass-parameter (am)
   estimated Nose-frequenzy (Omega)   =  0.10E-29 period in steps =****** mass=  -0.202E-27a.u.
   SCALEE = 1.0000    scale energy and forces
   NPACO  =    256;   APACO  = 16.0  distance and # of slots for P.C.
   PSTRESS=    0.0 pullay stress

  Mass of Ions in am
   POMASS =  20.18
  Ionic Valenz
   ZVAL   =   8.00
  Atomic Wigner-Seitz radii
  virtual crystal weights
   VCA    =   1.00
   NELECT =       8.0000    total number of electrons
   NUPDOWN=      -1.0000    fix difference up-down

 DOS related values:
   EMIN   =  10.00;   EMAX   =-10.00  energy-range for DOS
   EFERMI =   0.00
   ISMEAR =     0;   SIGMA  =   0.00  broadening in eV -4-tet -1-fermi 0-gaus

 Electronic relaxation 2 (details)
   IALGO  =     90    algorithm
   LDIAG  =      T    sub-space diagonalisation (order eigenvalues)
   LSUBROT=      F    optimize rotation matrix (better conditioning)
   TURBO    =      0    0=normal 1=particle mesh
   IRESTART =      0    0=no restart 2=restart with 2 vectors
   NREBOOT  =      0    no. of reboots
   NMIN     =      0    reboot dimension
[...]
   97.702337    0.955257    0.955259    0.955259   -0.000001   -0.000000   -0.000001
   99.696262    0.935549    0.935551    0.935551   -0.000001   -0.000000   -0.000001
  101.690188    0.941965    0.941965    0.941965   -0.000000   -0.000000   -0.000000
  103.684113    0.950788    0.950788    0.950788   -0.000000   -0.000000   -0.000000
  105.678038    0.957893    0.957893    0.957893    0.000000    0.000000    0.000000
  107.671963    0.960938    0.960938    0.960938    0.000000    0.000000    0.000000
  109.665889    0.948650    0.948651    0.948652   -0.000001   -0.000001   -0.000001
  111.659814    0.964533    0.964502    0.964497    0.000028    0.000011    0.000020
  113.653739    0.947182    0.947184    0.947184   -0.000001   -0.000000   -0.000001
  115.647664    0.942199    0.942200    0.942201   -0.000001   -0.000001   -0.000001
  117.641590    0.958663    0.958663    0.958663    0.000000    0.000000    0.000000
[...]
  169.483646    0.978651    0.978651    0.978651    0.000000    0.000000    0.000000
  171.477571    0.979428    0.979428    0.979428    0.000000    0.000000    0.000000
  173.471497    0.980135    0.980135    0.980135    0.000000    0.000000    0.000000
  175.465422    0.980786    0.980785    0.980785    0.000000    0.000000    0.000000
  177.459347    0.981391    0.981391    0.981391    0.000000    0.000000    0.000000
  179.453272    0.981958    0.981958    0.981958    0.000000    0.000000    0.000000
  181.447198    0.982491    0.982491    0.982491    0.000000    0.000000    0.000000
  183.441123    0.982994    0.982994    0.982994    0.000000    0.000000    0.000000
  185.435048    0.983471    0.983471    0.983471    0.000000    0.000000    0.000000
  187.428973    0.983924    0.983924    0.983924    0.000000    0.000000    0.000000
  189.422899    0.984354    0.984354    0.984354    0.000000    0.000000    0.000000
  191.416824    0.984765    0.984765    0.984765    0.000000    0.000000    0.000000
  193.410749    0.985156    0.985156    0.985156    0.000000    0.000000    0.000000
  195.404674    0.985531    0.985531    0.985531    0.000000    0.000000    0.000000
  197.398600    0.985889    0.985889    0.985889    0.000000    0.000000    0.000000

  frequency dependent IMAGINARY DIELECTRIC FUNCTION (independent particle, no local field effects) current-current (2nd set in vasprun.xml)
     E(ev)      X         Y         Z        XY        YZ        ZX
    0.000000    0.000000    0.000000    0.000000    0.000000    0.000000    0.000000
    1.993925    0.000000    0.000000    0.000000    0.000000    0.000000    0.000000
    3.987850    0.000000    0.000000    0.000000    0.000000    0.000000    0.000000
    5.981776    0.000000    0.000000    0.000000    0.000000    0.000000    0.000000
    7.975701    0.000000    0.000000    0.000000    0.000000    0.000000    0.000000
    9.969626    0.000000    0.000000    0.000000    0.000000    0.000000    0.000000
   11.963551    0.000000    0.000000    0.000000    0.000000    0.000000    0.000000
   13.957477    0.000000    0.000000    0.000000    0.000000    0.000000    0.000000
   15.951402    0.113021    0.113009    0.113004    0.000010    0.000004    0.000008
   17.945327    0.000000    0.000000    0.000000    0.000000    0.000000    0.000000
   19.939252    0.489636    0.489388    0.489295    0.000215    0.000089    0.000154
   21.933178    0.894711    0.894777    0.894800   -0.000057   -0.000023   -0.000040
   23.927103    0.223166    0.223166    0.223166   -0.000000   -0.000000    0.000000
   25.921028    0.194922    0.194920    0.194920    0.000002    0.000001    0.000001
   27.914953    0.000000    0.000000    0.000000    0.000000    0.000000    0.000000
   29.908879    0.224135    0.224136    0.224137   -0.000001   -0.000000   -0.000001
   31.902804    0.825113    0.821844    0.820893    0.002822    0.001165    0.002003
   33.896729    0.074123    0.074128    0.074130   -0.000004   -0.000002   -0.000003
   35.890654    0.053237    0.053241    0.053242   -0.000003   -0.000001   -0.000002
   37.884580    0.224101    0.224090    0.224086    0.000009    0.000004    0.000007
   39.878505    0.147685    0.147680    0.147678    0.000004    0.000003    0.000004
   41.872430    0.226975    0.226944    0.226934    0.000027    0.000011    0.000019
   43.866355    0.315600    0.315589    0.315586    0.000009    0.000004    0.000006
   45.860281    0.263337    0.263328    0.263325    0.000008    0.000003    0.000005
   47.854206    0.285781    0.285890    0.285929   -0.000095   -0.000038   -0.000066
   49.848131    0.294853    0.294850    0.294848    0.000003    0.000001    0.000002
   51.842056    0.102990    0.102973    0.102966    0.000015    0.000006    0.000011
   53.835982    0.003467    0.003467    0.003467    0.000000    0.000000    0.000000
   55.829907    0.109602    0.109599    0.109596    0.000002    0.000001    0.000002
   57.823832    0.182708    0.182716    0.182719   -0.000007   -0.000003   -0.000005
   59.817757    0.045814    0.045813    0.045814   -0.000000   -0.000000    0.000000
   61.811683    0.124728    0.124733    0.124734   -0.000004   -0.000002   -0.000003
   63.805608    0.098991    0.098984    0.098979    0.000006    0.000002    0.000004
   65.799533    0.090014    0.090031    0.090038   -0.000015   -0.000006   -0.000011
   67.793458    0.031518    0.031518    0.031517    0.000001    0.000000    0.000000
   69.787384    0.000000    0.000000    0.000000    0.000000    0.000000    0.000000
   71.781309    0.086207    0.086210    0.086210   -0.000002   -0.000001   -0.000001
   73.775234    0.249250    0.249239    0.249235    0.000009    0.000004    0.000007
   75.769159    0.036533    0.036552    0.036559   -0.000017   -0.000007   -0.000012
   77.763085    0.116949    0.116938    0.116934    0.000010    0.000004    0.000007
   79.757010    0.223419    0.223401    0.223398    0.000015    0.000006    0.000011
   81.750935    0.003476    0.003476    0.003476   -0.000000   -0.000000   -0.000000
   83.744860    0.061344    0.061348    0.061349   -0.000003   -0.000001   -0.000002
   85.738786    0.033317    0.033316    0.033315    0.000001    0.000001    0.000001
   87.732711    0.000000    0.000000    0.000000    0.000000    0.000000    0.000000
   89.726636    0.012674    0.012674    0.012674   -0.000000   -0.000000   -0.000000
   91.720561    0.061602    0.061600    0.061600    0.000001    0.000000    0.000001
   93.714487    0.066536    0.066547    0.066550   -0.000010   -0.000004   -0.000007
   95.708412    0.044361    0.044364    0.044364   -0.000002   -0.000001   -0.000001
   97.702337    0.035640    0.035633    0.035632    0.000007    0.000003    0.000005
   99.696262    0.063635    0.063633    0.063633    0.000001    0.000000    0.000001
  101.690188    0.015718    0.015715    0.015714    0.000003    0.000001    0.000002
  103.684113    0.010924    0.010925    0.010925   -0.000000   -0.000000   -0.000000
  105.678038    0.046033    0.046037    0.046038   -0.000003   -0.000001   -0.000002
  107.671963    0.060547    0.060547    0.060547    0.000000    0.000000    0.000000
  109.665889    0.062912    0.062913    0.062914   -0.000001   -0.000000   -0.000001
  111.659814    0.089229    0.089344    0.089365   -0.000106   -0.000040   -0.000076
  113.653739    0.043137    0.043137    0.043137    0.000000    0.000000    0.000000
  115.647664    0.039886    0.039883    0.039882    0.000003    0.000001    0.000002
  117.641590    0.033869    0.033868    0.033867    0.000001    0.000000    0.000001
[...]
  169.483646    0.000000    0.000000    0.000000    0.000000    0.000000    0.000000
  171.477571    0.000000    0.000000    0.000000    0.000000    0.000000    0.000000
  173.471497    0.000000    0.000000    0.000000    0.000000    0.000000    0.000000
  175.465422    0.000000    0.000000    0.000000    0.000000    0.000000    0.000000
  177.459347    0.000000    0.000000    0.000000    0.000000    0.000000    0.000000
  179.453272    0.000000    0.000000    0.000000    0.000000    0.000000    0.000000
  181.447198    0.000000    0.000000    0.000000    0.000000    0.000000    0.000000
  183.441123    0.000000    0.000000    0.000000    0.000000    0.000000    0.000000
  185.435048    0.000000    0.000000    0.000000    0.000000    0.000000    0.000000
  187.428973    0.000000    0.000000    0.000000    0.000000    0.000000    0.000000
  189.422899    0.000000    0.000000    0.000000    0.000000    0.000000    0.000000
  191.416824    0.000000    0.000000    0.000000    0.000000    0.000000    0.000000
  193.410749    0.000000    0.000000    0.000000    0.000000    0.000000    0.000000
  195.404674    0.000000    0.000000    0.000000    0.000000    0.000000    0.000000
  197.398600    0.000000    0.000000    0.000000    0.000000    0.000000    0.000000

  frequency dependent      REAL DIELECTRIC FUNCTION (independent particle, no local field effects) current-current (2nd set in vasprun.xml)
     E(ev)        X           Y           Z          XY          YZ          ZX
    0.000000    1.285545    1.286313    1.286313   -0.000002   -0.000001   -0.000002
    1.993925    1.287825    1.287833    1.287833   -0.000002   -0.000001   -0.000002
    3.987850    1.293820    1.293824    1.293824   -0.000002   -0.000001   -0.000002
    5.981776    1.304842    1.304846    1.304847   -0.000003   -0.000001   -0.000002
    7.975701    1.323115    1.323119    1.323120   -0.000003   -0.000001   -0.000002
    9.969626    1.354304    1.354309    1.354310   -0.000004   -0.000001   -0.000003
   11.963551    1.420750    1.420757    1.420758   -0.000005   -0.000002   -0.000004
   13.957477    1.355466    1.355469    1.355470   -0.000003   -0.000001   -0.000002
   15.951402    1.533777    1.533790    1.533794   -0.000011   -0.000005   -0.000008
   17.945327    1.599711    1.599743    1.599755   -0.000028   -0.000012   -0.000020
   19.939252    1.273318    1.273254    1.273231    0.000056    0.000023    0.000040
   21.933178    1.050023    1.050047    1.050057   -0.000021   -0.000009   -0.000015
   23.927103    1.055759    1.055763    1.055765   -0.000004   -0.000001   -0.000002
   25.921028    0.816677    0.816664    0.816659    0.000012    0.000005    0.000008
   27.914953    0.851861    0.851864    0.851866   -0.000003   -0.000001   -0.000002
   29.908879    1.065577    1.065511    1.065503    0.000053    0.000014    0.000029
   31.902804    1.069990    1.069205    1.068977    0.000677    0.000280    0.000481
   33.896729    0.878608    0.878618    0.878622   -0.000009   -0.000004   -0.000007
   35.890654    0.989169    0.989173    0.989174   -0.000003   -0.000001   -0.000002
   37.884580    0.913779    0.913773    0.913770    0.000005    0.000002    0.000003
   39.878505    0.964834    0.964834    0.964834    0.000000   -0.000000   -0.000000
   41.872430    0.950113    0.950116    0.950116   -0.000002   -0.000001   -0.000001
   43.866355    1.302511    1.302545    1.302561   -0.000030   -0.000012   -0.000021
   45.860281    1.123439    1.123488    1.123511   -0.000043   -0.000017   -0.000030
   47.854206    0.640802    0.640830    0.640840   -0.000024   -0.000010   -0.000017
   49.848131    0.739386    0.739405    0.739415   -0.000016   -0.000007   -0.000012
   51.842056    0.856062    0.856060    0.856059    0.000002    0.000001    0.000001
   53.835982    0.958898    0.958897    0.958897    0.000001    0.000000    0.000001
   55.829907    0.890286    0.890286    0.890285    0.000000    0.000000    0.000000
   57.823832    0.956934    0.956932    0.956931    0.000002    0.000001    0.000001
   59.817757    0.956718    0.956721    0.956722   -0.000003   -0.000001   -0.000002
   61.811683    0.913117    0.913118    0.913119   -0.000001   -0.000000   -0.000001
   63.805608    0.912758    0.912759    0.912758   -0.000000   -0.000000   -0.000000
   65.799533    0.960141    0.960137    0.960136    0.000004    0.000001    0.000002
   67.793458    0.936448    0.936449    0.936450   -0.000001   -0.000000   -0.000001
   69.787384    0.982025    0.982026    0.982026   -0.000001   -0.000000   -0.000000
   71.781309    0.931039    0.931045    0.931048   -0.000005   -0.000002   -0.000004
   73.775234    0.919304    0.919311    0.919315   -0.000006   -0.000002   -0.000005
   75.769159    0.965014    0.965008    0.965006    0.000005    0.000002    0.000004
   77.763085    0.883921    0.883920    0.883919    0.000001    0.000001    0.000001
   79.757010    0.940101    0.940101    0.940101    0.000000    0.000000    0.000000
   81.750935    0.869515    0.869514    0.869514    0.000001    0.000000    0.000000
   83.744860    0.910557    0.910556    0.910555    0.000001    0.000001    0.000001
   85.738786    0.933755    0.933758    0.933759   -0.000003   -0.000001   -0.000002
   87.732711    0.961388    0.961390    0.961391   -0.000002   -0.000001   -0.000001
   89.726636    0.929480    0.929482    0.929483   -0.000002   -0.000001   -0.000002
   91.720561    0.931726    0.931727    0.931727   -0.000001   -0.000000   -0.000000
   93.714487    0.939370    0.939374    0.939375   -0.000003   -0.000001   -0.000002
   95.708412    0.970152    0.970154    0.970154   -0.000001   -0.000001   -0.000001
   97.702337    0.955163    0.955164    0.955165   -0.000001   -0.000000   -0.000001
   99.696262    0.935440    0.935441    0.935442   -0.000001   -0.000000   -0.000001
  101.690188    0.941934    0.941935    0.941935   -0.000000   -0.000000   -0.000000
  103.684113    0.950754    0.950754    0.950754   -0.000000   -0.000000   -0.000000
  105.678038    0.957820    0.957820    0.957820    0.000000    0.000000    0.000000
  107.671963    0.960860    0.960860    0.960860    0.000000    0.000000    0.000000
  109.665889    0.948560    0.948562    0.948562   -0.000001   -0.000001   -0.000001
  111.659814    0.964390    0.964360    0.964354    0.000028    0.000011    0.000020
  113.653739    0.947110    0.947111    0.947111   -0.000001   -0.000000   -0.000001
  115.647664    0.942140    0.942142    0.942142   -0.000001   -0.000001   -0.000001
  117.641590    0.958625    0.958625    0.958625    0.000000    0.000000    0.000000
[...]
  169.483646    0.978653    0.978653    0.978653    0.000000    0.000000    0.000000
  171.477571    0.979430    0.979430    0.979430    0.000000    0.000000    0.000000
  173.471497    0.980137    0.980137    0.980137    0.000000    0.000000    0.000000
  175.465422    0.980788    0.980788    0.980788    0.000000    0.000000    0.000000
  177.459347    0.981393    0.981393    0.981393    0.000000    0.000000    0.000000
  179.453272    0.981960    0.981960    0.981960    0.000000    0.000000    0.000000
  181.447198    0.982493    0.982493    0.982493    0.000000    0.000000    0.000000
  183.441123    0.982996    0.982996    0.982996    0.000000    0.000000    0.000000
  185.435048    0.983473    0.983473    0.983473    0.000000    0.000000    0.000000
  187.428973    0.983925    0.983925    0.983925    0.000000    0.000000    0.000000
  189.422899    0.984356    0.984356    0.984356    0.000000    0.000000    0.000000
  191.416824    0.984766    0.984766    0.984766    0.000000    0.000000    0.000000
  193.410749    0.985158    0.985158    0.985158    0.000000    0.000000    0.000000
  195.404674    0.985532    0.985532    0.985532    0.000000    0.000000    0.000000
  197.398600    0.985891    0.985891    0.985891    0.000000    0.000000    0.000000

 The outermost node in the dielectric function lies at epsilon=  -1.0

 Spin-Orbit-Coupling matrix elements

 Ion:    1  E_soc:     -0.0005498
 l=   1
     0.0000000    -0.0000916    -0.0000916
    -0.0000916     0.0000000    -0.0000916
    -0.0000916    -0.0000916     0.0000000
 l=   2
     0.0000000    -0.0000000     0.0000000    -0.0000000    -0.0000000
    -0.0000000     0.0000000    -0.0000000    -0.0000000    -0.0000000
     0.0000000    -0.0000000     0.0000000    -0.0000000     0.0000000
    -0.0000000    -0.0000000    -0.0000000     0.0000000    -0.0000000
    -0.0000000    -0.0000000     0.0000000    -0.0000000     0.0000000
 l=   3
     0.0000000     0.0000000     0.0000000     0.0000000     0.0000000     0.0000000     0.0000000
     0.0000000     0.0000000     0.0000000     0.0000000     0.0000000     0.0000000     0.0000000
     0.0000000     0.0000000     0.0000000     0.0000000     0.0000000     0.0000000     0.0000000
     0.0000000     0.0000000     0.0000000     0.0000000     0.0000000     0.0000000     0.0000000
     0.0000000     0.0000000     0.0000000     0.0000000     0.0000000     0.0000000     0.0000000
     0.0000000     0.0000000     0.0000000     0.0000000     0.0000000     0.0000000     0.0000000
     0.0000000     0.0000000     0.0000000     0.0000000     0.0000000     0.0000000     0.0000000