 vasp.5.4.4.18Apr17-6-g9f103f2a35 (build Nov 03 2018 10:20:43) complex

 executed on             LinuxIFC date 2018.12.03  15:14:02

 INCAR:
 POTCAR:    PAW_PBE Ne_GW 22Sep2014

 POTCAR:    PAW_PBE Ne_GW 22Sep2014
   VRHFIN =Ne: s2p6

   TITEL  = PAW_PBE Ne_GW 22Sep2014
   POMASS =   20.180; ZVAL   =    8.000    mass and valenz
   ENMAX  =  432.275; ENMIN  =  324.206 eV

  PAW_PBE Ne_GW 22Sep2014               :

 POSCAR: Ne_FCC
  positions in direct lattice
  velocities in cartesian coordinates

 METAGGA = SCAN     LMAXTAU =  0    LMIXTAU =  F

 ion  position               nearest neighbor table
   1  0.000  0.000  0.000-

  LATTYP: Found a face centered cubic cell.
 ALAT       =     4.2055926366

  Lattice vectors:

 A1 = (   2.9738030722,   0.0000000000,   0.0000000000)
 A2 = (   1.4869015361,   2.5753890063,   0.0000000000)
 A3 = (   1.4869015361,   0.8584630021,   2.4281000409)

Analysis of symmetry for initial positions (statically):
 Subroutine PRICEL returns:
 Original cell was already a primitive cell.

 Routine SETGRP: Setting up the symmetry group for a
 face centered cubic supercell.

 Subroutine GETGRP returns: Found 48 space group operations
 (whereof 48 operations were pure point group operations)
 out of a pool of 48 trial point group operations.

The static configuration has the point symmetry O_h .

Analysis of symmetry for dynamics (positions and initial velocities):
 Subroutine PRICEL returns:
 Original cell was already a primitive cell.

 Routine SETGRP: Setting up the symmetry group for a
 face centered cubic supercell.

 Subroutine GETGRP returns: Found 48 space group operations
 (whereof 48 operations were pure point group operations)
 out of a pool of 48 trial point group operations.

The dynamic configuration has the point symmetry O_h .

 Subroutine INISYM returns: Found 48 space group operations
 (whereof 48 operations are pure point group operations),
 and found     1 'primitive' translations

Automatic generation of k-mesh.
 generate k-points for:   13   13   13
Space group operators:
 irot       det(A)        alpha          n_x          n_y          n_z        tau_x        tau_y        tau_z
    1     1.000000     0.000000     1.000000     0.000000     0.000000     0.000000     0.000000     0.000000
    2    -1.000000     0.000000     1.000000     0.000000     0.000000     0.000000     0.000000     0.000000
    3     1.000000   120.000000    -0.816497    -0.471405    -0.333333     0.000000     0.000000     0.000000
    4    -1.000000   120.000000    -0.816497    -0.471405    -0.333333     0.000000     0.000000     0.000000
    5     1.000000   120.000000     0.816497     0.471405     0.333333     0.000000     0.000000     0.000000
    6    -1.000000   120.000000     0.816497     0.471405     0.333333     0.000000     0.000000     0.000000
    7     1.000000    90.000000    -0.707107    -0.408248     0.577350     0.000000     0.000000     0.000000
    8    -1.000000    90.000000    -0.707107    -0.408248     0.577350     0.000000     0.000000     0.000000
    9     1.000000   180.000000     1.000000     0.000000     0.000000     0.000000     0.000000     0.000000
   10    -1.000000   180.000000     1.000000     0.000000     0.000000     0.000000     0.000000     0.000000
   11     1.000000    90.000000     0.707107    -0.408248     0.577350     0.000000     0.000000     0.000000
   12    -1.000000    90.000000     0.707107    -0.408248     0.577350     0.000000     0.000000     0.000000
   13     1.000000   180.000000     0.707107     0.408248    -0.577350     0.000000     0.000000     0.000000
   14    -1.000000   180.000000     0.707107     0.408248    -0.577350     0.000000     0.000000     0.000000
   15     1.000000   120.000000     0.816497    -0.471405    -0.333333     0.000000     0.000000     0.000000
   16    -1.000000   120.000000     0.816497    -0.471405    -0.333333     0.000000     0.000000     0.000000
   17     1.000000   120.000000     0.000000    -0.942809     0.333333     0.000000     0.000000     0.000000
   18    -1.000000   120.000000     0.000000    -0.942809     0.333333     0.000000     0.000000     0.000000
   19     1.000000    90.000000     0.707107     0.408248    -0.577350     0.000000     0.000000     0.000000
   20    -1.000000    90.000000     0.707107     0.408248    -0.577350     0.000000     0.000000     0.000000
   21     1.000000    90.000000    -0.000000    -0.816497    -0.577350     0.000000     0.000000     0.000000
   22    -1.000000    90.000000    -0.000000    -0.816497    -0.577350     0.000000     0.000000     0.000000
   23     1.000000   180.000000     0.500000     0.866025     0.000000     0.000000     0.000000     0.000000
   24    -1.000000   180.000000     0.500000     0.866025     0.000000     0.000000     0.000000     0.000000
   25     1.000000   120.000000     0.000000     0.942809    -0.333333     0.000000     0.000000     0.000000
   26    -1.000000   120.000000     0.000000     0.942809    -0.333333     0.000000     0.000000     0.000000
   27     1.000000   120.000000    -0.000000     0.000000    -1.000000     0.000000     0.000000     0.000000
   28    -1.000000   120.000000    -0.000000     0.000000    -1.000000     0.000000     0.000000     0.000000
   29     1.000000   179.999999     0.000000    -0.816497    -0.577350     0.000000     0.000000     0.000000
   30    -1.000000   179.999999     0.000000    -0.816497    -0.577350     0.000000     0.000000     0.000000
   31     1.000000    90.000000    -0.707107     0.408248    -0.577350     0.000000     0.000000     0.000000
   32    -1.000000    90.000000    -0.707107     0.408248    -0.577350     0.000000     0.000000     0.000000
   33     1.000000   180.000000     0.500000     0.288675     0.816497     0.000000     0.000000     0.000000
   34    -1.000000   180.000000     0.500000     0.288675     0.816497     0.000000     0.000000     0.000000
   35     1.000000    90.000000    -0.000000     0.816497     0.577350     0.000000     0.000000     0.000000
   36    -1.000000    90.000000    -0.000000     0.816497     0.577350     0.000000     0.000000     0.000000
   37     1.000000   120.000000    -0.816497     0.471405     0.333333     0.000000     0.000000     0.000000
   38    -1.000000   120.000000    -0.816497     0.471405     0.333333     0.000000     0.000000     0.000000
   39     1.000000   180.000000    -0.707107     0.408248    -0.577350     0.000000     0.000000     0.000000
   40    -1.000000   180.000000    -0.707107     0.408248    -0.577350     0.000000     0.000000     0.000000
   41     1.000000   120.000000    -0.000000    -0.000000     1.000000     0.000000     0.000000     0.000000
   42    -1.000000   120.000000    -0.000000    -0.000000     1.000000     0.000000     0.000000     0.000000
   43     1.000000   180.000000     0.000000    -0.577350     0.816497     0.000000     0.000000     0.000000
   44    -1.000000   180.000000     0.000000    -0.577350     0.816497     0.000000     0.000000     0.000000
   45     1.000000   180.000000    -0.500000     0.866025     0.000000     0.000000     0.000000     0.000000
   46    -1.000000   180.000000    -0.500000     0.866025     0.000000     0.000000     0.000000     0.000000
   47     1.000000   180.000000    -0.500000     0.288675     0.816497     0.000000     0.000000     0.000000
   48    -1.000000   180.000000    -0.500000     0.288675     0.816497     0.000000     0.000000     0.000000

 Subroutine IBZKPT returns following result:

 Found     84 irreducible k-points:

 Following reciprocal coordinates:
            Coordinates               Weight
  0.000000  0.000000  0.000000      1.000000
  0.076923  0.000000  0.000000      8.000000
  0.153846 -0.000000  0.000000      8.000000
  0.230769  0.000000  0.000000      8.000000
  0.307692  0.000000  0.000000      8.000000
  0.384615  0.000000  0.000000      8.000000
  0.461538  0.000000  0.000000      8.000000
  0.076923  0.076923  0.000000      6.000000
  0.153846  0.076923  0.000000     24.000000
  0.230769  0.076923  0.000000     24.000000
  0.307692  0.076923  0.000000     24.000000
  0.384615  0.076923  0.000000     24.000000
  0.461538  0.076923  0.000000     24.000000
 -0.461538  0.076923 -0.000000     24.000000
 -0.384615  0.076923 -0.000000     24.000000
 -0.307692  0.076923 -0.000000     24.000000
 -0.230769  0.076923 -0.000000     24.000000
 -0.153846  0.076923 -0.000000     24.000000
 -0.076923  0.076923 -0.000000     12.000000
  0.153846  0.153846  0.000000      6.000000
  0.230769  0.153846  0.000000     24.000000
  0.307692  0.153846  0.000000     24.000000
  0.384615  0.153846  0.000000     24.000000
  0.461538  0.153846  0.000000     24.000000
 -0.461538  0.153846 -0.000000     24.000000
 -0.384615  0.153846  0.000000     24.000000
 -0.307692  0.153846 -0.000000     24.000000
 -0.230769  0.153846 -0.000000     24.000000
 -0.153846  0.153846 -0.000000     12.000000
  0.230769  0.230769  0.000000      6.000000
  0.307692  0.230769  0.000000     24.000000
  0.384615  0.230769  0.000000     24.000000
  0.461538  0.230769  0.000000     24.000000
 -0.461538  0.230769 -0.000000     24.000000
 -0.384615  0.230769 -0.000000     24.000000
 -0.307692  0.230769  0.000000     24.000000
 -0.230769  0.230769 -0.000000     12.000000
  0.307692  0.307692  0.000000      6.000000
  0.384615  0.307692  0.000000     24.000000
  0.461538  0.307692  0.000000     24.000000
 -0.461538  0.307692 -0.000000     24.000000
 -0.384615  0.307692 -0.000000     24.000000
 -0.307692  0.307692 -0.000000     12.000000
  0.384615  0.384615  0.000000      6.000000
  0.461538  0.384615  0.000000     24.000000
 -0.461538  0.384615 -0.000000     24.000000
 -0.384615  0.384615  0.000000     12.000000
  0.461538  0.461538  0.000000      6.000000
 -0.461538  0.461538 -0.000000     12.000000
  0.230769  0.153846  0.076923     24.000000
  0.307692  0.153846  0.076923     48.000000
  0.384615  0.153846  0.076923     48.000000
  0.461538  0.153846  0.076923     48.000000
 -0.461538  0.153846  0.076923     48.000000
  0.307692  0.230769  0.076923     24.000000
  0.384615  0.230769  0.076923     48.000000
  0.461538  0.230769  0.076923     48.000000
 -0.461538  0.230769  0.076923     48.000000
 -0.384615  0.230769  0.076923     48.000000
 -0.307692  0.230769  0.076923     48.000000
[...]
 -0.461538  0.384615  0.076923     48.000000
 -0.384615  0.384615  0.076923     48.000000
 -0.307692  0.384615  0.076923     24.000000
 -0.461538  0.461538  0.076923     24.000000
 -0.384615  0.461538  0.076923     24.000000
  0.461538  0.307692  0.153846     24.000000
 -0.461538  0.307692  0.153846     48.000000
 -0.384615  0.307692  0.153846     48.000000
 -0.461538  0.384615  0.153846     24.000000
 -0.384615  0.384615  0.153846     48.000000
 -0.307692  0.384615  0.153846     48.000000
 -0.230769  0.384615  0.153846     24.000000
 -0.384615  0.461538  0.153846     24.000000
 -0.307692  0.461538  0.153846     24.000000
 -0.307692  0.461538  0.230769     24.000000

 Following cartesian coordinates:
            Coordinates               Weight
  0.000000  0.000000  0.000000      1.000000
  0.025867 -0.014934 -0.010560      8.000000
  0.051734 -0.029869 -0.021120      8.000000
[...]
 k-point  4 :   0.2308 0.0000 0.0000  plane waves:     616
 k-point  5 :   0.3077 0.0000 0.0000  plane waves:     613
 k-point  6 :   0.3846 0.0000 0.0000  plane waves:     610
 k-point  7 :   0.4615 0.0000 0.0000  plane waves:     619
 k-point  8 :   0.0769 0.0769 0.0000  plane waves:     617
 k-point  9 :   0.1538 0.0769 0.0000  plane waves:     612
 k-point 10 :   0.2308 0.0769 0.0000  plane waves:     615
 k-point 11 :   0.3077 0.0769 0.0000  plane waves:     618
 k-point 12 :   0.3846 0.0769 0.0000  plane waves:     607
 k-point 13 :   0.4615 0.0769 0.0000  plane waves:     616
 k-point 14 :  -0.4615 0.0769-0.0000  plane waves:     616
 k-point 15 :  -0.3846 0.0769-0.0000  plane waves:     611
 k-point 16 :  -0.3077 0.0769-0.0000  plane waves:     616
 k-point 17 :  -0.2308 0.0769-0.0000  plane waves:     615
 k-point 18 :  -0.1538 0.0769-0.0000  plane waves:     610
 k-point 19 :  -0.0769 0.0769-0.0000  plane waves:     616
 k-point 20 :   0.1538 0.1538 0.0000  plane waves:     597
 k-point 21 :   0.2308 0.1538 0.0000  plane waves:     613
 k-point 22 :   0.3077 0.1538 0.0000  plane waves:     610
 k-point 23 :   0.3846 0.1538 0.0000  plane waves:     617
 k-point 24 :   0.4615 0.1538 0.0000  plane waves:     615
 k-point 25 :  -0.4615 0.1538-0.0000  plane waves:     616
 k-point 26 :  -0.3846 0.1538 0.0000  plane waves:     614
 k-point 27 :  -0.3077 0.1538-0.0000  plane waves:     619
 k-point 28 :  -0.2308 0.1538-0.0000  plane waves:     618
 k-point 29 :  -0.1538 0.1538-0.0000  plane waves:     616
 k-point 30 :   0.2308 0.2308 0.0000  plane waves:     612
 k-point 31 :   0.3077 0.2308 0.0000  plane waves:     616
 k-point 32 :   0.3846 0.2308 0.0000  plane waves:     621
 k-point 33 :   0.4615 0.2308 0.0000  plane waves:     620
 k-point 34 :  -0.4615 0.2308-0.0000  plane waves:     626
 k-point 35 :  -0.3846 0.2308-0.0000  plane waves:     626
 k-point 36 :  -0.3077 0.2308 0.0000  plane waves:     623
 k-point 37 :  -0.2308 0.2308-0.0000  plane waves:     624
 k-point 38 :   0.3077 0.3077 0.0000  plane waves:     624
 k-point 39 :   0.3846 0.3077 0.0000  plane waves:     624
 k-point 40 :   0.4615 0.3077 0.0000  plane waves:     629
 k-point 41 :  -0.4615 0.3077-0.0000  plane waves:     625
 k-point 42 :  -0.3846 0.3077-0.0000  plane waves:     628
 k-point 43 :  -0.3077 0.3077-0.0000  plane waves:     618
 k-point 44 :   0.3846 0.3846 0.0000  plane waves:     628
 k-point 45 :   0.4615 0.3846 0.0000  plane waves:     620
 k-point 46 :  -0.4615 0.3846-0.0000  plane waves:     626
 k-point 47 :  -0.3846 0.3846 0.0000  plane waves:     626
 k-point 48 :   0.4615 0.4615 0.0000  plane waves:     628
 k-point 49 :  -0.4615 0.4615-0.0000  plane waves:     632
 k-point 50 :   0.2308 0.1538 0.0769  plane waves:     612
 k-point 51 :   0.3077 0.1538 0.0769  plane waves:     617
 k-point 52 :   0.3846 0.1538 0.0769  plane waves:     620
 k-point 53 :   0.4615 0.1538 0.0769  plane waves:     616
 k-point 54 :  -0.4615 0.1538 0.0769  plane waves:     616
 k-point 55 :   0.3077 0.2308 0.0769  plane waves:     615
 k-point 56 :   0.3846 0.2308 0.0769  plane waves:     621
 k-point 57 :   0.4615 0.2308 0.0769  plane waves:     617
 k-point 58 :  -0.4615 0.2308 0.0769  plane waves:     622
 k-point 59 :  -0.3846 0.2308 0.0769  plane waves:     624
 k-point 60 :  -0.3077 0.2308 0.0769  plane waves:     620
[...]
 k-point 70 :  -0.4615 0.3846 0.0769  plane waves:     628
 k-point 71 :  -0.3846 0.3846 0.0769  plane waves:     626
 k-point 72 :  -0.3077 0.3846 0.0769  plane waves:     624
 k-point 73 :  -0.4615 0.4615 0.0769  plane waves:     623
 k-point 74 :  -0.3846 0.4615 0.0769  plane waves:     623
 k-point 75 :   0.4615 0.3077 0.1538  plane waves:     623
 k-point 76 :  -0.4615 0.3077 0.1538  plane waves:     624
 k-point 77 :  -0.3846 0.3077 0.1538  plane waves:     622
 k-point 78 :  -0.4615 0.3846 0.1538  plane waves:     627
 k-point 79 :  -0.3846 0.3846 0.1538  plane waves:     632
 k-point 80 :  -0.3077 0.3846 0.1538  plane waves:     629
 k-point 81 :  -0.2308 0.3846 0.1538  plane waves:     627
 k-point 82 :  -0.3846 0.4615 0.1538  plane waves:     630
 k-point 83 :  -0.3077 0.4615 0.1538  plane waves:     621
 k-point 84 :  -0.3077 0.4615 0.2308  plane waves:     624

 maximum and minimum number of plane-waves per node :       162      145

 maximum number of plane-waves:       632
 maximum index in each direction:
   IXMAX=    6   IYMAX=    5   IZMAX=    5
   IXMIN=   -6   IYMIN=   -6   IZMIN=   -6

 parallel 3D FFT for wavefunctions:
    minimum data exchange during FFTs selected (reduces bandwidth)
 parallel 3D FFT for charge:
    minimum data exchange during FFTs selected (reduces bandwidth)

 Broyden mixing: mesh for mixing (old mesh)
   NGX = 11   NGY = 11   NGZ = 11
  (NGX  = 48   NGY  = 48   NGZ  = 48)
  gives a total of   1331 points

 initial charge density was supplied:
 charge density of overlapping atoms calculated
 number of electron       8.0000000 magnetization
 keeping initial charge density in first step

 Maximum index for augmentation-charges         6823 (set IRDMAX)

 First call to EWALD:  gamma=   0.669
 Maximum number of real-space cells 3x 3x 3
 Maximum number of reciprocal cells 3x 3x 3

--------------------------------------- Iteration      1(   1)  ---------------------------------------

 eigenvalue-minimisations  :  1352
 total energy-change (2. order) : 0.3861376E+02  (-0.4763572E+03)
 number of electron       8.0000000 magnetization
 augmentation part        8.0000000 magnetization

 Free energy of the ion-electron system (eV)
  alpha Z        PSCENC =        16.69073952
  Ewald energy   TEWEN  =      -502.34851544
  -Hartree energ DENC   =      -334.11288541
  -exchange      EXHF   =         0.00000000
  -V(xc)+E(xc)   XCENC  =        53.71597496
  PAW double counting   =       744.82686937     -793.17391044
  entropy T*S    EENTRO =         0.00063201
  eigenvalues    EBANDS =      -102.28585608
  atomic energy  EATOM  =       955.30070756
  Solvation  Ediel_sol  =         0.00000000
  free energy    TOTEN  =        38.61375604 eV

  energy without entropy =       38.61312403  energy(sigma->0) =       38.61354537

[...]

 eigenvalue-minimisations  :  1424
 total energy-change (2. order) :-0.4203847E+02  (-0.3928162E+02)
 number of electron       8.0000000 magnetization
 augmentation part        8.0000000 magnetization

[...]

 Broyden mixing:
  rms(total) = 0.67237E-01    rms(broyden)= 0.66600E-01
  rms(prec ) = 0.12749E+00
  weight for this iteration     100.00

[...]

 eigenvalues of (default mixing * dielectric matrix)
  average eigenvalue GAMMA=   0.4626
  0.4626

[...]

 Broyden mixing:
  rms(total) = 0.23054E-04    rms(broyden)= 0.11863E-04
  rms(prec ) = 0.32953E-04
  weight for this iteration     100.00
  WARNING: grid for Broyden might be to small

[...]

 average (electrostatic) potential at core
  the test charge radii are     0.8311
  (the norm of the test charge is              1.0000)
       1 -75.3754

 E-fermi : -11.1545     XC(G=0):  -7.2716     alpha+bet : -2.5613

 k-point     1 :       0.0000    0.0000    0.0000
  band No.  band energies     occupation
      1     -36.1804      2.00000
      2     -11.1722      1.29409
      3     -11.1722      1.29408
      4     -11.1722      1.29400
      5       1.9043      0.00000
      6      21.9393      0.00000
      7      21.9393      0.00000
      8      21.9393      0.00000

[...]

 soft charge-density along one line, spin component           1
         0         1         2         3         4         5         6         7         8         9
 total charge-density along one line

------------------------ aborting loop because EDIFF is reached ----------------------------------------

  FORCE on cell =-STRESS in cart. coord.  units (eV):
  Direction    XX          YY          ZZ          XY          YZ          ZX
  Alpha Z    16.69074    16.69074    16.69074
  Ewald    -167.44951  -167.44951  -167.44951    -0.00000    -0.00000    -0.00000
  Hartree   112.22759   112.22759   112.22759     0.00000    -0.00000     0.00000
  E(xc)     -53.15877   -53.11820   -53.09679     0.01537    -0.00462     0.03867
  Local     -77.27287   -77.27288   -77.27288     0.00000     0.00000     0.00000
  n-local   -60.88464   -61.19803   -61.37963    -0.11154     0.04297    -0.29827
  augment    51.12316    51.12314    51.12313     0.00001     0.00000     0.00001
  Kinetic   177.52730   179.12320   179.95028     0.60237    -0.16821     1.50180
  Fock        0.00000     0.00000     0.00000     0.00000     0.00000     0.00000
  Total      -0.09267    -0.09267    -0.09267    -0.00000     0.00000    -0.00000
  in kB      -7.98414    -7.98414    -7.98414    -0.00000     0.00000    -0.00000

 VOLUME and BASIS-vectors are now :
  energy-cutoff  :      600.00
  volume of cell :       18.60
      direct lattice vectors                 reciprocal lattice vectors
     2.973803072  0.000000000  0.000000000     0.336269745 -0.194145428 -0.137281548
     1.486901536  2.575389006  0.000000000     0.000000000  0.388290855 -0.137281548
     1.486901536  0.858463002  2.428100041     0.000000000  0.000000000  0.411844645

[...]

 FORCES acting on ions
    electron-ion (+dipol)            ewald-force                    non-local-force                 convergence-correction
   -.174E-14 0.205E-13 -.308E-13   -.294E-14 0.192E-15 -.131E-14   -.827E-24 0.000E+00 0.000E+00   -.199E-13 0.211E-13 -.381E-13
   -.182E-14 0.207E-13 -.309E-13   -.294E-14 0.192E-15 -.131E-14   -.827E-24 0.000E+00 0.000E+00   -.199E-13 0.211E-13 -.381E-13

 POSITION                                       TOTAL-FORCE (eV/Angst)
      0.00000      0.00000      0.00000        -0.000000      0.000000      0.000000
    total drift:                               -0.000000      0.000000     -0.000000

  FREE ENERGIE OF THE ION-ELECTRON SYSTEM (eV)
  free  energy   TOTEN  =        -2.40658663 eV

  energy  without entropy=       -2.41264392  energy(sigma->0) =       -2.40860572

 Quasi-Newton relaxation of ions (Broydens 2nd method)
  g(Force)  = 0.000E+00   g(Stress)= 0.249E-03

 Reset! Starting new Quasi-Newton update for ions

[...]

 d Force = 0.0000000E+00[ 0.000E+00, 0.000E+00]  d Energy = 0.2464792E-03-0.246E-03
 d Force = 0.0000000E+00[ 0.000E+00, 0.000E+00]  d Ewald  = 0.4495667E+00-0.450E+00

[...]

 retain information from N=  1 steps
 eigenvalues of (default step * inverse Hessian matrix)
  average eigenvalue of G=  42.5818
 eigenvalue spectrum of G is 42.5818

[...]

 retain information from N=  1 steps
 eigenvalues of (default step * inverse Hessian matrix)
  average eigenvalue of G= 171.6505
 eigenvalue spectrum of G is171.6505

[...]

 d Force = 0.0000000E+00[ 0.000E+00, 0.000E+00]  d Energy =-0.5343959E-01 0.534E-01
 d Force = 0.0000000E+00[ 0.000E+00, 0.000E+00]  d Ewald  = 0.6930067E+02-0.693E+02

[...]

 d Force = 0.0000000E+00[ 0.000E+00, 0.000E+00]  d Energy = 0.5620664E-01-0.562E-01
 d Force = 0.0000000E+00[ 0.000E+00, 0.000E+00]  d Ewald  =-0.6057019E+02 0.606E+02

[...]

 Broyden mixing:
  rms(total) = 0.17354E-03    rms(broyden)= 0.17239E-03
  rms(prec ) = 0.47697E-03
  weight for this iteration     100.00

[...]

 eigenvalue-minimisations  :  1074
 total energy-change (2. order) : 0.2066022E-06  (-0.2317562E-07)
 number of electron       8.0000000 magnetization
 augmentation part        2.2991746 magnetization

 Broyden mixing:
  rms(total) = 0.35398E-04    rms(broyden)= 0.31537E-04
  rms(prec ) = 0.76351E-04
  weight for this iteration     100.00
  WARNING: grid for Broyden might be to small

 eigenvalues of (default mixing * dielectric matrix)
  average eigenvalue GAMMA=   1.9290
  9.0048  9.0048  3.9319  3.1919  2.4105  2.4105  2.4216  2.4216  2.3934  2.3934
  2.6732  2.6206  2.6206  2.5696  2.5696  2.5237  2.5237  1.7670  1.7670  1.2513
  1.2513  0.5464  1.0523  1.0523  0.6904  0.8535  0.8535  0.8488  1.1129  1.1129
  0.9651  0.9737  1.0252  0.9971  0.9971  1.0015  0.9999  1.0000  1.0000  1.0000
  1.0000  1.0000  1.0000  1.0000  1.0000

[...]

--------------------------------------- Iteration      7(   8)  ---------------------------------------

 eigenvalue-minimisations  :  1005
 total energy-change (2. order) :-0.6228140E-07  (-0.7006015E-08)
 number of electron       8.0000000 magnetization
 augmentation part        2.2991746 magnetization

 Free energy of the ion-electron system (eV)
  alpha Z        PSCENC =        20.71887316
  Ewald energy   TEWEN  =      -539.88588582
  -Hartree energ DENC   =      -308.17435824
  -exchange      EXHF   =         0.00000000
  -V(xc)+E(xc)   XCENC  =        54.57781034
  PAW double counting   =       753.63779112     -802.10014095
  entropy T*S    EENTRO =         0.00321710
  eigenvalues    EBANDS =      -136.49827467
  atomic energy  EATOM  =       955.30070756
  Solvation  Ediel_sol  =         0.00000000
  free energy    TOTEN  =        -2.42026040 eV

  energy without entropy =       -2.42347750  energy(sigma->0) =       -2.42133277

 average (electrostatic) potential at core
  the test charge radii are     0.8311
  (the norm of the test charge is              1.0000)
       1 -74.7584

 E-fermi : -10.3280     XC(G=0):  -8.3862     alpha+bet : -3.1794

[...]

 k-point    84 :      -0.3077    0.4615    0.2308
  band No.  band energies     occupation
      1     -35.3422      2.00000
      2     -11.3234      2.00000
      3     -11.1894      2.00000
      4     -10.8289      2.00000
      5      11.6817      0.00000
      6      13.9826      0.00000
      7      14.1973      0.00000
      8      19.8976      0.00000

 soft charge-density along one line, spin component           1
         0         1         2         3         4         5         6         7         8         9
 total charge-density along one line

------------------------ aborting loop because EDIFF is reached ----------------------------------------

  FORCE on cell =-STRESS in cart. coord.  units (eV):
  Direction    XX          YY          ZZ          XY          YZ          ZX
  Alpha Z    20.71887    20.71887    20.71887
  Ewald    -179.96197  -179.96197  -179.96197    -0.00000    -0.00000    -0.00000
  Hartree   102.72500   102.72500   102.72500     0.00000    -0.00000     0.00000
  E(xc)     -53.20695   -53.15466   -53.12902     0.02018    -0.00596     0.04808
  Local     -59.27014   -59.27014   -59.27014     0.00000     0.00000     0.00000
  n-local   -60.97371   -61.38903   -61.59247    -0.15055     0.06650    -0.37086
  augment    51.07783    51.07782    51.07782     0.00001     0.00000     0.00000
  Kinetic   177.46922   179.55861   180.56037     0.80447    -0.21477     1.88911
  Fock        0.00000     0.00000     0.00000     0.00000     0.00000     0.00000
  Total       0.00370     0.00370     0.00370    -0.00000    -0.00000    -0.00000
  in kB       0.39614     0.39614     0.39614    -0.00000    -0.00000    -0.00000

 VOLUME and BASIS-vectors are now :
  energy-cutoff  :      600.00
  volume of cell :       14.98
      direct lattice vectors                 reciprocal lattice vectors
     2.767039476  0.000000000  0.000000000     0.361397085 -0.208652704 -0.147539742
     1.383519738  2.396326479  0.000000000     0.000000000  0.417305408 -0.147539742
     1.383519738  0.798775493  2.259278271     0.000000000  0.000000000  0.442619226

  length of vectors
     2.767039476  2.767039476  2.767039476     0.442619226  0.442619226  0.442619226

 FORCES acting on ions
    electron-ion (+dipol)            ewald-force                    non-local-force                 convergence-correction
   -.433E-15 0.194E-13 -.294E-13   -.212E-14 -.464E-16 0.420E-15   0.000E+00 0.000E+00 0.000E+00   -.136E-12 -.707E-13 -.116E-12
   -.541E-15 0.195E-13 -.294E-13   -.212E-14 -.464E-16 0.420E-15   0.000E+00 0.000E+00 0.000E+00   -.136E-12 -.707E-13 -.116E-12

 POSITION                                       TOTAL-FORCE (eV/Angst)
      0.00000      0.00000      0.00000        -0.000000      0.000000      0.000000
    total drift:                               -0.000000     -0.000000     -0.000000

  FREE ENERGIE OF THE ION-ELECTRON SYSTEM (eV)
  free  energy   TOTEN  =        -2.42026040 eV

  energy  without entropy=       -2.42347750  energy(sigma->0) =       -2.42133277

 d Force = 0.0000000E+00[ 0.000E+00, 0.000E+00]  d Energy = 0.2225449E-03-0.223E-03
 d Force = 0.0000000E+00[ 0.000E+00, 0.000E+00]  d Ewald  = 0.4556981E+01-0.456E+01

 Quasi-Newton relaxation of ions (Broydens 2nd method)
  g(Force)  = 0.000E+00   g(Stress)= 0.397E-06

 retain information from N=  1 steps
 eigenvalues of (default step * inverse Hessian matrix)
  average eigenvalue of G=  37.7986
 eigenvalue spectrum of G is 37.7986

 reached required accuracy - stopping structural energy minimisation