 vasp.5.4.4.18Apr17-6-g9f103f2a35 (build Nov 03 2018 10:20:46) complex

 executed on             LinuxIFC date 2018.11.13  16:21:30

 INCAR:
 POTCAR:    PAW Og, JanMewes Oct 18

 POTCAR:    PAW Og, JanMewes Oct 18
   VRHFIN =Og : 10d 2s 6p, PE

   TITEL  = PAW Og, JanMewes Oct 18
   POMASS =    0.010; ZVAL   =   18.000    mass and valenz
   ENMAX  =  339.336; ENMIN  =  254.502 eV
   QCUT   =   -4.994; QGAM   =    9.988    optimization parameters

  PAW Og, JanMewes Oct 18               :

 POSCAR: Og_FCC
  positions in direct lattice
  velocities in cartesian coordinates
 exchange correlation table for  LEXCH =        8
   RHO(1)=    0.500       N(1)  =     2000
   RHO(2)=  100.500       N(2)  =     4000

 ion  position               nearest neighbor table
   1  0.000  0.000  0.000-

IMPORTANT INFORMATION: All symmetrisations will be switched off!
NOSYMM: (Re-)initialisation of all symmetry stuff for point group C_1.

 KPOINTS: k-points

Automatic generation of k-mesh.
Space group operators:
 irot       det(A)        alpha          n_x          n_y          n_z        tau_x        tau_y        tau_z
    1     1.000000     0.000000     1.000000     0.000000     0.000000     0.000000     0.000000     0.000000

 Subroutine IBZKPT returns following result:

 Found     27 irreducible k-points:

 Following reciprocal coordinates:
            Coordinates               Weight
  0.000000  0.000000  0.000000      1.000000
  0.333333  0.000000  0.000000      1.000000
 -0.333333 -0.000000  0.000000      1.000000
  0.000000  0.333333 -0.000000      1.000000
  0.333333  0.333333  0.000000      1.000000
 -0.333333  0.333333 -0.000000      1.000000
 -0.000000 -0.333333  0.000000      1.000000
  0.333333 -0.333333  0.000000      1.000000
 -0.333333 -0.333333 -0.000000      1.000000
  0.000000  0.000000  0.333333      1.000000
  0.333333  0.000000  0.333333      1.000000
 -0.333333  0.000000  0.333333      1.000000
 -0.000000  0.333333  0.333333      1.000000
  0.333333  0.333333  0.333333      1.000000
 -0.333333  0.333333  0.333333      1.000000
  0.000000 -0.333333  0.333333      1.000000
  0.333333 -0.333333  0.333333      1.000000
 -0.333333 -0.333333  0.333333      1.000000
  0.000000  0.000000 -0.333333      1.000000
  0.333333 -0.000000 -0.333333      1.000000
 -0.333333 -0.000000 -0.333333      1.000000
  0.000000  0.333333 -0.333333      1.000000
  0.333333  0.333333 -0.333333      1.000000
 -0.333333  0.333333 -0.333333      1.000000
  0.000000 -0.333333 -0.333333      1.000000
  0.333333 -0.333333 -0.333333      1.000000
 -0.333333 -0.333333 -0.333333      1.000000

 Following cartesian coordinates:
            Coordinates               Weight
  0.000000  0.000000  0.000000      1.000000
  0.076763 -0.044319 -0.031339      1.000000
 -0.076763  0.044319  0.031339      1.000000
  0.000000  0.088639 -0.031339      1.000000
  0.076763  0.044319 -0.062677      1.000000
 -0.076763  0.132958  0.000000      1.000000
 -0.000000 -0.088639  0.031339      1.000000
  0.076763 -0.132958 -0.000000      1.000000
 -0.076763 -0.044319  0.062677      1.000000
 -0.000000  0.000000  0.094016      1.000000
  0.076763 -0.044319  0.062677      1.000000
 -0.076763  0.044319  0.125354      1.000000
 -0.000000  0.088639  0.062677      1.000000
  0.076763  0.044319  0.031339      1.000000
 -0.076763  0.132958  0.094016      1.000000
 -0.000000 -0.088639  0.125354      1.000000
  0.076763 -0.132958  0.094016      1.000000
 -0.076763 -0.044319  0.156693      1.000000
  0.000000 -0.000000 -0.094016      1.000000
  0.076763 -0.044319 -0.125354      1.000000
 -0.076763  0.044319 -0.062677      1.000000
  0.000000  0.088639 -0.125354      1.000000
  0.076763  0.044319 -0.156693      1.000000
 -0.076763  0.132958 -0.094016      1.000000
  0.000000 -0.088639 -0.062677      1.000000
  0.076763 -0.132958 -0.094016      1.000000
 -0.076763 -0.044319 -0.031339      1.000000

 SYSTEM =  Og_FCC
 POSCAR =  Og_FCC

 Startparameter for this run:
   NWRITE =      2    write-flag & timer
   PREC   = accura    normal or accurate (medium, high low for compatibility)
   ISTART =      1    job   : 0-new  1-cont  2-samecut
   ICHARG =      0    charge: 1-file 2-atom 10-const
   ISPIN  =      1    spin polarized calculation?
   LNONCOLLINEAR =      T non collinear calculations
   LSORBIT =      T    spin-orbit coupling
   INIWAV =      1    electr: 0-lowe 1-rand  2-diag
   LASPH  =      F    aspherical Exc in radial PAW
   METAGGA=      F    non-selfconsistent MetaGGA calc.

 Electronic Relaxation 1
   ENCUT  =  300.0 eV  22.05 Ry    4.70 a.u.   6.13  6.13  6.13*2*pi/ulx,y,z
   ENINI  =  300.0     initial cutoff
   ENAUG  =  361.0 eV  augmentation charge cutoff
   NELM   =     50;   NELMIN=  2; NELMDL= -5     # of ELM steps
   EDIFF  = 0.1E-07   stopping-criterion for ELM
   LREAL  =      F    real-space projection
   NLSPLINE    = F    spline interpolate recip. space projectors
   LCOMPAT=      F    compatible to vasp.4.4
   GGA_COMPAT  = F    GGA compatible to vasp.4.4-vasp.4.6
   LMAXPAW     = -100 max onsite density
   LMAXMIX     =    2 max onsite mixed and CHGCAR
   VOSKOWN=      0    Vosko Wilk Nusair interpolation
   ROPT   =    0.00000
 Ionic relaxation
   EDIFFG = 0.1E-04   stopping-criterion for IOM
   NSW    =      1    number of steps for IOM
   NBLOCK =      1;   KBLOCK =      1    inner block; outer block
   IBRION =     -1    ionic relax: 0-MD 1-quasi-New 2-CG
   NFREE  =      5    steps in history (QN), initial steepest desc. (CG)
   ISIF   =      3    stress and relaxation
   IWAVPR =     10    prediction:  0-non 1-charg 2-wave 3-comb
   ISYM   =      0    0-nonsym 1-usesym 2-fastsym
   LCORR  =      T    Harris-Foulkes like correction to forces

   POTIM  = 0.1000    time-step for ionic-motion
   TEIN   =    0.0    initial temperature
   TEBEG  =    0.0;   TEEND  =   0.0 temperature during run
   SMASS  =  -3.00    Nose mass-parameter (am)
   estimated Nose-frequenzy (Omega)   =  0.10E-29 period in steps =****** mass=  -0.431E-27a.u.
   SCALEE = 1.0000    scale energy and forces
   NPACO  =    256;   APACO  = 16.0  distance and # of slots for P.C.
   PSTRESS=    0.0 pullay stress

  Mass of Ions in am
   POMASS =   0.01
  Ionic Valenz
   ZVAL   =  18.00
  Atomic Wigner-Seitz radii
  virtual crystal weights
   VCA    =   1.00
   NELECT =      18.0000    total number of electrons
   NUPDOWN=      -1.0000    fix difference up-down

 DOS related values:
   EMIN   =  10.00;   EMAX   =-10.00  energy-range for DOS
   EFERMI =   0.00
   ISMEAR =     0;   SIGMA  =   0.00  broadening in eV -4-tet -1-fermi 0-gaus

 Electronic relaxation 2 (details)
   IALGO  =     38    algorithm
   LDIAG  =      T    sub-space diagonalisation (order eigenvalues)
   LSUBROT=      F    optimize rotation matrix (better conditioning)
   TURBO    =      0    0=normal 1=particle mesh
   IRESTART =      0    0=no restart 2=restart with 2 vectors
   NREBOOT  =      0    no. of reboots
   NMIN     =      0    reboot dimension
   EREF     =   0.00    reference energy to select bands
   IMIX   =      4    mixing-type and parameters
     AMIX     =   0.40;   BMIX     =  1.00
     AMIX_MAG =   1.60;   BMIX_MAG =  1.00
     AMIN     =   0.10
     WC   =   100.;   INIMIX=   1;  MIXPRE=   1;  MAXMIX=  50

 Intra band minimization:
   WEIMIN = 0.0000     energy-eigenvalue tresh-hold
   EBREAK =  0.89E-10  absolut break condition
   DEPER  =   0.30     relativ break condition

   TIME   =   0.40     timestep for ELM

  volume/ion in A,a.u.               =      57.90       390.71
  Fermi-wavevector in a.u.,A,eV,Ry     =   1.109038  2.095777 16.734680  1.229964
  Thomas-Fermi vector in A             =   2.245572

 Write flags
   LWAVE        =      T    write WAVECAR
   LDOWNSAMPLE  =      F    k-point downsampling of WAVECAR
   LCHARG       =      F    write CHGCAR
   LVTOT        =      F    write LOCPOT, total local potential
   LVHAR        =      F    write LOCPOT, Hartree potential only
   LELF         =      F    write electronic localiz. function (ELF)
   LORBIT       =      0    0 simple, 1 ext, 2 COOP (PROOUT), +10 PAW based schemes

 Dipole corrections
   LMONO  =      F    monopole corrections only (constant potential shift)
   LDIPOL =      F    correct potential (dipole corrections)
   IDIPOL =      0    1-x, 2-y, 3-z, 4-all directions
   EPSILON=  1.0000000 bulk dielectric constant

 Exchange correlation treatment:
   GGA     =    PE    GGA type
   VOSKOWN=      0    Vosko Wilk Nusair interpolation
   LHFCALC =     F    Hartree Fock is set to
   LHFONE  =     F    Hartree Fock one center treatment
   AEXX    =    0.0000 exact exchange contribution

 Linear response parameters
   LEPSILON=     F    determine dielectric tensor
   LRPA    =     F    only Hartree local field effects (RPA)
   LNABLA  =     F    use nabla operator in PAW spheres
   LVEL    =     F    velocity operator in full k-point grid
   LINTERFAST=   F  fast interpolation
   KINTER  =     0    interpolate to denser k-point grid
   CSHIFT  =0.1000    complex shift for real part using Kramers Kronig
   OMEGAMAX=  -1.0    maximum frequency
   DEG_THRESHOLD= 0.2000000E-02 threshold for treating states as degnerate
   RTIME   =   -0.100 relaxation time in fs
  (WPLASMAI=    0.000 imaginary part of plasma frequency in eV, 0.658/RTIME)
   DFIELD  = 0.0000000 0.0000000 0.0000000 field for delta impulse in time

 Orbital magnetization related:
   ORBITALMAG=     F  switch on orbital magnetization
   LCHIMAG   =     F  perturbation theory with respect to B field
   DQ        =  0.001000  dq finite difference perturbation B field
   LLRAUG    =     F  two centre corrections for induced B field

 Static calculation
 charge density and potential will be updated during run
 non collinear spin polarized calculation
 Variant of blocked Davidson
 Davidson routine will perform the subspace rotation
 perform sub-space diagonalisation
    after iterative eigenvector-optimisation
 modified Broyden-mixing scheme, WC =      100.0
 initial mixing is a Kerker type mixing with AMIX =  0.4000 and BMIX =      1.0000
 Hartree-type preconditioning will be used
 using additional bands           19
 reciprocal scheme for non local part
 use partial core corrections
 calculate Harris-corrections to forces
   (improved forces if not selfconsistent)
 use gradient corrections
 use of overlap-Matrix (Vanderbilt PP)
 Gauss-broadening in eV      SIGMA  =   0.00

  energy-cutoff  :      300.00
  volume of cell :       57.90
      direct lattice vectors                 reciprocal lattice vectors
     4.342345876  0.000000000  0.000000000     0.230290269 -0.132958149 -0.094015609
     2.171172938  3.760581840 -0.000000000     0.000000000  0.265916298 -0.094015609
     2.171172938  1.253527280  3.545510561    -0.000000000  0.000000000  0.282046826

  length of vectors
     4.342345876  4.342345876  4.342345876     0.282046826  0.282046826  0.282046826

 old parameters found on file WAVECAR:
  energy-cutoff  :      300.00
  volume of cell :       57.90
      direct lattice vectors                 reciprocal lattice vectors
     4.342345876  0.000000000  0.000000000     0.230290269 -0.132958149 -0.094015609
[...]
   26.080013    0.753091    0.753032    0.753507   -0.000029   -0.000418   -0.000024
   26.612258    0.733421    0.733363    0.733752   -0.000015   -0.000773   -0.000005
   27.144504    0.726324    0.726264    0.726368    0.000017    0.000400    0.000018
   27.676749    0.803781    0.803525    0.805048    0.000130    0.015745    0.000211
   28.208994    0.772947    0.772869    0.772821    0.000030    0.000995    0.000031
   28.741239    0.855915    0.855730    0.856087   -0.000132   -0.002356   -0.000143
   29.273484    0.775269    0.775120    0.775426   -0.000010    0.000090    0.000008
   29.805729    0.868780    0.868662    0.868897   -0.000002   -0.000276    0.000002
   30.337975    0.893232    0.893093    0.893337   -0.000003   -0.000379   -0.000001
   30.870220    0.810851    0.810569    0.810936   -0.000009   -0.000439   -0.000003
   31.402465    0.901367    0.907951    0.901681    0.000460    0.008572    0.000281
[...]
   45.240839    0.856954    0.856919    0.857014    0.000002   -0.000134    0.000002
   45.773085    0.865319    0.865284    0.865376    0.000002   -0.000132    0.000002
   46.305330    0.871461    0.871426    0.871517    0.000002   -0.000130    0.000002
   46.837575    0.876527    0.876492    0.876581    0.000001   -0.000127    0.000002
   47.369820    0.880934    0.880900    0.880987    0.000001   -0.000124    0.000002
   47.902065    0.884883    0.884849    0.884935    0.000001   -0.000122    0.000002
   48.434310    0.888487    0.888454    0.888538    0.000001   -0.000119    0.000002
   48.966556    0.891816    0.891783    0.891865    0.000001   -0.000117    0.000002
   49.498801    0.894918    0.894886    0.894966    0.000001   -0.000114    0.000002
   50.031046    0.897827    0.897796    0.897874    0.000001   -0.000112    0.000002
   50.563291    0.900569    0.900538    0.900615    0.000001   -0.000110    0.000002
   51.095536    0.903164    0.903133    0.903209    0.000001   -0.000107    0.000002
   51.627781    0.905626    0.905597    0.905671    0.000001   -0.000105    0.000002
   52.160027    0.907971    0.907942    0.908014    0.000001   -0.000103    0.000001
   52.692272    0.910207    0.910179    0.910250    0.000001   -0.000101    0.000001

  frequency dependent IMAGINARY DIELECTRIC FUNCTION (independent particle, no local field effects) current-current (2nd set in vasprun.xml)
     E(ev)      X         Y         Z        XY        YZ        ZX
    0.000000 1440.298363 1440.475415 1439.956440    8.311725  552.453556   10.587507
    0.532245   19.673689   19.668950   19.658814   -0.374215  -25.161884   -0.477564
    1.064490    2.157578    2.151838    2.148271   -0.039424   -2.787931   -0.050719
    1.596736    1.822180    1.813258    1.807843   -0.009431   -0.830565   -0.012827
    2.128981    3.409525    3.373499    3.351272    0.003249   -0.396068    0.000509
    2.661226   56.756485   55.872475   55.323277    0.149938    2.654007    0.087383
    3.193471    1.966107    1.987115    2.000770   -0.005561   -0.203465   -0.004566
    3.725716    1.251395    1.251452    1.255016   -0.001561   -0.077957   -0.001757
    4.257961    8.888013    8.925857    8.872552    0.003034   -0.010468    0.002642
    4.790207    2.073675    2.072941    2.072489    0.000392   -0.001518    0.000513
    5.322452   16.165191   16.098024   16.103780    0.002579    0.143947    0.005927
    5.854697    4.494636    4.494367    4.493705   -0.005714   -0.207329   -0.007752
    6.386942    1.055535    1.047885    1.048173   -0.002464   -0.091800   -0.003335
    6.919187    5.339285    5.604047    5.573492    0.002096   -0.018449    0.004081
    7.451432    9.196774    9.202154    9.203439   -0.006710   -0.117214   -0.008890
    7.983678    2.825711    2.803641    2.804540   -0.002507   -0.092066   -0.003833
    8.515923    0.350849    0.352280    0.352274    0.000043    0.019661    0.000080
    9.048168    0.375201    0.382209    0.381651   -0.000092    0.017765   -0.000142
    9.580413    1.859875    1.743850    1.717779   -0.000286   -0.017462   -0.000319
   10.112658    0.387402    0.384645    0.384660    0.000162    0.016487    0.000276
   10.644903    1.227904    1.260808    1.273131   -0.003663   -0.017597   -0.002744
   11.177149    0.577034    0.592537    0.580576    0.000604    0.027897    0.000548
   11.709394    0.882663    0.885350    0.880875    0.000513    0.014644    0.000576
   12.241639    0.066323    0.066285    0.066464   -0.000005    0.002165   -0.000003
   12.773884    0.098131    0.098873    0.098814    0.000208    0.009086    0.000285
   13.306129    0.668960    0.721074    0.716488   -0.001265   -0.007575   -0.001217
   13.838374    0.142492    0.141113    0.141403    0.000106    0.004780    0.000128
   14.370620    0.161516    0.161326    0.161203    0.000027    0.003041    0.000032
   14.902865    0.651814    0.652665    0.652216   -0.000058    0.002555   -0.000081
   15.435110    0.445564    0.420720    0.433131    0.000124   -0.020401    0.000268
   15.967355    0.055542    0.054702    0.054884   -0.000007    0.002160   -0.000004
   16.499600    0.048677    0.048901    0.048920    0.000031    0.002390    0.000038
   17.031845    0.137858    0.137528    0.137581    0.000025    0.001489    0.000032
   17.564091    0.631660    0.631632    0.631641    0.000152    0.006146    0.000202
   18.096336    0.289416    0.289230    0.289272    0.000083    0.002634    0.000113
   18.628581    0.703115    0.683093    0.689337    0.000332   -0.014294    0.000387
   19.160826    0.154520    0.150285    0.149858    0.000170    0.005561    0.000255
   19.693071    0.155837    0.153267    0.152155    0.000041    0.003438    0.000036
   20.225316    0.068559    0.069051    0.069281    0.000006    0.001072    0.000013
   20.757562    0.023063    0.023398    0.023565   -0.000017    0.000739   -0.000013
   21.289807    0.036103    0.034751    0.034080    0.000021    0.001098   -0.000024
   21.822052    0.007528    0.007493    0.007476    0.000031    0.002467    0.000037
   22.354297    0.005092    0.005085    0.005083    0.000048    0.003471    0.000061
   22.886542    0.004656    0.004653    0.004652    0.000073    0.005030    0.000092
   23.418787    0.006429    0.006427    0.006426    0.000128    0.008687    0.000163
   23.951033    0.037827    0.037813    0.037815    0.000386    0.025859    0.000492
   24.483278    0.019210    0.019203    0.019204   -0.000303   -0.020089   -0.000387
   25.015523    0.005271    0.005270    0.005271   -0.000130   -0.008583   -0.000166
   25.547768    0.005035    0.005036    0.005043   -0.000088   -0.005805   -0.000112
   26.080013    0.019533    0.019577    0.019794   -0.000098   -0.005340   -0.000105
   26.612258    0.018608    0.018584    0.018445   -0.000053   -0.004842   -0.000077
   27.144504    0.020770    0.020780    0.020705   -0.000087   -0.005996   -0.000113
   27.676749    0.072082    0.072800    0.068164    0.000047   -0.005095   -0.000122
   28.208994    0.011181    0.011156    0.011316    0.000059    0.003322    0.000085
   28.741239    0.040138    0.039991    0.040308   -0.000027    0.001958    0.000032
   29.273484    0.020735    0.020764    0.020704    0.000057    0.001240    0.000063
   29.805729    0.032970    0.032969    0.032968    0.000012    0.000354    0.000015
   30.337975    0.071880    0.071870    0.071879    0.000002    0.000031    0.000003
   30.870220    0.037701    0.037622    0.037697   -0.000004    0.000063   -0.000001
   31.402465    0.233539    0.230674    0.233963   -0.000275   -0.005371   -0.000196
[...]
   45.240839    0.001342    0.001342    0.001342   -0.000001   -0.000078   -0.000001
   45.773085    0.000720    0.000720    0.000720   -0.000001   -0.000078   -0.000001
   46.305330    0.000480    0.000480    0.000480   -0.000001   -0.000076   -0.000002
   46.837575    0.000355    0.000355    0.000355   -0.000001   -0.000073   -0.000002
   47.369820    0.000278    0.000278    0.000278   -0.000001   -0.000071   -0.000002
   47.902065    0.000226    0.000226    0.000226   -0.000001   -0.000069   -0.000002
   48.434310    0.000189    0.000189    0.000189   -0.000001   -0.000066   -0.000001
   48.966556    0.000161    0.000161    0.000161   -0.000001   -0.000064   -0.000001
   49.498801    0.000139    0.000139    0.000139   -0.000001   -0.000062   -0.000001
   50.031046    0.000122    0.000122    0.000122   -0.000001   -0.000059   -0.000001
   50.563291    0.000108    0.000108    0.000108   -0.000001   -0.000057   -0.000001
   51.095536    0.000096    0.000096    0.000096   -0.000001   -0.000055   -0.000001
   51.627781    0.000086    0.000086    0.000086   -0.000001   -0.000054   -0.000001
   52.160027    0.000077    0.000077    0.000077   -0.000001   -0.000052   -0.000001
   52.692272    0.000070    0.000070    0.000070   -0.000001   -0.000050   -0.000001

  frequency dependent      REAL DIELECTRIC FUNCTION (independent particle, no local field effects) current-current (2nd set in vasprun.xml)
     E(ev)        X           Y           Z          XY          YZ          ZX
    0.000000  185.067387  185.080239  185.009934   -1.877240 -125.151043   -2.394860
    0.532245 -124.914993 -124.956926 -124.922516    0.093813    5.958068    0.117734
    1.064490  -17.981173  -18.009204  -18.013602    0.051364    3.148123    0.062997
    1.596736   -0.627334   -0.665453   -0.682989    0.028663    1.504575    0.032622
    2.128981    9.602066    9.510795    9.458136    0.029033    0.953330    0.027020
    2.661226    3.146602    4.811334    5.851479   -0.317606    0.023081   -0.223143
    3.193471   -7.120683   -7.171085   -7.198804    0.014801    0.386690    0.013667
    3.725716    0.805450    0.793249    0.794347    0.005215    0.266498    0.006055
    4.257961   -2.889695   -2.882215   -2.897045    0.005365    0.392425    0.005679
    4.790207    5.025051    5.019680    5.022060    0.002085    0.156082    0.002837
    5.322452   13.131798   13.149130   13.148801   -0.007313   -0.301263   -0.009002
    5.854697   -9.137426   -9.145045   -9.143902    0.020017    0.777329    0.026514
    6.386942   -1.578406   -1.594247   -1.593215    0.002667    0.127356    0.003490
    6.919187   -1.597644   -1.415144   -1.394564    0.030884    1.306669    0.042082
    7.451432    1.125128    1.118119    1.116996   -0.009167   -0.198256   -0.012486
    7.983678   -2.378264   -2.372461   -2.372435   -0.008492   -0.288750   -0.011574
    8.515923   -2.637202   -2.635678   -2.635198    0.000960    0.060764    0.001263
    9.048168   -1.153677   -1.141131   -1.140770    0.000500    0.031545    0.000642
    9.580413   -2.145400   -2.171277   -2.181350    0.001016    0.258308    0.001395
   10.112658   -0.619901   -0.612952   -0.612715    0.000353    0.040594    0.000589
   10.644903   -1.406559   -1.408236   -1.409126    0.002665    0.070745    0.002894
   11.177149   -0.586705   -0.614342   -0.592269   -0.000221    0.004680    0.000216
   11.709394   -0.574852   -0.578326   -0.569845    0.000531    0.024154    0.000818
   12.241639   -0.362602   -0.360778   -0.361220    0.000315    0.026460    0.000439
   12.773884    0.025337    0.028388    0.028208    0.000319    0.025360    0.000458
   13.306129    0.539517    0.525875    0.527194   -0.000709   -0.033452   -0.001112
   13.838374    0.200079    0.204282    0.204150    0.000253    0.022401    0.000379
   14.370620    0.274107    0.275737    0.275682    0.000236    0.018771    0.000327
   14.902865   -0.316204   -0.313777   -0.314610    0.000239    0.017216    0.000319
   15.435110   -0.215969   -0.222445   -0.218946   -0.000613    0.024539   -0.000754
   15.967355    0.260888    0.261636    0.261292    0.000167    0.014957    0.000228
   16.499600    0.459202    0.459310    0.459321    0.000203    0.014886    0.000275
   17.031845    0.825170    0.825231    0.825342    0.000180    0.013285    0.000238
   17.564091    1.088926    1.089125    1.089279    0.000364    0.018273    0.000491
   18.096336    0.165589    0.165584    0.165867    0.000118    0.009681    0.000155
   18.628581    0.873499    0.890094    0.888859   -0.000951   -0.024653   -0.001307
   19.160826   -0.091929   -0.087532   -0.086904    0.000324    0.011813    0.000430
   19.693071    0.415927    0.415112    0.414634    0.000189    0.011339    0.000238
   20.225316    0.172487    0.172082    0.171896    0.000119    0.009593    0.000158
   20.757562    0.371301    0.371824    0.372099    0.000120    0.009206    0.000180
   21.289807    0.380512    0.381459    0.381949   -0.000022    0.004643    0.000001
   21.822052    0.474756    0.474958    0.475081    0.000098    0.007750    0.000138
   22.354297    0.530578    0.530692    0.530773    0.000097    0.007406    0.000133
   22.886542    0.576805    0.576891    0.576960    0.000090    0.006858    0.000123
   23.418787    0.622725    0.622794    0.622857    0.000073    0.005714    0.000102
   23.951033    0.702551    0.702594    0.702656   -0.000101   -0.005906   -0.000120
   24.483278    0.603406    0.603494    0.603545   -0.000005    0.000473    0.000002
   25.015523    0.664166    0.664239    0.664291    0.000068    0.005300    0.000094
   25.547768    0.702789    0.702860    0.702926    0.000070    0.005604    0.000098
   26.080013    0.755250    0.755353    0.755585    0.000041    0.005677    0.000072
   26.612258    0.735419    0.735515    0.735663    0.000054    0.005092    0.000088
   27.144504    0.728287    0.728376    0.728247    0.000083    0.006047    0.000108
   27.676749    0.805289    0.805173    0.806489    0.000193    0.021219    0.000297
   28.208994    0.774804    0.774861    0.774617    0.000088    0.006128    0.000112
   28.741239    0.857484    0.857429    0.857594   -0.000077    0.002588   -0.000066
   29.273484    0.776985    0.776965    0.777078    0.000046    0.004882    0.000084
   29.805729    0.870348    0.870352    0.870403    0.000052    0.004352    0.000075
   30.337975    0.894535    0.894513    0.894580    0.000049    0.004092    0.000070
   30.870220    0.812192    0.812019    0.812218    0.000040    0.003875    0.000066
   31.402465    0.901399    0.908109    0.901654    0.000509    0.012771    0.000348
[...]
   45.240839    0.857691    0.857711    0.857725    0.000025    0.001877    0.000034
   45.773085    0.866044    0.866062    0.866077    0.000024    0.001832    0.000033
   46.305330    0.872172    0.872189    0.872204    0.000024    0.001790    0.000032
   46.837575    0.877224    0.877240    0.877254    0.000023    0.001749    0.000032
   47.369820    0.881616    0.881632    0.881646    0.000023    0.001710    0.000031
   47.902065    0.885551    0.885566    0.885580    0.000022    0.001672    0.000030
   48.434310    0.889141    0.889155    0.889169    0.000022    0.001635    0.000030
   48.966556    0.892456    0.892470    0.892484    0.000021    0.001600    0.000029
   49.498801    0.895545    0.895558    0.895572    0.000021    0.001566    0.000028
   50.031046    0.898441    0.898454    0.898467    0.000020    0.001532    0.000028
   50.563291    0.901170    0.901183    0.901196    0.000020    0.001500    0.000027
   51.095536    0.903752    0.903765    0.903778    0.000020    0.001469    0.000027
   51.627781    0.906203    0.906216    0.906228    0.000019    0.001439    0.000026
   52.160027    0.908536    0.908548    0.908561    0.000019    0.001410    0.000026
   52.692272    0.910762    0.910773    0.910785    0.000018    0.001381    0.000025

 The outermost node in the dielectric function lies at epsilon=  19.3

 Spin-Orbit-Coupling matrix elements

 Ion:    1  E_soc:    -33.0242949
 l=   1
     0.0000000    -5.0856992    -5.0856879
    -5.0856992     0.0000000    -5.0856983
    -5.0856879    -5.0856983     0.0000000
 l=   2
     0.0000000    -0.0836734     0.0000000    -0.0836734    -0.3346762
    -0.0836734     0.0000000    -0.2510072    -0.0836778    -0.0836735
     0.0000000    -0.2510072     0.0000000    -0.2510071     0.0000000
    -0.0836734    -0.0836778    -0.2510071     0.0000000    -0.0836735
    -0.3346762    -0.0836735     0.0000000    -0.0836735     0.0000000
 l=   3
     0.0000000     0.0000000     0.0000000     0.0000000     0.0000000     0.0000000     0.0000000
     0.0000000     0.0000000     0.0000000     0.0000000     0.0000000     0.0000000     0.0000000
     0.0000000     0.0000000     0.0000000     0.0000000     0.0000000     0.0000000     0.0000000
     0.0000000     0.0000000     0.0000000     0.0000000     0.0000000     0.0000000     0.0000000
     0.0000000     0.0000000     0.0000000     0.0000000     0.0000000     0.0000000     0.0000000
     0.0000000     0.0000000     0.0000000     0.0000000     0.0000000     0.0000000     0.0000000
     0.0000000     0.0000000     0.0000000     0.0000000     0.0000000     0.0000000     0.0000000