 vasp.5.4.4.18Apr17-6-g9f103f2a35 (build Nov 03 2018 10:20:46) complex

 executed on             LinuxIFC date 2018.11.28  17:34:29

 INCAR:
 POTCAR:    PAW Og, JanMewes Oct 18

 POTCAR:    PAW Og, JanMewes Oct 18
   VRHFIN =Og : 10d 2s 6p, PE

   TITEL  = PAW Og, JanMewes Oct 18
   POMASS =    0.010; ZVAL   =   18.000    mass and valenz
   ENMAX  =  339.336; ENMIN  =  254.502 eV
   QCUT   =   -4.994; QGAM   =    9.988    optimization parameters

  PAW Og, JanMewes Oct 18               :

 POSCAR: Og_FCC
  positions in direct lattice
  velocities in cartesian coordinates
 exchange correlation table for  LEXCH =        8
   RHO(1)=    0.500       N(1)  =     2000
   RHO(2)=  100.500       N(2)  =     4000

 ion  position               nearest neighbor table
   1  0.000  0.000  0.000-

  LATTYP: Found a face centered cubic cell.
 ALAT       =     6.1486896409

  Lattice vectors:

 A1 = (   4.3477801404,   0.0000000000,   0.0000000000)
 A2 = (   2.1738900702,   3.7652880516,  -0.0000000000)
 A3 = (   2.1738900702,   1.2550960172,   3.5499476194)

Analysis of symmetry for initial positions (statically):
 Subroutine PRICEL returns:
 Original cell was already a primitive cell.

 Routine SETGRP: Setting up the symmetry group for a
 face centered cubic supercell.

 Subroutine GETGRP returns: Found 48 space group operations
 (whereof 48 operations were pure point group operations)
 out of a pool of 48 trial point group operations.

The static configuration has the point symmetry O_h .

Analysis of symmetry for dynamics (positions and initial velocities):
 Subroutine PRICEL returns:
 Original cell was already a primitive cell.

[...]

The dynamic configuration has the point symmetry O_h .

Analysis of structural, dynamic, and magnetic symmetry:
 Subroutine PRICEL returns:
 Original cell was already a primitive cell.

 Routine SETGRP: Setting up the symmetry group for a
 face centered cubic supercell.

 Subroutine GETGRP returns: Found  2 space group operations
 (whereof  2 operations were pure point group operations)
 out of a pool of 48 trial point group operations.

The (compounded) configuration has the point symmetry S_2 .

 Subroutine INISYM returns: Found  2 space group operations
 (whereof  2 operations are pure point group operations),
 and found     1 'primitive' translations

Automatic generation of k-mesh.
 generate k-points for:    9    9    9
Space group operators:
 irot       det(A)        alpha          n_x          n_y          n_z        tau_x        tau_y        tau_z
    1     1.000000     0.000000     1.000000     0.000000     0.000000     0.000000     0.000000     0.000000
    2    -1.000000     0.000000     1.000000     0.000000     0.000000     0.000000     0.000000     0.000000

 Subroutine IBZKPT returns following result:

 Found    365 irreducible k-points:

 Following reciprocal coordinates:
            Coordinates               Weight
  0.000000  0.000000  0.000000      1.000000
  0.111111  0.000000 -0.000000      2.000000
  0.222222 -0.000000 -0.000000      2.000000
  0.333333 -0.000000 -0.000000      2.000000
  0.444444 -0.000000 -0.000000      2.000000
  0.000000  0.111111  0.000000      2.000000
  0.111111  0.111111  0.000000      2.000000
  0.222222  0.111111  0.000000      2.000000
  0.333333  0.111111  0.000000      2.000000
  0.444444  0.111111 -0.000000      2.000000
 -0.444444  0.111111  0.000000      2.000000
 -0.333333  0.111111  0.000000      2.000000
 -0.222222  0.111111  0.000000      2.000000
 -0.111111  0.111111 -0.000000      2.000000
 -0.000000  0.222222  0.000000      2.000000
  0.111111  0.222222 -0.000000      2.000000
  0.222222  0.222222  0.000000      2.000000
  0.333333  0.222222 -0.000000      2.000000
  0.444444  0.222222 -0.000000      2.000000
 -0.444444  0.222222  0.000000      2.000000
 -0.333333  0.222222 -0.000000      2.000000
 -0.222222  0.222222 -0.000000      2.000000
 -0.111111  0.222222 -0.000000      2.000000
 -0.000000  0.333333 -0.000000      2.000000
  0.111111  0.333333 -0.000000      2.000000
  0.222222  0.333333 -0.000000      2.000000
  0.333333  0.333333 -0.000000      2.000000
  0.444444  0.333333 -0.000000      2.000000
 -0.444444  0.333333 -0.000000      2.000000
 -0.333333  0.333333 -0.000000      2.000000
 -0.222222  0.333333  0.000000      2.000000
 -0.111111  0.333333  0.000000      2.000000
 -0.000000  0.444444  0.000000      2.000000
  0.111111  0.444444 -0.000000      2.000000
  0.222222  0.444444 -0.000000      2.000000
  0.333333  0.444444 -0.000000      2.000000
  0.444444  0.444444  0.000000      2.000000
 -0.444444  0.444444 -0.000000      2.000000
 -0.333333  0.444444 -0.000000      2.000000
 -0.222222  0.444444 -0.000000      2.000000
 -0.111111  0.444444 -0.000000      2.000000
 -0.000000  0.000000  0.111111      2.000000
  0.111111  0.000000  0.111111      2.000000
  0.222222 -0.000000  0.111111      2.000000
  0.333333 -0.000000  0.111111      2.000000
  0.444444 -0.000000  0.111111      2.000000
 -0.444444  0.000000  0.111111      2.000000
 -0.333333  0.000000  0.111111      2.000000
 -0.222222  0.000000  0.111111      2.000000
 -0.111111  0.000000  0.111111      2.000000
 -0.000000  0.111111  0.111111      2.000000
  0.111111  0.111111  0.111111      2.000000
  0.222222  0.111111  0.111111      2.000000
  0.333333  0.111111  0.111111      2.000000
  0.444444  0.111111  0.111111      2.000000
 -0.444444  0.111111  0.111111      2.000000
 -0.333333  0.111111  0.111111      2.000000
 -0.222222  0.111111  0.111111      2.000000
 -0.111111  0.111111  0.111111      2.000000
 -0.000000  0.222222  0.111111      2.000000
[...]
  0.333333 -0.222222  0.444444      2.000000
  0.444444 -0.222222  0.444444      2.000000
 -0.444444 -0.222222  0.444444      2.000000
 -0.333333 -0.222222  0.444444      2.000000
 -0.222222 -0.222222  0.444444      2.000000
 -0.111111 -0.222222  0.444444      2.000000
  0.000000 -0.111111  0.444444      2.000000
  0.111111 -0.111111  0.444444      2.000000
  0.222222 -0.111111  0.444444      2.000000
  0.333333 -0.111111  0.444444      2.000000
  0.444444 -0.111111  0.444444      2.000000
 -0.444444 -0.111111  0.444444      2.000000
 -0.333333 -0.111111  0.444444      2.000000
 -0.222222 -0.111111  0.444444      2.000000
 -0.111111 -0.111111  0.444444      2.000000

 Following cartesian coordinates:
            Coordinates               Weight
  0.000000  0.000000  0.000000      1.000000
  0.025556 -0.014755 -0.010433      2.000000
  0.051112 -0.029509 -0.020866      2.000000
  0.076667 -0.044264 -0.031299      2.000000
  0.102223 -0.059019 -0.041732      2.000000
  0.000000  0.029509 -0.010433      2.000000
  0.025556  0.014755 -0.020866      2.000000
  0.051112 -0.000000 -0.031299      2.000000
  0.076667 -0.014755 -0.041732      2.000000
  0.102223 -0.029509 -0.052166      2.000000
 -0.102223  0.088528  0.031299      2.000000
 -0.076667  0.073773  0.020866      2.000000
 -0.051112  0.059019  0.010433      2.000000
 -0.025556  0.044264  0.000000      2.000000
  0.000000  0.059019 -0.020866      2.000000
  0.025556  0.044264 -0.031299      2.000000
  0.051112  0.029509 -0.041732      2.000000
  0.076667  0.014755 -0.052166      2.000000
  0.102223 -0.000000 -0.062599      2.000000
 -0.102223  0.118037  0.020866      2.000000
 -0.076667  0.103283  0.010433      2.000000
 -0.051112  0.088528  0.000000      2.000000
 -0.025556  0.073773 -0.010433      2.000000
  0.000000  0.088528 -0.031299      2.000000
  0.025556  0.073773 -0.041732      2.000000
  0.051112  0.059019 -0.052166      2.000000
  0.076667  0.044264 -0.062599      2.000000
  0.102223  0.029509 -0.073032      2.000000
 -0.102223  0.147547  0.010433      2.000000
 -0.076667  0.132792  0.000000      2.000000
 -0.051112  0.118037 -0.010433      2.000000
 -0.025556  0.103283 -0.020866      2.000000
  0.000000  0.118037 -0.041732      2.000000
  0.025556  0.103283 -0.052166      2.000000
  0.051112  0.088528 -0.062599      2.000000
  0.076667  0.073773 -0.073032      2.000000
  0.102223  0.059019 -0.083465      2.000000
 -0.102223  0.177056  0.000000      2.000000
 -0.076667  0.162301 -0.010433      2.000000
 -0.051112  0.147547 -0.020866      2.000000
 -0.025556  0.132792 -0.031299      2.000000
 -0.000000  0.000000  0.031299      2.000000
  0.025556 -0.014755  0.020866      2.000000
  0.051112 -0.029509  0.010433      2.000000
  0.076667 -0.044264 -0.000000      2.000000
  0.102223 -0.059019 -0.010433      2.000000
 -0.102223  0.059019  0.073032      2.000000
 -0.076667  0.044264  0.062599      2.000000
 -0.051112  0.029509  0.052166      2.000000
 -0.025556  0.014755  0.041732      2.000000
 -0.000000  0.029509  0.020866      2.000000
  0.025556  0.014755  0.010433      2.000000
  0.051112 -0.000000 -0.000000      2.000000
  0.076667 -0.014755 -0.010433      2.000000
  0.102223 -0.029509 -0.020866      2.000000
 -0.102223  0.088528  0.062599      2.000000
 -0.076667  0.073773  0.052166      2.000000
 -0.051112  0.059019  0.041732      2.000000
 -0.025556  0.044264  0.031299      2.000000
 -0.000000  0.059019  0.010433      2.000000
[...]
  0.076667 -0.103283  0.114764      2.000000
  0.102223 -0.118037  0.104331      2.000000
 -0.102223  0.000000  0.187796      2.000000
 -0.076667 -0.014755  0.177363      2.000000
 -0.051112 -0.029509  0.166930      2.000000
 -0.025556 -0.044264  0.156497      2.000000
 -0.000000 -0.029509  0.135631      2.000000
  0.025556 -0.044264  0.125197      2.000000
  0.051112 -0.059019  0.114764      2.000000
  0.076667 -0.073773  0.104331      2.000000
  0.102223 -0.088528  0.093898      2.000000
 -0.102223  0.029509  0.177363      2.000000
 -0.076667  0.014755  0.166930      2.000000
 -0.051112  0.000000  0.156497      2.000000
 -0.025556 -0.014755  0.146064      2.000000

 SYSTEM =  Og_FCC
 POSCAR =  Og_FCC

 Startparameter for this run:
   NWRITE =      2    write-flag & timer
   PREC   = accura    normal or accurate (medium, high low for compatibility)
   ISTART =      0    job   : 0-new  1-cont  2-samecut
   ICHARG =      2    charge: 1-file 2-atom 10-const
   ISPIN  =      1    spin polarized calculation?
   LNONCOLLINEAR =      T non collinear calculations
   LSORBIT =      T    spin-orbit coupling
   INIWAV =      1    electr: 0-lowe 1-rand  2-diag
   LASPH  =      F    aspherical Exc in radial PAW
   METAGGA=      F    non-selfconsistent MetaGGA calc.

 Electronic Relaxation 1
   ENCUT  =  600.0 eV  44.10 Ry    6.64 a.u.   8.68  8.68  8.68*2*pi/ulx,y,z
   ENINI  =  600.0     initial cutoff
   ENAUG  =  361.0 eV  augmentation charge cutoff
   NELM   =    100;   NELMIN=  5; NELMDL= -5     # of ELM steps
   EDIFF  = 0.1E-06   stopping-criterion for ELM
   LREAL  =      F    real-space projection
   NLSPLINE    = F    spline interpolate recip. space projectors
   LCOMPAT=      F    compatible to vasp.4.4
   GGA_COMPAT  = F    GGA compatible to vasp.4.4-vasp.4.6
   LMAXPAW     = -100 max onsite density
   LMAXMIX     =    2 max onsite mixed and CHGCAR
   VOSKOWN=      0    Vosko Wilk Nusair interpolation
   ROPT   =    0.00000
 Ionic relaxation
   EDIFFG = 0.1E-04   stopping-criterion for IOM
   NSW    =    999    number of steps for IOM
[...]
[...]
 k-point 85 :  -0.2222 0.4444 0.1111  plane waves:    3866
 k-point 86 :  -0.1111 0.4444 0.1111  plane waves:    3878
 k-point 87 :   0.0000-0.4444 0.1111  plane waves:    3890
 k-point 88 :   0.1111-0.4444 0.1111  plane waves:    3890
 k-point 89 :   0.2222-0.4444 0.1111  plane waves:    3878
 k-point 90 :   0.3333-0.4444 0.1111  plane waves:    3868
 k-point 91 :   0.4444-0.4444 0.1111  plane waves:    3884
 k-point 92 :  -0.4444-0.4444 0.1111  plane waves:    3876
 k-point 93 :  -0.3333-0.4444 0.1111  plane waves:    3884
 k-point 94 :  -0.2222-0.4444 0.1111  plane waves:    3868
 k-point 95 :  -0.1111-0.4444 0.1111  plane waves:    3878
 k-point 96 :   0.0000-0.3333 0.1111  plane waves:    3880
 k-point 97 :   0.1111-0.3333 0.1111  plane waves:    3892
 k-point 98 :   0.2222-0.3333 0.1111  plane waves:    3878
 k-point 99 :   0.3333-0.3333 0.1111  plane waves:    3866
 k-point ** :   0.4444-0.3333 0.1111  plane waves:    3862
 k-point ** :  -0.4444-0.3333 0.1111  plane waves:    3884
 k-point ** :  -0.3333-0.3333 0.1111  plane waves:    3868
 k-point ** :  -0.2222-0.3333 0.1111  plane waves:    3884
 k-point ** :  -0.1111-0.3333 0.1111  plane waves:    3884
 k-point ** :   0.0000-0.2222 0.1111  plane waves:    3876
 k-point ** :   0.1111-0.2222 0.1111  plane waves:    3866
 k-point ** :   0.2222-0.2222 0.1111  plane waves:    3884
 k-point ** :   0.3333-0.2222 0.1111  plane waves:    3884
 k-point ** :   0.4444-0.2222 0.1111  plane waves:    3866
 k-point ** :  -0.4444-0.2222 0.1111  plane waves:    3868
 k-point ** :  -0.3333-0.2222 0.1111  plane waves:    3884
 k-point ** :  -0.2222-0.2222 0.1111  plane waves:    3900
 k-point ** :  -0.1111-0.2222 0.1111  plane waves:    3886
 k-point ** :  -0.0000-0.1111 0.1111  plane waves:    3886
 k-point ** :   0.1111-0.1111 0.1111  plane waves:    3890
 k-point ** :   0.2222-0.1111 0.1111  plane waves:    3886
 k-point ** :   0.3333-0.1111 0.1111  plane waves:    3884
 k-point ** :   0.4444-0.1111 0.1111  plane waves:    3878
 k-point ** :  -0.4444-0.1111 0.1111  plane waves:    3878
 k-point ** :  -0.3333-0.1111 0.1111  plane waves:    3884
 k-point ** :  -0.2222-0.1111 0.1111  plane waves:    3886
 k-point ** :  -0.1111-0.1111 0.1111  plane waves:    3890
 k-point ** :   0.0000 0.0000 0.2222  plane waves:    3886
 k-point ** :   0.1111-0.0000 0.2222  plane waves:    3890
 k-point ** :   0.2222 0.0000 0.2222  plane waves:    3928
 k-point ** :   0.3333-0.0000 0.2222  plane waves:    3900
 k-point ** :   0.4444-0.0000 0.2222  plane waves:    3896
 k-point ** :  -0.4444 0.0000 0.2222  plane waves:    3884
 k-point ** :  -0.3333 0.0000 0.2222  plane waves:    3868
 k-point ** :  -0.2222 0.0000 0.2222  plane waves:    3882
 k-point ** :  -0.1111-0.0000 0.2222  plane waves:    3876
 k-point ** :   0.0000 0.1111 0.2222  plane waves:    3890
 k-point ** :   0.1111 0.1111 0.2222  plane waves:    3886
 k-point ** :   0.2222 0.1111 0.2222  plane waves:    3890
 k-point ** :   0.3333 0.1111 0.2222  plane waves:    3886
 k-point ** :   0.4444 0.1111 0.2222  plane waves:    3884
 k-point ** :  -0.4444 0.1111 0.2222  plane waves:    3878
 k-point ** :  -0.3333 0.1111 0.2222  plane waves:    3878
 k-point ** :  -0.2222 0.1111 0.2222  plane waves:    3884
 k-point ** :  -0.1111 0.1111 0.2222  plane waves:    3886
 k-point ** :   0.0000 0.2222 0.2222  plane waves:    3928
 k-point ** :   0.1111 0.2222 0.2222  plane waves:    3890
 k-point ** :   0.2222 0.2222 0.2222  plane waves:    3886
 k-point ** :   0.3333 0.2222 0.2222  plane waves:    3876
 k-point ** :   0.4444 0.2222 0.2222  plane waves:    3882
 k-point ** :  -0.4444 0.2222 0.2222  plane waves:    3868
 k-point ** :  -0.3333 0.2222 0.2222  plane waves:    3884
 k-point ** :  -0.2222 0.2222 0.2222  plane waves:    3896
 k-point ** :  -0.1111 0.2222 0.2222  plane waves:    3900
 k-point ** :  -0.0000 0.3333 0.2222  plane waves:    3900
 k-point ** :   0.1111 0.3333 0.2222  plane waves:    3886
 k-point ** :   0.2222 0.3333 0.2222  plane waves:    3876
 k-point ** :   0.3333 0.3333 0.2222  plane waves:    3866
 k-point ** :   0.4444 0.3333 0.2222  plane waves:    3884
 k-point ** :  -0.4444 0.3333 0.2222  plane waves:    3884
 k-point ** :  -0.3333 0.3333 0.2222  plane waves:    3866
 k-point ** :  -0.2222 0.3333 0.2222  plane waves:    3868
 k-point ** :  -0.1111 0.3333 0.2222  plane waves:    3884
 k-point ** :  -0.0000 0.4444 0.2222  plane waves:    3896
[...]
 k-point ** :   0.3333-0.2222 0.4444  plane waves:    3862
 k-point ** :   0.4444-0.2222 0.4444  plane waves:    3866
 k-point ** :  -0.4444-0.2222 0.4444  plane waves:    3868
 k-point ** :  -0.3333-0.2222 0.4444  plane waves:    3884
 k-point ** :  -0.2222-0.2222 0.4444  plane waves:    3868
 k-point ** :  -0.1111-0.2222 0.4444  plane waves:    3878
 k-point ** :   0.0000-0.1111 0.4444  plane waves:    3890
 k-point ** :   0.1111-0.1111 0.4444  plane waves:    3878
 k-point ** :   0.2222-0.1111 0.4444  plane waves:    3868
 k-point ** :   0.3333-0.1111 0.4444  plane waves:    3884
 k-point ** :   0.4444-0.1111 0.4444  plane waves:    3876
 k-point ** :  -0.4444-0.1111 0.4444  plane waves:    3884
 k-point ** :  -0.3333-0.1111 0.4444  plane waves:    3868
 k-point ** :  -0.2222-0.1111 0.4444  plane waves:    3878
 k-point ** :  -0.1111-0.1111 0.4444  plane waves:    3890

 maximum and minimum number of plane-waves per node :      1004      938

 maximum number of plane-waves:      3928
 maximum index in each direction:
   IXMAX=    9   IYMAX=    9   IZMAX=    8
   IXMIN=   -9   IYMIN=   -9   IZMIN=   -9

 parallel 3D FFT for wavefunctions:
    minimum data exchange during FFTs selected (reduces bandwidth)
 parallel 3D FFT for charge:
    minimum data exchange during FFTs selected (reduces bandwidth)

 Broyden mixing: mesh for mixing (old mesh)
   NGX = 17   NGY = 17   NGZ = 17
  (NGX  = 72   NGY  = 72   NGZ  = 72)
  gives a total of   4913 points

 initial charge density was supplied:
 charge density of overlapping atoms calculated
 number of electron      18.0000000 magnetization       1.0000000      1.0000000      1.0000000
 keeping initial charge density in first step

 Maximum index for augmentation-charges        93537 (set IRDMAX)

 First call to EWALD:  gamma=   0.458
 Maximum number of real-space cells 3x 3x 3
 Maximum number of reciprocal cells 3x 3x 3

--------------------------------------- Iteration      1(   1)  ---------------------------------------

 eigenvalue-minimisations  : 20952
 total energy-change (2. order) : 0.3084577E+03  (-0.9600941E+03)
 number of electron      18.0000000 magnetization       1.0000000      1.0000000      1.0000000
 augmentation part       18.0000000 magnetization       1.0000000      1.0000000      1.0000000

 Free energy of the ion-electron system (eV)
  alpha Z        PSCENC =        65.65019596
  Ewald energy   TEWEN  =     -1739.46137932
  -Hartree energ DENC   =      -661.33100310
  -exchange      EXHF   =         0.00000000
  -V(xc)+E(xc)   XCENC  =       -69.16142381
  PAW double counting   =      2268.28454800    -2184.08492831
  entropy T*S    EENTRO =         0.00022301
  eigenvalues    EBANDS =       -11.96725996
  atomic energy  EATOM  =      2640.52872706
  Solvation  Ediel_sol  =         0.00000000
  free energy    TOTEN  =       308.45769954 eV

  energy without entropy =      308.45747653  energy(sigma->0) =      308.45762520

[...]

 eigenvalue-minimisations  : 26888
 total energy-change (2. order) :-0.3067229E+03  (-0.2974231E+03)
 number of electron      18.0000000 magnetization       1.0000000      1.0000000      1.0000000
 augmentation part       18.0000000 magnetization       1.0000000      1.0000000      1.0000000

[...]

 Broyden mixing:
  rms(total) = 0.63180E+00    rms(broyden)= 0.63177E+00
  rms(prec ) = 0.87115E+00
  weight for this iteration     100.00

[...]

 eigenvalues of (default mixing * dielectric matrix)
  average eigenvalue GAMMA=   0.7688
  0.7688

[...]

 eigenvalue-minimisations  : 15868
 total energy-change (2. order) : 0.1279941E-06  (-0.1572458E-07)
 number of electron      18.0000000 magnetization       0.0000014      0.0000011      0.0000011
 augmentation part        2.7933885 magnetization       0.0000018      0.0000014      0.0000015

 Broyden mixing:
  rms(total) = 0.13803E-04    rms(broyden)= 0.13800E-04
  rms(prec ) = 0.35178E-04
  weight for this iteration     100.00

 eigenvalues of (default mixing * dielectric matrix)
  average eigenvalue GAMMA=   1.4203
  3.5247  2.7331  2.7331  1.2769  1.2769  1.0692  0.8940  0.8298  0.7434  0.7011
  0.6234  0.6381

[...]

--------------------------------------- Iteration      1(  18)  ---------------------------------------

 eigenvalue-minimisations  : 13896
 total energy-change (2. order) :-0.4149297E-07  (-0.3515411E-08)
 number of electron      18.0000000 magnetization       0.0000014      0.0000011      0.0000011
 augmentation part        2.7933885 magnetization       0.0000018      0.0000014      0.0000015

 Free energy of the ion-electron system (eV)
  alpha Z        PSCENC =        65.65019596
  Ewald energy   TEWEN  =     -1739.46137932
  -Hartree energ DENC   =      -673.95792728
  -exchange      EXHF   =         0.00000000
  -V(xc)+E(xc)   XCENC  =       -68.79496162
  PAW double counting   =      2321.04278230    -2245.62662942
  entropy T*S    EENTRO =        -0.00002319
  eigenvalues    EBANDS =      -312.66276564
  atomic energy  EATOM  =      2640.52872706
  Solvation  Ediel_sol  =         0.00000000
  free energy    TOTEN  =       -13.28198115 eV

  energy without entropy =      -13.28195796  energy(sigma->0) =      -13.28197342

 average (electrostatic) potential at core
  the test charge radii are     1.2024
  (the norm of the test charge is              1.0000)
       1-110.0141

 E-fermi :   3.9163     XC(G=0):  -8.2102     alpha+bet : -7.5509

 k-point     1 :       0.0000    0.0000    0.0000
  band No.  band energies     occupation
      1     -30.5195      1.00000
      2     -30.5195      1.00000
      3     -30.5195      1.00000
      4     -30.5195      1.00000
      5     -23.8316      1.00000
      6     -23.8316      1.00000
      7     -23.8277      1.00000
      8     -23.8277      1.00000
      9     -23.8277      1.00000
     10     -23.8277      1.00000
     11     -20.2521      1.00000
     12     -20.2521      1.00000
     13      -6.9378      1.00000
     14      -6.9378      1.00000
     15       3.6878      1.00287
     16       3.6878      1.00287
     17       3.9114      0.54096
     18       3.9114      0.54095
     19       3.9114      0.54095
     20       3.9114      0.54095
     21      10.8455      0.00000
     22      10.8455      0.00000
     23      10.8455      0.00000
     24      10.8455      0.00000
     25      11.0865      0.00000
     26      11.0866      0.00000
     27      11.2691      0.00000
     28      11.2697      0.00000

[...]

 k-point   365 :      -0.1111   -0.1111    0.4444
  band No.  band energies     occupation
      1     -30.5186      1.00000
      2     -30.5186      1.00000
      3     -30.5166      1.00000
      4     -30.5166      1.00000
      5     -23.8296      1.00000
      6     -23.8296      1.00000
      7     -23.8232      1.00000
      8     -23.8232      1.00000
      9     -23.8204      1.00000
     10     -23.8204      1.00000
     11     -20.1381      1.00000
     12     -20.1381      1.00000
     13      -7.3107      1.00000
     14      -7.3107      1.00000
     15       0.7101      1.00000
     16       0.7101      1.00000
     17       2.9652      1.00000
     18       2.9652      1.00000
     19       6.7183      0.00000
     20       6.7183      0.00000
     21       9.2887      0.00000
     22       9.2887      0.00000
     23      10.6734      0.00000
     24      10.6734      0.00000
     25      11.5412      0.00000
     26      11.5412      0.00000
     27      12.4473      0.00000
     28      12.4480      0.00000

 soft charge-density along one line, spin component           1
         0         1         2         3         4         5         6         7         8         9
 total charge-density along one line

[...]

 soft charge-density along one line, spin component           4
         0         1         2         3         4         5         6         7         8         9
 total charge-density along one line

------------------------ aborting loop because EDIFF is reached ----------------------------------------

         DFTD3 V3.0 Rev 1
 IVDW         = 12
 DF pbe
 parameters
 VDW_S6       =    1.0000
 VDW_S8       =    0.7875
 VDW_A1       =    0.4289
 VDW_A2       =    4.4407
 k1-k3        =   16.0000    1.3333   -4.0000
 VDW_RADIUS   =   50.2022 A
 VDW_CNRADIUS =   21.1671 A
 Edisp (eV)   -0.43828

 E6    (eV) :    -0.2167
 E8    (eV) :    -0.2215
 % E8        : 50.55

  FORCE on cell =-STRESS in cart. coord.  units (eV):
  Direction    XX          YY          ZZ          XY          YZ          ZX
  Alpha Z    65.65020    65.65020    65.65020
  Ewald    -579.82048  -579.82048  -579.82048    -0.00000    -0.00000     0.00000
  Hartree   224.65263   224.65263   224.65263    -0.00000     0.00000     0.00000
  E(xc)    -111.77778  -111.77778  -111.77778     0.00000    -0.00000    -0.00000
  Local    -167.51607  -167.51608  -167.51609     0.00001     0.00000     0.00000
  n-local    97.83830    97.83829    97.83829     0.00000    -0.00000    -0.00001
  augment    74.01420    74.01420    74.01421    -0.00000    -0.00000    -0.00000
  Kinetic   397.40200   397.40200   397.40200    -0.00001    -0.00001    -0.00000
  Fock        0.00000     0.00000     0.00000     0.00000     0.00000     0.00000
  vdW        -0.44820    -0.44820    -0.44820     0.00000    -0.00000     0.00000
  Total      -0.00521    -0.00522    -0.00522    -0.00000    -0.00001    -0.00001
  in kB      -0.14374    -0.14378    -0.14393    -0.00003    -0.00025    -0.00022

 VOLUME and BASIS-vectors are now :
  energy-cutoff  :      600.00
  volume of cell :       58.11
      direct lattice vectors                 reciprocal lattice vectors
     4.347780140  0.000000000  0.000000000     0.230002431 -0.132791965 -0.093898099
     2.173890070  3.765288052 -0.000000000     0.000000000  0.265583930 -0.093898099
     2.173890070  1.255096017  3.549947619    -0.000000000  0.000000000  0.281694297

  length of vectors
     4.347780140  4.347780140  4.347780141     0.281694297  0.281694297  0.281694297

 FORCES acting on ions
    electron-ion (+dipol)            ewald-force                    non-local-force                 convergence-correction
   0.122E-13 0.344E-13 -.559E-14   0.387E-14 -.167E-15 0.153E-15   -.106E-21 -.635E-21 0.000E+00   -.962E-13 0.229E-13 -.632E-13
   0.122E-13 0.344E-13 -.559E-14   0.387E-14 -.167E-15 0.153E-15   -.106E-21 -.635E-21 0.000E+00   -.962E-13 0.229E-13 -.632E-13

 POSITION                                       TOTAL-FORCE (eV/Angst)
      0.00000      0.00000      0.00000         0.000000      0.000000      0.000000
    total drift:                               -0.000000      0.000000     -0.000000

  FREE ENERGIE OF THE ION-ELECTRON SYSTEM (eV)
  free  energy   TOTEN  =       -13.72025966 eV

  energy  without entropy=      -13.72023646  energy(sigma->0) =      -13.72025193

 Quasi-Newton relaxation of ions (Broydens 2nd method)
  g(Force)  = 0.000E+00   g(Stress)= 0.788E-06

 Reset! Starting new Quasi-Newton update for ions

 reached required accuracy - stopping structural energy minimisation

 Spin-Orbit-Coupling matrix elements

 Ion:    1  E_soc:    -33.0631278
 l=   1
     0.0000000    -5.0857865    -5.0857868
    -5.0857865     0.0000000    -5.0857865
    -5.0857868    -5.0857865     0.0000000
 l=   2
     0.0000000    -0.0849540     0.0000000    -0.0849540    -0.3397688
    -0.0849540     0.0000000    -0.2548266    -0.0849659    -0.0849540
     0.0000000    -0.2548266     0.0000000    -0.2548267     0.0000000
    -0.0849540    -0.0849659    -0.2548267     0.0000000    -0.0849540
    -0.3397688    -0.0849540     0.0000000    -0.0849540     0.0000000
 l=   3
     0.0000000     0.0000000     0.0000000     0.0000000     0.0000000     0.0000000     0.0000000
     0.0000000     0.0000000     0.0000000     0.0000000     0.0000000     0.0000000     0.0000000
     0.0000000     0.0000000     0.0000000     0.0000000     0.0000000     0.0000000     0.0000000
     0.0000000     0.0000000     0.0000000     0.0000000     0.0000000     0.0000000     0.0000000
     0.0000000     0.0000000     0.0000000     0.0000000     0.0000000     0.0000000     0.0000000
     0.0000000     0.0000000     0.0000000     0.0000000     0.0000000     0.0000000     0.0000000
     0.0000000     0.0000000     0.0000000     0.0000000     0.0000000     0.0000000     0.0000000