 vasp.5.4.4.18Apr17-6-g9f103f2a35 (build Nov 03 2018 10:20:43) complex

 executed on             LinuxIFC date 2018.12.03  16:13:14

 INCAR:
 POTCAR:    PAW Og, JanMewes Oct 18

 POTCAR:    PAW Og, JanMewes Oct 18
   VRHFIN =Og : 10d 2s 6p, PE

   TITEL  = PAW Og, JanMewes Oct 18
   POMASS =    0.010; ZVAL   =   18.000    mass and valenz
   ENMAX  =  339.336; ENMIN  =  254.502 eV
   QCUT   =   -4.994; QGAM   =    9.988    optimization parameters

  PAW Og, JanMewes Oct 18               :

 POSCAR: Og_FCC
  positions in direct lattice
  velocities in cartesian coordinates
 exchange correlation table for  LEXCH =        8
   RHO(1)=    0.500       N(1)  =     2000
   RHO(2)=  100.500       N(2)  =     4000

 ion  position               nearest neighbor table
   1  0.000  0.000  0.000-

  LATTYP: Found a face centered cubic cell.
 ALAT       =     7.0630959110

  Lattice vectors:

 A1 = (   4.9943630147,   0.0000000000,   0.0000000000)
 A2 = (   2.4971815074,   4.3252452464,  -0.0000000000)
 A3 = (   2.4971815074,   1.4417484155,   4.0778803256)

Analysis of symmetry for initial positions (statically):
 Subroutine PRICEL returns:
 Original cell was already a primitive cell.

 Routine SETGRP: Setting up the symmetry group for a
 face centered cubic supercell.

 Subroutine GETGRP returns: Found 48 space group operations
 (whereof 48 operations were pure point group operations)
 out of a pool of 48 trial point group operations.

The static configuration has the point symmetry O_h .

Analysis of symmetry for dynamics (positions and initial velocities):
 Subroutine PRICEL returns:
 Original cell was already a primitive cell.

 Routine SETGRP: Setting up the symmetry group for a
 face centered cubic supercell.

 Subroutine GETGRP returns: Found 48 space group operations
 (whereof 48 operations were pure point group operations)
 out of a pool of 48 trial point group operations.

The dynamic configuration has the point symmetry O_h .

 Subroutine INISYM returns: Found 48 space group operations
 (whereof 48 operations are pure point group operations),
 and found     1 'primitive' translations

Automatic generation of k-mesh.
 generate k-points for:    8    8    8
Space group operators:
 irot       det(A)        alpha          n_x          n_y          n_z        tau_x        tau_y        tau_z
    1     1.000000     0.000000     1.000000     0.000000     0.000000     0.000000     0.000000     0.000000
    2    -1.000000     0.000000     1.000000     0.000000     0.000000     0.000000     0.000000     0.000000
    3     1.000000   120.000000    -0.816497    -0.471405    -0.333333     0.000000     0.000000     0.000000
    4    -1.000000   120.000000    -0.816497    -0.471405    -0.333333     0.000000     0.000000     0.000000
    5     1.000000   120.000000     0.816497     0.471405     0.333333     0.000000     0.000000     0.000000
    6    -1.000000   120.000000     0.816497     0.471405     0.333333     0.000000     0.000000     0.000000
    7     1.000000    90.000000    -0.707107    -0.408248     0.577350     0.000000     0.000000     0.000000
    8    -1.000000    90.000000    -0.707107    -0.408248     0.577350     0.000000     0.000000     0.000000
    9     1.000000   180.000000     1.000000     0.000000     0.000000     0.000000     0.000000     0.000000
   10    -1.000000   180.000000     1.000000     0.000000     0.000000     0.000000     0.000000     0.000000
   11     1.000000    90.000000     0.707107    -0.408248     0.577350     0.000000     0.000000     0.000000
   12    -1.000000    90.000000     0.707107    -0.408248     0.577350     0.000000     0.000000     0.000000
   13     1.000000   180.000000     0.707107     0.408248    -0.577350     0.000000     0.000000     0.000000
   14    -1.000000   180.000000     0.707107     0.408248    -0.577350     0.000000     0.000000     0.000000
   15     1.000000   120.000000     0.816497    -0.471405    -0.333333     0.000000     0.000000     0.000000
   16    -1.000000   120.000000     0.816497    -0.471405    -0.333333     0.000000     0.000000     0.000000
   17     1.000000   120.000000     0.000000    -0.942809     0.333333     0.000000     0.000000     0.000000
   18    -1.000000   120.000000     0.000000    -0.942809     0.333333     0.000000     0.000000     0.000000
   19     1.000000    90.000000     0.707107     0.408248    -0.577350     0.000000     0.000000     0.000000
   20    -1.000000    90.000000     0.707107     0.408248    -0.577350     0.000000     0.000000     0.000000
   21     1.000000    90.000000    -0.000000    -0.816497    -0.577350     0.000000     0.000000     0.000000
   22    -1.000000    90.000000    -0.000000    -0.816497    -0.577350     0.000000     0.000000     0.000000
   23     1.000000   180.000000     0.500000     0.866025    -0.000000     0.000000     0.000000     0.000000
   24    -1.000000   180.000000     0.500000     0.866025    -0.000000     0.000000     0.000000     0.000000
   25     1.000000   120.000000     0.000000     0.942809    -0.333333     0.000000     0.000000     0.000000
   26    -1.000000   120.000000     0.000000     0.942809    -0.333333     0.000000     0.000000     0.000000
   27     1.000000   120.000000     0.000000    -0.000000    -1.000000     0.000000     0.000000     0.000000
   28    -1.000000   120.000000     0.000000    -0.000000    -1.000000     0.000000     0.000000     0.000000
   29     1.000000   180.000000    -0.000000     0.816497     0.577350     0.000000     0.000000     0.000000
   30    -1.000000   180.000000    -0.000000     0.816497     0.577350     0.000000     0.000000     0.000000
   31     1.000000    90.000000    -0.707107     0.408248    -0.577350     0.000000     0.000000     0.000000
   32    -1.000000    90.000000    -0.707107     0.408248    -0.577350     0.000000     0.000000     0.000000
   33     1.000000   180.000000     0.500000     0.288675     0.816497     0.000000     0.000000     0.000000
   34    -1.000000   180.000000     0.500000     0.288675     0.816497     0.000000     0.000000     0.000000
   35     1.000000    90.000000    -0.000000     0.816497     0.577350     0.000000     0.000000     0.000000
   36    -1.000000    90.000000    -0.000000     0.816497     0.577350     0.000000     0.000000     0.000000
   37     1.000000   120.000000    -0.816497     0.471405     0.333333     0.000000     0.000000     0.000000
   38    -1.000000   120.000000    -0.816497     0.471405     0.333333     0.000000     0.000000     0.000000
   39     1.000000   179.999999    -0.707107     0.408248    -0.577350     0.000000     0.000000     0.000000
   40    -1.000000   179.999999    -0.707107     0.408248    -0.577350     0.000000     0.000000     0.000000
   41     1.000000   120.000000     0.000000     0.000000     1.000000     0.000000     0.000000     0.000000
   42    -1.000000   120.000000     0.000000     0.000000     1.000000     0.000000     0.000000     0.000000
   43     1.000000   180.000000     0.000000     0.577350    -0.816497     0.000000     0.000000     0.000000
   44    -1.000000   180.000000     0.000000     0.577350    -0.816497     0.000000     0.000000     0.000000
   45     1.000000   180.000000    -0.500000     0.866025    -0.000000     0.000000     0.000000     0.000000
   46    -1.000000   180.000000    -0.500000     0.866025    -0.000000     0.000000     0.000000     0.000000
   47     1.000000   180.000000    -0.500000     0.288675     0.816497     0.000000     0.000000     0.000000
   48    -1.000000   180.000000    -0.500000     0.288675     0.816497     0.000000     0.000000     0.000000

 Subroutine IBZKPT returns following result:

 Found     29 irreducible k-points:

 Following reciprocal coordinates:
            Coordinates               Weight
  0.000000  0.000000  0.000000      1.000000
  0.125000  0.000000  0.000000      8.000000
  0.250000  0.000000  0.000000      8.000000
  0.375000  0.000000  0.000000      8.000000
  0.500000  0.000000  0.000000      4.000000
  0.125000  0.125000  0.000000      6.000000
  0.250000  0.125000  0.000000     24.000000
  0.375000  0.125000  0.000000     24.000000
  0.500000  0.125000  0.000000     24.000000
 -0.375000  0.125000 -0.000000     24.000000
 -0.250000  0.125000 -0.000000     24.000000
 -0.125000  0.125000 -0.000000     12.000000
  0.250000  0.250000  0.000000      6.000000
  0.375000  0.250000  0.000000     24.000000
  0.500000  0.250000  0.000000     24.000000
 -0.375000  0.250000 -0.000000     24.000000
 -0.250000  0.250000 -0.000000     12.000000
  0.375000  0.375000  0.000000      6.000000
  0.500000  0.375000 -0.000000     24.000000
 -0.375000  0.375000 -0.000000     12.000000
  0.500000  0.500000  0.000000      3.000000
  0.375000  0.250000  0.125000     24.000000
  0.500000  0.250000  0.125000     48.000000
 -0.375000  0.250000  0.125000     24.000000
  0.500000  0.375000  0.125000     24.000000
 -0.375000  0.375000  0.125000     48.000000
 -0.250000  0.375000  0.125000     24.000000
 -0.375000  0.500000  0.125000     12.000000
 -0.250000  0.500000  0.250000      6.000000

 Following cartesian coordinates:
            Coordinates               Weight
  0.000000  0.000000  0.000000      1.000000
  0.025278 -0.014595 -0.010320      8.000000
  0.050557 -0.029189 -0.020640      8.000000
  0.075835 -0.043784 -0.030960      8.000000
  0.101114 -0.058378 -0.041280      4.000000
  0.025278  0.014595 -0.020640      6.000000
  0.050557  0.000000 -0.030960     24.000000
  0.075835 -0.014595 -0.041280     24.000000
  0.101114 -0.029189 -0.051600     24.000000
 -0.075835  0.072973  0.020640     24.000000
 -0.050557  0.058378  0.010320     24.000000
 -0.025278  0.043784 -0.000000     12.000000
  0.050557  0.029189 -0.041280      6.000000
  0.075835  0.014595 -0.051600     24.000000
  0.101114  0.000000 -0.061919     24.000000
 -0.075835  0.102162  0.010320     24.000000
 -0.050557  0.087567 -0.000000     12.000000
  0.075835  0.043784 -0.061919      6.000000
  0.101114  0.029189 -0.072239     24.000000
 -0.075835  0.131351 -0.000000     12.000000
  0.101114  0.058378 -0.082559      3.000000
  0.075835  0.014595 -0.020640     24.000000
  0.101114  0.000000 -0.030960     48.000000
 -0.075835  0.102162  0.041280     24.000000
  0.101114  0.029189 -0.041280     24.000000
 -0.075835  0.131351  0.030960     48.000000
 -0.050557  0.116756  0.020640     24.000000
 -0.075835  0.160540  0.020640     12.000000
 -0.050557  0.145945  0.041280      6.000000

 SYSTEM =  Og_FCC
 POSCAR =  Og_FCC

 Startparameter for this run:
   NWRITE =      2    write-flag & timer
   PREC   = accura    normal or accurate (medium, high low for compatibility)
   ISTART =      0    job   : 0-new  1-cont  2-samecut
   ICHARG =      2    charge: 1-file 2-atom 10-const
   ISPIN  =      1    spin polarized calculation?
   LNONCOLLINEAR =      F non collinear calculations
   LSORBIT =      F    spin-orbit coupling
   INIWAV =      1    electr: 0-lowe 1-rand  2-diag
   LASPH  =      F    aspherical Exc in radial PAW
   METAGGA=      F    non-selfconsistent MetaGGA calc.

 Electronic Relaxation 1
   ENCUT  =  600.0 eV  44.10 Ry    6.64 a.u.   9.97  9.97  9.97*2*pi/ulx,y,z
   ENINI  =  600.0     initial cutoff
[...]
   IRESTART =      0    0=no restart 2=restart with 2 vectors
   NREBOOT  =      0    no. of reboots
   NMIN     =      0    reboot dimension
   EREF     =   0.00    reference energy to select bands
   IMIX   =      4    mixing-type and parameters
     AMIX     =   0.40;   BMIX     =  1.00
     AMIX_MAG =   1.60;   BMIX_MAG =  1.00
     AMIN     =   0.10
     WC   =   100.;   INIMIX=   1;  MIXPRE=   1;  MAXMIX=  50

 Intra band minimization:
   WEIMIN = 0.0000     energy-eigenvalue tresh-hold
   EBREAK =  0.19E-08  absolut break condition
   DEPER  =   0.30     relativ break condition

   TIME   =   0.40     timestep for ELM

  volume/ion in A,a.u.               =      88.09       594.46
  Fermi-wavevector in a.u.,A,eV,Ry     =   0.964252  1.822172 12.650452  0.929782
  Thomas-Fermi vector in A             =   2.093867

 Write flags
   LWAVE        =      F    write WAVECAR
   LDOWNSAMPLE  =      F    k-point downsampling of WAVECAR
   LCHARG       =      F    write CHGCAR
   LVTOT        =      F    write LOCPOT, total local potential
   LVHAR        =      F    write LOCPOT, Hartree potential only
   LELF         =      F    write electronic localiz. function (ELF)
   LORBIT       =      0    0 simple, 1 ext, 2 COOP (PROOUT), +10 PAW based schemes

 Dipole corrections
   LMONO  =      F    monopole corrections only (constant potential shift)
   LDIPOL =      F    correct potential (dipole corrections)
   IDIPOL =      0    1-x, 2-y, 3-z, 4-all directions
   EPSILON=  1.0000000 bulk dielectric constant

 Exchange correlation treatment:
   GGA     =    PE    GGA type
   VOSKOWN=      0    Vosko Wilk Nusair interpolation
   LHFCALC =     F    Hartree Fock is set to
   LHFONE  =     F    Hartree Fock one center treatment
   AEXX    =    0.0000 exact exchange contribution

 Linear response parameters
   LEPSILON=     F    determine dielectric tensor
   LRPA    =     F    only Hartree local field effects (RPA)
   LNABLA  =     F    use nabla operator in PAW spheres
   LVEL    =     F    velocity operator in full k-point grid
   LINTERFAST=   F  fast interpolation
   KINTER  =     0    interpolate to denser k-point grid
   CSHIFT  =0.1000    complex shift for real part using Kramers Kronig
   OMEGAMAX=  -1.0    maximum frequency
   DEG_THRESHOLD= 0.2000000E-02 threshold for treating states as degnerate
   RTIME   =   -0.100 relaxation time in fs
  (WPLASMAI=    0.000 imaginary part of plasma frequency in eV, 0.658/RTIME)
   DFIELD  = 0.0000000 0.0000000 0.0000000 field for delta impulse in time

 Orbital magnetization related:
   ORBITALMAG=     F  switch on orbital magnetization
   LCHIMAG   =     F  perturbation theory with respect to B field
   DQ        =  0.001000  dq finite difference perturbation B field
   LLRAUG    =     F  two centre corrections for induced B field

 Static calculation
 charge density and potential will be updated during run
 non-spin polarized calculation
 RMM-DIIS sequential band-by-band and
  variant of blocked Davidson during initial phase
 perform sub-space diagonalisation
    before iterative eigenvector-optimisation
 modified Broyden-mixing scheme, WC =      100.0
 initial mixing is a Kerker type mixing with AMIX =  0.4000 and BMIX =      1.0000
 Hartree-type preconditioning will be used
 using additional bands            4
 reciprocal scheme for non local part
 use partial core corrections
 calculate Harris-corrections to forces
   (improved forces if not selfconsistent)
 use gradient corrections
 use of overlap-Matrix (Vanderbilt PP)
 Methfessel and Paxton  Order N= 1 SIGMA  =   0.10

  energy-cutoff  :      600.00
  volume of cell :       88.09
      direct lattice vectors                 reciprocal lattice vectors
     4.994363015  0.000000000  0.000000000     0.200225734 -0.115600381 -0.081741814
     2.497181507  4.325245246 -0.000000000     0.000000000  0.231200763 -0.081741814
     2.497181507  1.441748415  4.077880326    -0.000000000  0.000000000  0.245225441

  length of vectors
     4.994363015  4.994363015  4.994363015     0.245225441  0.245225441  0.245225441

 k-points in units of 2pi/SCALE and weight: read from INCAR
   0.00000000  0.00000000  0.00000000       0.002
   0.02527850 -0.01459455 -0.01031990       0.016
   0.05055700 -0.02918910 -0.02063981       0.016
   0.07583550 -0.04378364 -0.03095971       0.016
   0.10111400 -0.05837819 -0.04127962       0.008
   0.02527850  0.01459455 -0.02063981       0.012
   0.05055700  0.00000000 -0.03095971       0.047
   0.07583550 -0.01459455 -0.04127962       0.047
   0.10111400 -0.02918910 -0.05159952       0.047
  -0.07583550  0.07297274  0.02063981       0.047
  -0.05055700  0.05837819  0.01031990       0.047
  -0.02527850  0.04378364 -0.00000000       0.023
   0.05055700  0.02918910 -0.04127962       0.012
   0.07583550  0.01459455 -0.05159952       0.047
   0.10111400  0.00000000 -0.06191942       0.047
  -0.07583550  0.10216184  0.01031990       0.047
  -0.05055700  0.08756729 -0.00000000       0.023
   0.07583550  0.04378364 -0.06191942       0.012
   0.10111400  0.02918910 -0.07223933       0.047
  -0.07583550  0.13135093 -0.00000000       0.023
   0.10111400  0.05837819 -0.08255923       0.006
   0.07583550  0.01459455 -0.02063981       0.047
   0.10111400  0.00000000 -0.03095971       0.094
  -0.07583550  0.10216184  0.04127962       0.047
   0.10111400  0.02918910 -0.04127962       0.047
  -0.07583550  0.13135093  0.03095971       0.094
  -0.05055700  0.11675639  0.02063981       0.047
  -0.07583550  0.16054003  0.02063981       0.023
  -0.05055700  0.14594548  0.04127962       0.012

 k-points in reciprocal lattice and weights: read from INCAR
   0.00000000  0.00000000  0.00000000       0.002
   0.12500000  0.00000000  0.00000000       0.016
   0.25000000  0.00000000  0.00000000       0.016
   0.37500000  0.00000000  0.00000000       0.016
   0.50000000  0.00000000  0.00000000       0.008
   0.12500000  0.12500000  0.00000000       0.012
   0.25000000  0.12500000  0.00000000       0.047
   0.37500000  0.12500000  0.00000000       0.047
   0.50000000  0.12500000  0.00000000       0.047
  -0.37500000  0.12500000 -0.00000000       0.047
  -0.25000000  0.12500000 -0.00000000       0.047
  -0.12500000  0.12500000 -0.00000000       0.023
   0.25000000  0.25000000  0.00000000       0.012
   0.37500000  0.25000000  0.00000000       0.047
   0.50000000  0.25000000  0.00000000       0.047
  -0.37500000  0.25000000 -0.00000000       0.047
  -0.25000000  0.25000000 -0.00000000       0.023
   0.37500000  0.37500000  0.00000000       0.012
   0.50000000  0.37500000 -0.00000000       0.047
  -0.37500000  0.37500000 -0.00000000       0.023
   0.50000000  0.50000000  0.00000000       0.006
   0.37500000  0.25000000  0.12500000       0.047
   0.50000000  0.25000000  0.12500000       0.094
  -0.37500000  0.25000000  0.12500000       0.047
   0.50000000  0.37500000  0.12500000       0.047
  -0.37500000  0.37500000  0.12500000       0.094
  -0.25000000  0.37500000  0.12500000       0.047
  -0.37500000  0.50000000  0.12500000       0.023
  -0.25000000  0.50000000  0.25000000       0.012

 position of ions in fractional coordinates (direct lattice)
   0.00000000  0.00000000  0.00000000

 position of ions in cartesian coordinates  (Angst):
   0.00000000  0.00000000  0.00000000

 k-point  1 :   0.0000 0.0000 0.0000  plane waves:    2891
 k-point  2 :   0.1250 0.0000 0.0000  plane waves:    2912
 k-point  3 :   0.2500 0.0000 0.0000  plane waves:    2926
 k-point  4 :   0.3750 0.0000 0.0000  plane waves:    2947
 k-point  5 :   0.5000 0.0000 0.0000  plane waves:    2938
 k-point  6 :   0.1250 0.1250 0.0000  plane waves:    2918
 k-point  7 :   0.2500 0.1250 0.0000  plane waves:    2929
 k-point  8 :   0.3750 0.1250 0.0000  plane waves:    2940
 k-point  9 :   0.5000 0.1250 0.0000  plane waves:    2941
 k-point 10 :  -0.3750 0.1250-0.0000  plane waves:    2936
 k-point 11 :  -0.2500 0.1250-0.0000  plane waves:    2929
 k-point 12 :  -0.1250 0.1250-0.0000  plane waves:    2912
 k-point 13 :   0.2500 0.2500 0.0000  plane waves:    2906
 k-point 14 :   0.3750 0.2500 0.0000  plane waves:    2939
 k-point 15 :   0.5000 0.2500 0.0000  plane waves:    2946
 k-point 16 :  -0.3750 0.2500-0.0000  plane waves:    2944
 k-point 17 :  -0.2500 0.2500-0.0000  plane waves:    2952
 k-point 18 :   0.3750 0.3750 0.0000  plane waves:    2930
 k-point 19 :   0.5000 0.3750-0.0000  plane waves:    2936
 k-point 20 :  -0.3750 0.3750-0.0000  plane waves:    2932
 k-point 21 :   0.5000 0.5000 0.0000  plane waves:    2954
 k-point 22 :   0.3750 0.2500 0.1250  plane waves:    2936
 k-point 23 :   0.5000 0.2500 0.1250  plane waves:    2948
 k-point 24 :  -0.3750 0.2500 0.1250  plane waves:    2952
 k-point 25 :   0.5000 0.3750 0.1250  plane waves:    2939
 k-point 26 :  -0.3750 0.3750 0.1250  plane waves:    2949
 k-point 27 :  -0.2500 0.3750 0.1250  plane waves:    2951
 k-point 28 :  -0.3750 0.5000 0.1250  plane waves:    2934
 k-point 29 :  -0.2500 0.5000 0.2500  plane waves:    2936

 maximum and minimum number of plane-waves per node :      1482     1442

 maximum number of plane-waves:      2954
 maximum index in each direction:
   IXMAX=   10   IYMAX=    9   IZMAX=    9
   IXMIN=  -10   IYMIN=  -10   IZMIN=  -10

 parallel 3D FFT for wavefunctions:
    minimum data exchange during FFTs selected (reduces bandwidth)
 parallel 3D FFT for charge:
    minimum data exchange during FFTs selected (reduces bandwidth)

 Broyden mixing: mesh for mixing (old mesh)
   NGX = 19   NGY = 19   NGZ = 19
  (NGX  = 80   NGY  = 80   NGZ  = 80)
  gives a total of   6859 points

 initial charge density was supplied:
 charge density of overlapping atoms calculated
 number of electron      18.0000000 magnetization
 keeping initial charge density in first step

 Maximum index for augmentation-charges       169425 (set IRDMAX)

 First call to EWALD:  gamma=   0.398
 Maximum number of real-space cells 3x 3x 3
 Maximum number of reciprocal cells 3x 3x 3

--------------------------------------- Iteration      1(   1)  ---------------------------------------

 eigenvalue-minimisations  :   754
 total energy-change (2. order) : 0.3133905E+03  (-0.8409149E+03)
 number of electron      18.0000000 magnetization
 augmentation part       18.0000000 magnetization

 Free energy of the ion-electron system (eV)
  alpha Z        PSCENC =        43.31102209
  Ewald energy   TEWEN  =     -1514.26630738
  -Hartree energ DENC   =      -818.06607762
  -exchange      EXHF   =         0.00000000
  -V(xc)+E(xc)   XCENC  =       -69.59713176
  PAW double counting   =      2268.42939301    -2184.22833953
  entropy T*S    EENTRO =        -0.00006907
  eigenvalues    EBANDS =       -52.72067651
  atomic energy  EATOM  =      2640.52872706
  Solvation  Ediel_sol  =         0.00000000
  free energy    TOTEN  =       313.39054027 eV

  energy without entropy =      313.39060935  energy(sigma->0) =      313.39056330

[...]

 eigenvalue-minimisations  :  1086
 total energy-change (2. order) :-0.2994477E+03  (-0.2894778E+03)
 number of electron      18.0000000 magnetization
 augmentation part       18.0000000 magnetization

[...]

 Broyden mixing:
  rms(total) = 0.13429E-01    rms(broyden)= 0.11443E-01
  rms(prec ) = 0.22194E-01
  weight for this iteration     100.00
  WARNING: grid for Broyden might be to small

[...]

 Broyden mixing:
  rms(total) = 0.65920E-02    rms(broyden)= 0.64444E-02
  rms(prec ) = 0.12733E-01
  weight for this iteration     100.00

 eigenvalues of (default mixing * dielectric matrix)
  average eigenvalue GAMMA=   2.1631
  2.1631

[...]

 Broyden mixing:
  rms(total) = 0.29479E-04    rms(broyden)= 0.29282E-04
  rms(prec ) = 0.64564E-04
  weight for this iteration     100.00

 eigenvalues of (default mixing * dielectric matrix)
  average eigenvalue GAMMA=   1.9670
  3.3092  0.8446  0.9986  2.5302  2.0598  2.0598

[...]

--------------------------------------- Iteration      1(  12)  ---------------------------------------

 eigenvalue-minimisations  :   653
 total energy-change (2. order) :-0.6774371E-08  (-0.2247140E-07)
 number of electron      18.0000000 magnetization
 augmentation part        2.9910540 magnetization

 Free energy of the ion-electron system (eV)
  alpha Z        PSCENC =        43.31102209
  Ewald energy   TEWEN  =     -1514.26630738
  -Hartree energ DENC   =      -817.45970785
  -exchange      EXHF   =         0.00000000
  -V(xc)+E(xc)   XCENC  =       -69.63284732
  PAW double counting   =      2266.19170276    -2181.97729822
  entropy T*S    EENTRO =         0.00253175
  eigenvalues    EBANDS =      -366.71372908
  atomic energy  EATOM  =      2640.52872706
  Solvation  Ediel_sol  =         0.00000000
  free energy    TOTEN  =        -0.01590620 eV

  energy without entropy =       -0.01843795  energy(sigma->0) =       -0.01675011

 average (electrostatic) potential at core
  the test charge radii are     1.2024
  (the norm of the test charge is              1.0000)
       1-115.0242

 E-fermi :  -1.5205     XC(G=0):  -6.3068     alpha+bet : -4.9815

 k-point     1 :       0.0000    0.0000    0.0000
  band No.  band energies     occupation
      1     -30.6819      2.00000
      2     -30.6819      2.00000
      3     -30.6819      2.00000
      4     -30.6816      2.00000
      5     -30.6816      2.00000
      6     -23.6172      2.00000
      7      -1.5460      1.41648
      8      -1.5460      1.41648
      9      -1.5460      1.41648
     10       1.6196      0.00000
     11       7.6050      0.00000
     12       7.6050      0.00000
     13       7.6050      0.00000

[...]

 k-point    29 :      -0.2500    0.5000    0.2500
  band No.  band energies     occupation
      1     -30.6816      2.00000
      2     -30.6815      2.00000
      3     -30.6815      2.00000
      4     -30.6813      2.00000
      5     -30.6808      2.00000
      6     -23.5967      2.00000
      7      -2.4089      2.00000
      8      -2.4089      2.00000
      9      -2.0568      2.00000
     10       5.5961      0.00000
     11       6.1654      0.00000
     12       6.7895      0.00000
     13       6.7895      0.00000

 soft charge-density along one line, spin component           1
         0         1         2         3         4         5         6         7         8         9
 total charge-density along one line

------------------------ aborting loop because EDIFF is reached ----------------------------------------

  FORCE on cell =-STRESS in cart. coord.  units (eV):
  Direction    XX          YY          ZZ          XY          YZ          ZX
  Alpha Z    43.31102    43.31102    43.31102
  Ewald    -504.75545  -504.75545  -504.75545    -0.00000    -0.00000     0.00000
  Hartree   272.48586   272.48586   272.48586     0.00000    -0.00000     0.00000
  E(xc)    -110.38584  -110.38584  -110.38584     0.00000    -0.00000     0.00000
  Local    -267.37853  -267.37854  -267.37854     0.00001     0.00000     0.00001
  n-local    98.65056   100.97870   102.20938     0.82913    -0.21751     2.31227
  augment    79.64908    79.64909    79.64909    -0.00001    -0.00000    -0.00001
  Kinetic   384.79460   386.73392   387.79229     0.77624    -0.06531     1.99263
  Fock        0.00000     0.00000     0.00000     0.00000     0.00000     0.00000
  Total      -0.02072    -0.02072    -0.02072     0.00000     0.00000     0.00000
  in kB      -0.37678    -0.37678    -0.37678     0.00000     0.00000     0.00000

 VOLUME and BASIS-vectors are now :
  energy-cutoff  :      600.00
  volume of cell :       88.09
      direct lattice vectors                 reciprocal lattice vectors
     4.994363015  0.000000000  0.000000000     0.200225734 -0.115600381 -0.081741814
     2.497181507  4.325245246 -0.000000000     0.000000000  0.231200763 -0.081741814
     2.497181507  1.441748415  4.077880326    -0.000000000  0.000000000  0.245225441

  length of vectors
     4.994363015  4.994363015  4.994363015     0.245225441  0.245225441  0.245225441

 FORCES acting on ions
    electron-ion (+dipol)            ewald-force                    non-local-force                 convergence-correction
   -.322E-13 0.418E-14 -.646E-13   0.372E-14 0.344E-16 -.102E-14   -.402E-20 0.424E-21 0.000E+00   -.107E-12 -.139E-13 -.117E-12
   -.322E-13 0.418E-14 -.646E-13   0.372E-14 0.344E-16 -.102E-14   -.402E-20 0.424E-21 0.000E+00   -.107E-12 -.139E-13 -.117E-12

 POSITION                                       TOTAL-FORCE (eV/Angst)
      0.00000      0.00000      0.00000         0.000000     -0.000000     -0.000000
    total drift:                               -0.000000     -0.000000     -0.000000

  FREE ENERGIE OF THE ION-ELECTRON SYSTEM (eV)
  free  energy   TOTEN  =        -0.01590620 eV

  energy  without entropy=       -0.01843795  energy(sigma->0) =       -0.01675011