 vasp.5.4.4.18Apr17-6-g9f103f2a35 (build Jul 09 2018 16:43:14) complex

 executed on             LinuxIFC date 2018.11.22  05:07:18

 INCAR:
 POTCAR:    PAW_PBE Ne_GW 22Sep2014

 POTCAR:    PAW_PBE Ne_GW 22Sep2014
   VRHFIN =Ne: s2p6

   TITEL  = PAW_PBE Ne_GW 22Sep2014
   POMASS =   20.180; ZVAL   =    8.000    mass and valenz
   ENMAX  =  432.275; ENMIN  =  324.206 eV

  PAW_PBE Ne_GW 22Sep2014               :

 POSCAR: Ne_FCC
  positions in direct lattice
  velocities in cartesian coordinates
 exchange correlation table for  LEXCH =        8
   RHO(1)=    0.500       N(1)  =     2000
   RHO(2)=  100.500       N(2)  =     4000

 ion  position               nearest neighbor table
   1  0.000  0.000  0.000-

IMPORTANT INFORMATION: All symmetrisations will be switched off!
NOSYMM: (Re-)initialisation of all symmetry stuff for point group C_1.

 KPOINTS: k-points

Automatic generation of k-mesh.
Space group operators:
 irot       det(A)        alpha          n_x          n_y          n_z        tau_x        tau_y        tau_z
    1     1.000000     0.000000     1.000000     0.000000     0.000000     0.000000     0.000000     0.000000

 Subroutine IBZKPT returns following result:

 Found    112 irreducible k-points:

 Following reciprocal coordinates:
            Coordinates               Weight
  0.000000  0.000000  0.000000      1.000000
  0.166667  0.000000  0.000000      2.000000
  0.333333 -0.000000  0.000000      2.000000
  0.500000  0.000000 -0.000000      1.000000
  0.000000  0.166667  0.000000      2.000000
  0.166667  0.166667  0.000000      2.000000
  0.333333  0.166667  0.000000      2.000000
  0.500000  0.166667  0.000000      2.000000
 -0.333333  0.166667 -0.000000      2.000000
 -0.166667  0.166667 -0.000000      2.000000
  0.000000  0.333333  0.000000      2.000000
  0.166667  0.333333  0.000000      2.000000
  0.333333  0.333333  0.000000      2.000000
  0.500000  0.333333  0.000000      2.000000
 -0.333333  0.333333 -0.000000      2.000000
 -0.166667  0.333333  0.000000      2.000000
  0.000000  0.500000  0.000000      1.000000
  0.166667  0.500000  0.000000      2.000000
  0.333333  0.500000  0.000000      2.000000
  0.500000  0.500000  0.000000      1.000000
  0.000000  0.000000  0.166667      2.000000
  0.166667  0.000000  0.166667      2.000000
  0.333333 -0.000000  0.166667      2.000000
  0.500000  0.000000  0.166667      2.000000
 -0.333333  0.000000  0.166667      2.000000
 -0.166667  0.000000  0.166667      2.000000
  0.000000  0.166667  0.166667      2.000000
  0.166667  0.166667  0.166667      2.000000
  0.333333  0.166667  0.166667      2.000000
  0.500000  0.166667  0.166667      2.000000
 -0.333333  0.166667  0.166667      2.000000
 -0.166667  0.166667  0.166667      2.000000
  0.000000  0.333333  0.166667      2.000000
  0.166667  0.333333  0.166667      2.000000
  0.333333  0.333333  0.166667      2.000000
  0.500000  0.333333  0.166667      2.000000
 -0.333333  0.333333  0.166667      2.000000
 -0.166667  0.333333  0.166667      2.000000
  0.000000  0.500000  0.166667      2.000000
  0.166667  0.500000  0.166667      2.000000
  0.333333  0.500000  0.166667      2.000000
  0.500000  0.500000  0.166667      2.000000
 -0.333333  0.500000  0.166667      2.000000
 -0.166667  0.500000  0.166667      2.000000
  0.000000 -0.333333  0.166667      2.000000
  0.166667 -0.333333  0.166667      2.000000
  0.333333 -0.333333  0.166667      2.000000
  0.500000 -0.333333  0.166667      2.000000
 -0.333333 -0.333333  0.166667      2.000000
 -0.166667 -0.333333  0.166667      2.000000
  0.000000 -0.166667  0.166667      2.000000
  0.166667 -0.166667  0.166667      2.000000
  0.333333 -0.166667  0.166667      2.000000
  0.500000 -0.166667  0.166667      2.000000
 -0.333333 -0.166667  0.166667      2.000000
 -0.166667 -0.166667  0.166667      2.000000
  0.000000  0.000000  0.333333      2.000000
  0.166667  0.000000  0.333333      2.000000
  0.333333 -0.000000  0.333333      2.000000
  0.500000  0.000000  0.333333      2.000000
[...]
  0.166667  0.166667  0.500000      2.000000
  0.333333  0.166667  0.500000      2.000000
  0.500000  0.166667  0.500000      2.000000
 -0.333333  0.166667  0.500000      2.000000
 -0.166667  0.166667  0.500000      2.000000
  0.000000  0.333333  0.500000      2.000000
  0.166667  0.333333  0.500000      2.000000
  0.333333  0.333333  0.500000      2.000000
  0.500000  0.333333  0.500000      2.000000
 -0.333333  0.333333  0.500000      2.000000
 -0.166667  0.333333  0.500000      2.000000
  0.000000  0.500000  0.500000      1.000000
  0.166667  0.500000  0.500000      2.000000
  0.333333  0.500000  0.500000      2.000000
  0.500000  0.500000  0.500000      1.000000

 Following cartesian coordinates:
            Coordinates               Weight
  0.000000  0.000000  0.000000      1.000000
  0.056037 -0.032353 -0.022877      2.000000
  0.112074 -0.064706 -0.045754      2.000000
  0.168111 -0.097059 -0.068631      1.000000
  0.000000  0.064706 -0.022877      2.000000
  0.056037  0.032353 -0.045754      2.000000
  0.112074  0.000000 -0.068631      2.000000
  0.168111 -0.032353 -0.091508      2.000000
 -0.112074  0.129412  0.022877      2.000000
 -0.056037  0.097059  0.000000      2.000000
  0.000000  0.129412 -0.045754      2.000000
  0.056037  0.097059 -0.068631      2.000000
  0.112074  0.064706 -0.091508      2.000000
  0.168111  0.032353 -0.114385      2.000000
 -0.112074  0.194118  0.000000      2.000000
 -0.056037  0.161765 -0.022877      2.000000
  0.000000  0.194118 -0.068631      1.000000
  0.056037  0.161765 -0.091508      2.000000
  0.112074  0.129412 -0.114385      2.000000
  0.168111  0.097059 -0.137262      1.000000
  0.000000  0.000000  0.068631      2.000000
  0.056037 -0.032353  0.045754      2.000000
  0.112074 -0.064706  0.022877      2.000000
  0.168111 -0.097059 -0.000000      2.000000
 -0.112074  0.064706  0.114385      2.000000
 -0.056037  0.032353  0.091508      2.000000
  0.000000  0.064706  0.045754      2.000000
  0.056037  0.032353  0.022877      2.000000
  0.112074  0.000000  0.000000      2.000000
  0.168111 -0.032353 -0.022877      2.000000
 -0.112074  0.129412  0.091508      2.000000
 -0.056037  0.097059  0.068631      2.000000
  0.000000  0.129412  0.022877      2.000000
  0.056037  0.097059  0.000000      2.000000
  0.112074  0.064706 -0.022877      2.000000
  0.168111  0.032353 -0.045754      2.000000
 -0.112074  0.194118  0.068631      2.000000
 -0.056037  0.161765  0.045754      2.000000
  0.000000  0.194118  0.000000      2.000000
  0.056037  0.161765 -0.022877      2.000000
  0.112074  0.129412 -0.045754      2.000000
  0.168111  0.097059 -0.068631      2.000000
 -0.112074  0.258824  0.045754      2.000000
 -0.056037  0.226471  0.022877      2.000000
  0.000000 -0.129412  0.114385      2.000000
  0.056037 -0.161765  0.091508      2.000000
  0.112074 -0.194118  0.068631      2.000000
  0.168111 -0.226471  0.045754      2.000000
 -0.112074 -0.064706  0.160139      2.000000
 -0.056037 -0.097059  0.137262      2.000000
  0.000000 -0.064706  0.091508      2.000000
  0.056037 -0.097059  0.068631      2.000000
  0.112074 -0.129412  0.045754      2.000000
  0.168111 -0.161765  0.022877      2.000000
 -0.112074 -0.000000  0.137262      2.000000
 -0.056037 -0.032353  0.114385      2.000000
  0.000000  0.000000  0.137262      2.000000
  0.056037 -0.032353  0.114385      2.000000
  0.112074 -0.064706  0.091508      2.000000
  0.168111 -0.097059  0.068631      2.000000
[...]
  0.056037  0.032353  0.160139      2.000000
  0.112074  0.000000  0.137262      2.000000
  0.168111 -0.032353  0.114385      2.000000
 -0.112074  0.129412  0.228770      2.000000
 -0.056037  0.097059  0.205893      2.000000
  0.000000  0.129412  0.160139      2.000000
  0.056037  0.097059  0.137262      2.000000
  0.112074  0.064706  0.114385      2.000000
  0.168111  0.032353  0.091508      2.000000
 -0.112074  0.194118  0.205893      2.000000
 -0.056037  0.161765  0.183016      2.000000
  0.000000  0.194118  0.137262      1.000000
  0.056037  0.161765  0.114385      2.000000
  0.112074  0.129412  0.091508      2.000000
  0.168111  0.097059  0.068631      1.000000

 SYSTEM =  Og_FCC
 POSCAR =  Ne_FCC

 Startparameter for this run:
   NWRITE =      2    write-flag & timer
   PREC   = accura    normal or accurate (medium, high low for compatibility)
   ISTART =      1    job   : 0-new  1-cont  2-samecut
   ICHARG =      0    charge: 1-file 2-atom 10-const
   ISPIN  =      1    spin polarized calculation?
   LNONCOLLINEAR =      F non collinear calculations
   LSORBIT =      F    spin-orbit coupling
   INIWAV =      1    electr: 0-lowe 1-rand  2-diag
   LASPH  =      F    aspherical Exc in radial PAW
   METAGGA=      F    non-selfconsistent MetaGGA calc.

 Electronic Relaxation 1
   ENCUT  =  300.0 eV  22.05 Ry    4.70 a.u.   4.20  4.20  4.20*2*pi/ulx,y,z
   ENINI  =  300.0     initial cutoff
   ENAUG  =  755.8 eV  augmentation charge cutoff
   NELM   =     50;   NELMIN=  2; NELMDL= -5     # of ELM steps
   EDIFF  = 0.1E-07   stopping-criterion for ELM
   LREAL  =      F    real-space projection
   NLSPLINE    = F    spline interpolate recip. space projectors
   LCOMPAT=      F    compatible to vasp.4.4
   GGA_COMPAT  = F    GGA compatible to vasp.4.4-vasp.4.6
   LMAXPAW     = -100 max onsite density
   LMAXMIX     =    2 max onsite mixed and CHGCAR
   VOSKOWN=      0    Vosko Wilk Nusair interpolation
   ROPT   =    0.00000
 Ionic relaxation
   EDIFFG = 0.1E-04   stopping-criterion for IOM
   NSW    =      1    number of steps for IOM
   NBLOCK =      1;   KBLOCK =      1    inner block; outer block
   IBRION =     -1    ionic relax: 0-MD 1-quasi-New 2-CG
   NFREE  =      5    steps in history (QN), initial steepest desc. (CG)
   ISIF   =      3    stress and relaxation
   IWAVPR =     10    prediction:  0-non 1-charg 2-wave 3-comb
   ISYM   =      0    0-nonsym 1-usesym 2-fastsym
   LCORR  =      T    Harris-Foulkes like correction to forces

   POTIM  = 0.1000    time-step for ionic-motion
   TEIN   =    0.0    initial temperature
   TEBEG  =    0.0;   TEEND  =   0.0 temperature during run
   SMASS  =  -3.00    Nose mass-parameter (am)
   estimated Nose-frequenzy (Omega)   =  0.10E-29 period in steps =****** mass=  -0.202E-27a.u.
   SCALEE = 1.0000    scale energy and forces
   NPACO  =    256;   APACO  = 16.0  distance and # of slots for P.C.
   PSTRESS=    0.0 pullay stress

  Mass of Ions in am
   POMASS =  20.18
  Ionic Valenz
   ZVAL   =   8.00
  Atomic Wigner-Seitz radii
  virtual crystal weights
   VCA    =   1.00
   NELECT =       8.0000    total number of electrons
   NUPDOWN=      -1.0000    fix difference up-down

 DOS related values:
   EMIN   =  10.00;   EMAX   =-10.00  energy-range for DOS
   EFERMI =   0.00
   ISMEAR =     0;   SIGMA  =   0.00  broadening in eV -4-tet -1-fermi 0-gaus

 Electronic relaxation 2 (details)
   IALGO  =     90    algorithm
   LDIAG  =      T    sub-space diagonalisation (order eigenvalues)
   LSUBROT=      F    optimize rotation matrix (better conditioning)
   TURBO    =      0    0=normal 1=particle mesh
   IRESTART =      0    0=no restart 2=restart with 2 vectors
   NREBOOT  =      0    no. of reboots
[...]
   99.939201    0.947025    0.947025    0.947024   -0.000000   -0.000000   -0.000000
  102.878589    0.951685    0.951685    0.951684   -0.000000   -0.000000   -0.000000
  105.817978    0.965218    0.965218    0.965218   -0.000000   -0.000000   -0.000000
  108.757366    0.952364    0.952364    0.952363   -0.000000   -0.000000   -0.000000
  111.696754    0.949680    0.949680    0.949680   -0.000000   -0.000000   -0.000000
  114.636143    0.957244    0.957244    0.957244   -0.000000   -0.000000   -0.000000
  117.575531    0.958549    0.958549    0.958549   -0.000000   -0.000000   -0.000000
  120.514919    0.957901    0.957901    0.957901   -0.000000   -0.000000   -0.000000
  123.454307    0.964871    0.964871    0.964871   -0.000000   -0.000000   -0.000000
  126.393696    0.957488    0.957488    0.957488   -0.000000   -0.000000   -0.000000
  129.333084    0.965289    0.965289    0.965289   -0.000000   -0.000000   -0.000000
  132.272472    0.966315    0.966315    0.966315   -0.000000   -0.000000   -0.000000
  135.211860    0.971649    0.971649    0.971649   -0.000000   -0.000000   -0.000000
  138.151249    0.975545    0.975545    0.975545   -0.000000   -0.000000   -0.000000
  141.090637    0.967407    0.967407    0.967407   -0.000000   -0.000000   -0.000000
  144.030025    0.964920    0.964920    0.964920   -0.000000   -0.000000   -0.000000
  146.969414    0.971466    0.971466    0.971465   -0.000000   -0.000000   -0.000000
  149.908802    0.974145    0.974145    0.974146    0.000000    0.000000    0.000000
  152.848190    0.973959    0.973959    0.973959   -0.000000   -0.000000   -0.000000
  155.787578    0.978503    0.978503    0.978503   -0.000000   -0.000000   -0.000000
  158.726967    0.970258    0.970258    0.970258   -0.000000   -0.000000   -0.000000
  161.666355    0.976839    0.976839    0.976838   -0.000000   -0.000000   -0.000000
  164.605743    0.978045    0.978045    0.978045   -0.000000   -0.000000   -0.000000
  167.545131    0.976268    0.976268    0.976267   -0.000000    0.000000   -0.000000
  170.484520    0.977208    0.977209    0.977208   -0.000000   -0.000000   -0.000000
  173.423908    0.979256    0.979256    0.979256   -0.000000   -0.000000   -0.000000
[...]
  249.848003    0.990158    0.990158    0.990158    0.000000    0.000000    0.000000
  252.787391    0.990463    0.990463    0.990464    0.000000    0.000000    0.000000
  255.726780    0.990748    0.990748    0.990749    0.000000    0.000000    0.000000
  258.666168    0.991016    0.991016    0.991016    0.000000    0.000000    0.000000
  261.605556    0.991269    0.991269    0.991269    0.000000    0.000000    0.000000
  264.544944    0.991508    0.991508    0.991509    0.000000    0.000000    0.000000
  267.484333    0.991736    0.991736    0.991736    0.000000    0.000000    0.000000
  270.423721    0.991952    0.991952    0.991953    0.000000    0.000000    0.000000
  273.363109    0.992159    0.992159    0.992159    0.000000    0.000000    0.000000
  276.302497    0.992357    0.992357    0.992357    0.000000    0.000000    0.000000
  279.241886    0.992546    0.992546    0.992546    0.000000    0.000000    0.000000
  282.181274    0.992727    0.992727    0.992727    0.000000    0.000000    0.000000
  285.120662    0.992900    0.992900    0.992900    0.000000    0.000000    0.000000
  288.060050    0.993067    0.993067    0.993067    0.000000    0.000000    0.000000
  290.999439    0.993228    0.993228    0.993228    0.000000    0.000000    0.000000

  frequency dependent IMAGINARY DIELECTRIC FUNCTION (independent particle, no local field effects) current-current (2nd set in vasprun.xml)
     E(ev)      X         Y         Z        XY        YZ        ZX
    0.000000    0.000000    0.000000    0.000000    0.000000    0.000000    0.000000
    2.939388    0.000000    0.000000    0.000000    0.000000    0.000000    0.000000
    5.878777    0.000000    0.000000    0.000000    0.000000    0.000000    0.000000
    8.818165    0.000000    0.000000    0.000000    0.000000    0.000000    0.000000
   11.757553    0.000000    0.000000    0.000000    0.000000    0.000000    0.000000
   14.696941    0.083132    0.083131    0.083131    0.000000    0.000000    0.000000
   17.636330    0.007122    0.007122    0.007122    0.000000    0.000000    0.000000
   20.575718    0.523830    0.523829    0.523828    0.000001    0.000000    0.000000
   23.515106    1.643179    1.643180    1.643180   -0.000002   -0.000001   -0.000001
   26.454494    0.602340    0.602340    0.602339   -0.000000   -0.000000    0.000000
   29.393883    0.207025    0.207026    0.207026    0.000000    0.000000   -0.000000
   32.333271    0.048598    0.048598    0.048598   -0.000000   -0.000000   -0.000000
   35.272659    0.377625    0.377625    0.377625   -0.000000   -0.000000   -0.000000
   38.212048    0.106333    0.106333    0.106334    0.000000    0.000000    0.000000
   41.151436    0.250754    0.250754    0.250754    0.000000    0.000000    0.000000
   44.090824    0.733458    0.733459    0.733462   -0.000001   -0.000000   -0.000000
   47.030212    0.697305    0.697306    0.697306   -0.000000   -0.000000   -0.000000
   49.969601    0.000000    0.000000    0.000000    0.000000    0.000000    0.000000
   52.908989    0.117597    0.117598    0.117599   -0.000000   -0.000000   -0.000000
   55.848377    0.092095    0.092094    0.092095    0.000000    0.000000    0.000000
   58.787765    0.068454    0.068454    0.068453   -0.000000    0.000000   -0.000000
   61.727154    0.171449    0.171450    0.171450   -0.000000   -0.000000   -0.000000
   64.666542    0.141155    0.141155    0.141156    0.000000    0.000000    0.000000
   67.605930    0.004199    0.004199    0.004199   -0.000000    0.000000   -0.000000
   70.545318    0.070956    0.070956    0.070956    0.000000    0.000000    0.000000
   73.484707    0.004275    0.004275    0.004275    0.000000    0.000000    0.000000
   76.424095    0.019810    0.019810    0.019810   -0.000000    0.000000   -0.000000
   79.363483    0.023498    0.023498    0.023499   -0.000000   -0.000000   -0.000000
   82.302872    0.073392    0.073392    0.073393   -0.000000   -0.000000   -0.000000
   85.242260    0.071814    0.071814    0.071814   -0.000000    0.000000   -0.000000
   88.181648    0.005149    0.005149    0.005149    0.000000    0.000000    0.000000
   91.121036    0.054157    0.054157    0.054157   -0.000000   -0.000000   -0.000000
   94.060425    0.068243    0.068243    0.068243   -0.000000   -0.000000   -0.000000
   96.999813    0.066610    0.066610    0.066610    0.000000   -0.000000    0.000000
   99.939201    0.024632    0.024632    0.024632   -0.000000   -0.000000   -0.000000
  102.878589    0.033595    0.033595    0.033595    0.000000    0.000000    0.000000
  105.817978    0.015941    0.015941    0.015941    0.000000    0.000000    0.000000
  108.757366    0.020279    0.020279    0.020279   -0.000000   -0.000000   -0.000000
  111.696754    0.018571    0.018571    0.018571   -0.000000   -0.000000   -0.000000
  114.636143    0.012185    0.012185    0.012185   -0.000000   -0.000000   -0.000000
  117.575531    0.008752    0.008752    0.008752    0.000000    0.000000    0.000000
  120.514919    0.014157    0.014157    0.014157   -0.000000   -0.000000   -0.000000
  123.454307    0.008919    0.008919    0.008919   -0.000000   -0.000000   -0.000000
  126.393696    0.025978    0.025978    0.025978   -0.000000   -0.000000   -0.000000
  129.333084    0.002715    0.002715    0.002715   -0.000000   -0.000000   -0.000000
  132.272472    0.014228    0.014228    0.014228    0.000000    0.000000    0.000000
  135.211860    0.008694    0.008694    0.008693    0.000000    0.000000    0.000000
  138.151249    0.025029    0.025029    0.025029    0.000000   -0.000000    0.000000
  141.090637    0.006716    0.006716    0.006716   -0.000000    0.000000    0.000000
  144.030025    0.015500    0.015500    0.015500   -0.000000    0.000000   -0.000000
  146.969414    0.005548    0.005548    0.005548   -0.000000    0.000000   -0.000000
  149.908802    0.001276    0.001276    0.001276   -0.000000   -0.000000   -0.000000
  152.848190    0.014103    0.014103    0.014103   -0.000000   -0.000000   -0.000000
  155.787578    0.015387    0.015387    0.015387    0.000000   -0.000000    0.000000
  158.726967    0.002794    0.002794    0.002794    0.000000   -0.000000    0.000000
  161.666355    0.002675    0.002675    0.002675    0.000000    0.000000    0.000000
  164.605743    0.008079    0.008079    0.008079    0.000000    0.000000    0.000000
  167.545131    0.009978    0.009978    0.009978   -0.000000   -0.000000   -0.000000
  170.484520    0.006734    0.006734    0.006734    0.000000    0.000000    0.000000
  173.423908    0.008950    0.008950    0.008950   -0.000000   -0.000000   -0.000000
[...]
  249.848003    0.000000    0.000000    0.000000    0.000000    0.000000    0.000000
  252.787391    0.000000    0.000000    0.000000    0.000000    0.000000    0.000000
  255.726780    0.000000    0.000000    0.000000    0.000000    0.000000    0.000000
  258.666168    0.000000    0.000000    0.000000    0.000000    0.000000    0.000000
  261.605556    0.000000    0.000000    0.000000    0.000000    0.000000    0.000000
  264.544944    0.000000    0.000000    0.000000    0.000000    0.000000    0.000000
  267.484333    0.000000    0.000000    0.000000    0.000000    0.000000    0.000000
  270.423721    0.000000    0.000000    0.000000    0.000000    0.000000    0.000000
  273.363109    0.000000    0.000000    0.000000    0.000000    0.000000    0.000000
  276.302497    0.000000    0.000000    0.000000    0.000000    0.000000    0.000000
  279.241886    0.000000    0.000000    0.000000    0.000000    0.000000    0.000000
  282.181274    0.000000    0.000000    0.000000    0.000000    0.000000    0.000000
  285.120662    0.000000    0.000000    0.000000    0.000000    0.000000    0.000000
  288.060050    0.000000    0.000000    0.000000    0.000000    0.000000    0.000000
  290.999439    0.000000    0.000000    0.000000    0.000000    0.000000    0.000000

  frequency dependent      REAL DIELECTRIC FUNCTION (independent particle, no local field effects) current-current (2nd set in vasprun.xml)
     E(ev)        X           Y           Z          XY          YZ          ZX
    0.000000    1.337671    1.338378    1.337671    0.000000    0.000000    0.000000
    2.939388    1.344008    1.344008    1.344008    0.000000    0.000000    0.000000
    5.878777    1.364634    1.364634    1.364634    0.000000    0.000000    0.000000
    8.818165    1.412609    1.412609    1.412609    0.000000    0.000000    0.000000
   11.757553    1.613626    1.613625    1.613624    0.000000    0.000000    0.000000
   14.696941    1.676570    1.676569    1.676569    0.000000    0.000000    0.000000
   17.636330    1.410917    1.410917    1.410917    0.000000    0.000000    0.000000
   20.575718    1.053100    1.053101    1.053101   -0.000001   -0.000000   -0.000000
   23.515106    1.189651    1.189651    1.189651   -0.000000   -0.000000    0.000000
   26.454494    1.053103    1.053104    1.053104   -0.000000   -0.000000   -0.000000
   29.393883    1.420210    1.420210    1.420210   -0.000000   -0.000000   -0.000000
   32.333271    0.941820    0.941821    0.941822   -0.000001   -0.000000   -0.000001
   35.272659    1.132798    1.132798    1.132798   -0.000000   -0.000000   -0.000000
   38.212048    1.011547    1.011547    1.011548   -0.000000   -0.000000   -0.000000
   41.151436    1.149006    1.149006    1.149006    0.000000    0.000000    0.000000
   44.090824    1.070439    1.070439    1.070440    0.000000    0.000000    0.000000
   47.030212    0.848896    0.848896    0.848897    0.000000    0.000000    0.000000
   49.969601    0.858072    0.858072    0.858072    0.000000   -0.000000   -0.000000
   52.908989    0.894001    0.894001    0.894000    0.000000    0.000000    0.000000
   55.848377    0.963303    0.963303    0.963303    0.000000   -0.000000    0.000000
   58.787765    0.925964    0.925961    0.925963    0.000001   -0.000003   -0.000001
   61.727154    0.926346    0.926346    0.926346    0.000000    0.000000    0.000000
   64.666542    0.918156    0.918156    0.918155    0.000000    0.000000    0.000000
   67.605930    0.953645    0.953645    0.953644    0.000000    0.000000    0.000000
   70.545318    0.911737    0.911737    0.911737   -0.000000   -0.000000   -0.000000
   73.484707    0.908340    0.908341    0.908341   -0.000000   -0.000000   -0.000000
   76.424095    0.937975    0.937975    0.937977   -0.000000   -0.000000   -0.000000
   79.363483    0.904438    0.904438    0.904439    0.000000    0.000000   -0.000000
   82.302872    0.928029    0.928029    0.928029    0.000000    0.000000    0.000000
   85.242260    0.940670    0.940670    0.940670    0.000000    0.000000    0.000000
   88.181648    0.947484    0.947484    0.947484   -0.000000   -0.000000   -0.000000
   91.121036    0.940915    0.940915    0.940915   -0.000000    0.000000    0.000000
   94.060425    0.948467    0.948465    0.948465    0.000002    0.000001    0.000001
   96.999813    0.944281    0.944281    0.944281   -0.000000   -0.000000   -0.000000
   99.939201    0.946980    0.946980    0.946980   -0.000000   -0.000000   -0.000000
  102.878589    0.951626    0.951627    0.951626   -0.000000   -0.000000   -0.000000
  105.817978    0.965179    0.965179    0.965178   -0.000000   -0.000000   -0.000000
  108.757366    0.952301    0.952301    0.952300   -0.000000   -0.000000   -0.000000
  111.696754    0.949645    0.949645    0.949644   -0.000000   -0.000000   -0.000000
  114.636143    0.957202    0.957202    0.957202   -0.000000   -0.000000   -0.000000
  117.575531    0.958523    0.958523    0.958523   -0.000000   -0.000000   -0.000000
  120.514919    0.957870    0.957870    0.957870   -0.000000   -0.000000   -0.000000
  123.454307    0.964848    0.964848    0.964848   -0.000000   -0.000000   -0.000000
  126.393696    0.957444    0.957444    0.957444   -0.000000   -0.000000   -0.000000
  129.333084    0.965281    0.965281    0.965281   -0.000000   -0.000000   -0.000000
  132.272472    0.966297    0.966297    0.966297   -0.000000   -0.000000   -0.000000
  135.211860    0.971630    0.971630    0.971630   -0.000000   -0.000000   -0.000000
  138.151249    0.975512    0.975512    0.975512   -0.000000   -0.000000   -0.000000
  141.090637    0.967388    0.967388    0.967388   -0.000000   -0.000000   -0.000000
  144.030025    0.964891    0.964891    0.964891   -0.000000   -0.000000   -0.000000
  146.969414    0.971456    0.971456    0.971456   -0.000000   -0.000000   -0.000000
  149.908802    0.974136    0.974136    0.974137    0.000000    0.000000    0.000000
  152.848190    0.973933    0.973933    0.973933   -0.000000   -0.000000   -0.000000
  155.787578    0.978479    0.978479    0.978479   -0.000000   -0.000000   -0.000000
  158.726967    0.970252    0.970252    0.970252   -0.000000   -0.000000   -0.000000
  161.666355    0.976833    0.976833    0.976833   -0.000000   -0.000000   -0.000000
  164.605743    0.978035    0.978036    0.978035   -0.000000   -0.000000   -0.000000
  167.545131    0.976255    0.976255    0.976255   -0.000000    0.000000   -0.000000
  170.484520    0.977198    0.977198    0.977198   -0.000000   -0.000000   -0.000000
  173.423908    0.979244    0.979244    0.979244   -0.000000   -0.000000   -0.000000
[...]
  249.848003    0.990158    0.990158    0.990158    0.000000    0.000000    0.000000
  252.787391    0.990463    0.990463    0.990463    0.000000    0.000000    0.000000
  255.726780    0.990748    0.990748    0.990748    0.000000    0.000000    0.000000
  258.666168    0.991016    0.991016    0.991016    0.000000    0.000000    0.000000
  261.605556    0.991269    0.991269    0.991269    0.000000    0.000000    0.000000
  264.544944    0.991508    0.991508    0.991508    0.000000    0.000000    0.000000
  267.484333    0.991736    0.991736    0.991736    0.000000    0.000000    0.000000
  270.423721    0.991952    0.991952    0.991952    0.000000    0.000000    0.000000
  273.363109    0.992159    0.992159    0.992159    0.000000    0.000000    0.000000
  276.302497    0.992357    0.992356    0.992357    0.000000    0.000000    0.000000
  279.241886    0.992545    0.992545    0.992546    0.000000    0.000000    0.000000
  282.181274    0.992727    0.992727    0.992727    0.000000    0.000000    0.000000
  285.120662    0.992900    0.992900    0.992900    0.000000    0.000000    0.000000
  288.060050    0.993067    0.993067    0.993067    0.000000    0.000000    0.000000
  290.999439    0.993228    0.993228    0.993228    0.000000    0.000000    0.000000

 The outermost node in the dielectric function lies at epsilon=  -1.0