 vasp.5.4.4.18Apr17-6-g9f103f2a35 (build Nov 03 2018 10:20:46) complex

 executed on             LinuxIFC date 2018.12.22  09:58:01

 INCAR:
 POTCAR:    Cn-PAW, fit to 4c-PBE, JanMewes Oct18

 POTCAR:    Cn-PAW, fit to 4c-PBE, JanMewes Oct18
   VRHFIN =Cn : 10d 2s

   TITEL  = Cn-PAW, fit to 4c-PBE, JanMewes Oct18
   POMASS =    0.010; ZVAL   =   12.000    mass and valenz
   ENMAX  =  273.073; ENMIN  =  204.805 eV
   QCUT   =   -4.480; QGAM   =    8.960    optimization parameters

  Cn-PAW, fit to 4c-PBE, JanMewes Oct18 :

 POSCAR: Cn BCC
  positions in direct lattice
  velocities in cartesian coordinates
 exchange correlation table for  LEXCH =        8
   RHO(1)=    0.500       N(1)  =     2000
   RHO(2)=  100.500       N(2)  =     4000

 ion  position               nearest neighbor table
   1  0.000  0.000  0.000-

IMPORTANT INFORMATION: All symmetrisations will be switched off!
NOSYMM: (Re-)initialisation of all symmetry stuff for point group C_1.

 KPOINTS: k-points

Automatic generation of k-mesh.
Space group operators:
 irot       det(A)        alpha          n_x          n_y          n_z        tau_x        tau_y        tau_z
    1     1.000000     0.000001     1.000000     0.000000     0.000000     0.000000     0.000000     0.000000

 Subroutine IBZKPT returns following result:

 Found    216 irreducible k-points:

 Following reciprocal coordinates:
            Coordinates               Weight
  0.000000  0.000000  0.000000      1.000000
  0.166667  0.000000  0.000000      1.000000
  0.333333  0.000000 -0.000000      1.000000
  0.500000  0.000000  0.000000      1.000000
 -0.333333 -0.000000  0.000000      1.000000
 -0.166667  0.000000  0.000000      1.000000
  0.000000  0.166667  0.000000      1.000000
  0.166667  0.166667  0.000000      1.000000
  0.333333  0.166667  0.000000      1.000000
  0.500000  0.166667  0.000000      1.000000
 -0.333333  0.166667 -0.000000      1.000000
 -0.166667  0.166667 -0.000000      1.000000
  0.000000  0.333333  0.000000      1.000000
  0.166667  0.333333  0.000000      1.000000
  0.333333  0.333333  0.000000      1.000000
  0.500000  0.333333  0.000000      1.000000
 -0.333333  0.333333  0.000000      1.000000
 -0.166667  0.333333  0.000000      1.000000
  0.000000  0.500000 -0.000000      1.000000
  0.166667  0.500000  0.000000      1.000000
  0.333333  0.500000  0.000000      1.000000
  0.500000  0.500000 -0.000000      1.000000
 -0.333333  0.500000 -0.000000      1.000000
 -0.166667  0.500000  0.000000      1.000000
  0.000000 -0.333333 -0.000000      1.000000
  0.166667 -0.333333 -0.000000      1.000000
  0.333333 -0.333333 -0.000000      1.000000
  0.500000 -0.333333 -0.000000      1.000000
 -0.333333 -0.333333  0.000000      1.000000
 -0.166667 -0.333333 -0.000000      1.000000
  0.000000 -0.166667 -0.000000      1.000000
  0.166667 -0.166667  0.000000      1.000000
  0.333333 -0.166667  0.000000      1.000000
  0.500000 -0.166667  0.000000      1.000000
 -0.333333 -0.166667 -0.000000      1.000000
 -0.166667 -0.166667 -0.000000      1.000000
  0.000000  0.000000  0.166667      1.000000
  0.166667  0.000000  0.166667      1.000000
  0.333333  0.000000  0.166667      1.000000
  0.500000  0.000000  0.166667      1.000000
 -0.333333 -0.000000  0.166667      1.000000
 -0.166667  0.000000  0.166667      1.000000
  0.000000  0.166667  0.166667      1.000000
  0.166667  0.166667  0.166667      1.000000
  0.333333  0.166667  0.166667      1.000000
  0.500000  0.166667  0.166667      1.000000
 -0.333333  0.166667  0.166667      1.000000
 -0.166667  0.166667  0.166667      1.000000
  0.000000  0.333333  0.166667      1.000000
  0.166667  0.333333  0.166667      1.000000
  0.333333  0.333333  0.166667      1.000000
  0.500000  0.333333  0.166667      1.000000
 -0.333333  0.333333  0.166667      1.000000
 -0.166667  0.333333  0.166667      1.000000
  0.000000  0.500000  0.166667      1.000000
  0.166667  0.500000  0.166667      1.000000
  0.333333  0.500000  0.166667      1.000000
  0.500000  0.500000  0.166667      1.000000
 -0.333333  0.500000  0.166667      1.000000
 -0.166667  0.500000  0.166667      1.000000
[...]
  0.500000  0.500000 -0.166667      1.000000
 -0.333333  0.500000 -0.166667      1.000000
 -0.166667  0.500000 -0.166667      1.000000
  0.000000 -0.333333 -0.166667      1.000000
  0.166667 -0.333333 -0.166667      1.000000
  0.333333 -0.333333 -0.166667      1.000000
  0.500000 -0.333333 -0.166667      1.000000
 -0.333333 -0.333333 -0.166667      1.000000
 -0.166667 -0.333333 -0.166667      1.000000
  0.000000 -0.166667 -0.166667      1.000000
  0.166667 -0.166667 -0.166667      1.000000
  0.333333 -0.166667 -0.166667      1.000000
  0.500000 -0.166667 -0.166667      1.000000
 -0.333333 -0.166667 -0.166667      1.000000
 -0.166667 -0.166667 -0.166667      1.000000

 Following cartesian coordinates:
            Coordinates               Weight
  0.000000  0.000000  0.000000      1.000000
  0.051407  0.018175  0.031479      1.000000
  0.102814  0.036350  0.062959      1.000000
  0.154221  0.054525  0.094438      1.000000
 -0.102814 -0.036350 -0.062959      1.000000
 -0.051407 -0.018175 -0.031479      1.000000
  0.000000  0.054525  0.031479      1.000000
  0.051407  0.072700  0.062959      1.000000
  0.102814  0.090875  0.094438      1.000000
  0.154221  0.109050  0.125918      1.000000
 -0.102814  0.018175 -0.031479      1.000000
 -0.051407  0.036350  0.000000      1.000000
  0.000000  0.109050  0.062959      1.000000
  0.051407  0.127225  0.094438      1.000000
  0.102814  0.145400  0.125918      1.000000
  0.154221  0.163575  0.157397      1.000000
 -0.102814  0.072701  0.000000      1.000000
 -0.051407  0.090876  0.031479      1.000000
  0.000000  0.163576  0.094438      1.000000
  0.051407  0.181751  0.125918      1.000000
  0.102814  0.199926  0.157397      1.000000
  0.154221  0.218100  0.188877      1.000000
 -0.102814  0.127226  0.031479      1.000000
 -0.051407  0.145401  0.062959      1.000000
  0.000000 -0.109050 -0.062959      1.000000
  0.051407 -0.090876 -0.031479      1.000000
  0.102814 -0.072701 -0.000000      1.000000
  0.154221 -0.054526  0.031479      1.000000
 -0.102814 -0.145400 -0.125918      1.000000
 -0.051407 -0.127225 -0.094438      1.000000
  0.000000 -0.054525 -0.031479      1.000000
  0.051407 -0.036350 -0.000000      1.000000
  0.102814 -0.018175  0.031479      1.000000
  0.154221 -0.000001  0.062959      1.000000
 -0.102814 -0.090875 -0.094438      1.000000
 -0.051407 -0.072700 -0.062959      1.000000
  0.000000  0.000000  0.062960      1.000000
  0.051407  0.018175  0.094439      1.000000
  0.102814  0.036350  0.125919      1.000000
  0.154221  0.054525  0.157398      1.000000
 -0.102814 -0.036350  0.000001      1.000000
 -0.051407 -0.018175  0.031481      1.000000
  0.000000  0.054525  0.094439      1.000000
  0.051407  0.072700  0.125919      1.000000
  0.102814  0.090875  0.157398      1.000000
  0.154221  0.109050  0.188878      1.000000
 -0.102814  0.018175  0.031481      1.000000
 -0.051407  0.036350  0.062960      1.000000
  0.000000  0.109050  0.125919      1.000000
  0.051407  0.127225  0.157398      1.000000
  0.102814  0.145400  0.188878      1.000000
  0.154221  0.163575  0.220357      1.000000
 -0.102814  0.072701  0.062960      1.000000
 -0.051407  0.090876  0.094439      1.000000
  0.000000  0.163576  0.157398      1.000000
  0.051407  0.181751  0.188878      1.000000
  0.102814  0.199926  0.220357      1.000000
  0.154221  0.218100  0.251837      1.000000
 -0.102814  0.127226  0.094439      1.000000
 -0.051407  0.145401  0.125919      1.000000
[...]
  0.154221  0.218100  0.125917      1.000000
 -0.102814  0.127226 -0.031481      1.000000
 -0.051407  0.145401 -0.000001      1.000000
  0.000000 -0.109050 -0.125919      1.000000
  0.051407 -0.090876 -0.094439      1.000000
  0.102814 -0.072701 -0.062960      1.000000
  0.154221 -0.054526 -0.031481      1.000000
 -0.102814 -0.145400 -0.188878      1.000000
 -0.051407 -0.127225 -0.157398      1.000000
  0.000000 -0.054525 -0.094439      1.000000
  0.051407 -0.036350 -0.062960      1.000000
  0.102814 -0.018175 -0.031481      1.000000
  0.154221 -0.000001 -0.000001      1.000000
 -0.102814 -0.090875 -0.157398      1.000000
 -0.051407 -0.072700 -0.125919      1.000000

 SYSTEM =  Og_FCC
 POSCAR =  Cn BCC

 Startparameter for this run:
   NWRITE =      2    write-flag & timer
   PREC   = accura    normal or accurate (medium, high low for compatibility)
   ISTART =      1    job   : 0-new  1-cont  2-samecut
   ICHARG =      0    charge: 1-file 2-atom 10-const
   ISPIN  =      1    spin polarized calculation?
   LNONCOLLINEAR =      T non collinear calculations
   LSORBIT =      T    spin-orbit coupling
   INIWAV =      1    electr: 0-lowe 1-rand  2-diag
   LASPH  =      F    aspherical Exc in radial PAW
   METAGGA=      F    non-selfconsistent MetaGGA calc.

 Electronic Relaxation 1
   ENCUT  =  300.0 eV  22.05 Ry    4.70 a.u.   4.58  4.58  4.58*2*pi/ulx,y,z
   ENINI  =  300.0     initial cutoff
   ENAUG  =  361.0 eV  augmentation charge cutoff
   NELM   =     50;   NELMIN=  2; NELMDL= -5     # of ELM steps
   EDIFF  = 0.1E-07   stopping-criterion for ELM
   LREAL  =      F    real-space projection
   NLSPLINE    = F    spline interpolate recip. space projectors
   LCOMPAT=      F    compatible to vasp.4.4
   GGA_COMPAT  = F    GGA compatible to vasp.4.4-vasp.4.6
   LMAXPAW     = -100 max onsite density
   LMAXMIX     =    2 max onsite mixed and CHGCAR
   VOSKOWN=      0    Vosko Wilk Nusair interpolation
   ROPT   =    0.00000
 Ionic relaxation
   EDIFFG = 0.1E-04   stopping-criterion for IOM
   NSW    =      1    number of steps for IOM
   NBLOCK =      1;   KBLOCK =      1    inner block; outer block
   IBRION =     -1    ionic relax: 0-MD 1-quasi-New 2-CG
   NFREE  =      5    steps in history (QN), initial steepest desc. (CG)
   ISIF   =      3    stress and relaxation
   IWAVPR =     10    prediction:  0-non 1-charg 2-wave 3-comb
   ISYM   =      0    0-nonsym 1-usesym 2-fastsym
   LCORR  =      T    Harris-Foulkes like correction to forces

   POTIM  = 0.1000    time-step for ionic-motion
   TEIN   =    0.0    initial temperature
   TEBEG  =    0.0;   TEEND  =   0.0 temperature during run
   SMASS  =  -3.00    Nose mass-parameter (am)
   estimated Nose-frequenzy (Omega)   =  0.10E-29 period in steps =****** mass=  -0.240E-27a.u.
   SCALEE = 1.0000    scale energy and forces
   NPACO  =    256;   APACO  = 16.0  distance and # of slots for P.C.
   PSTRESS=    0.0 pullay stress

  Mass of Ions in am
   POMASS =   0.01
  Ionic Valenz
   ZVAL   =  12.00
  Atomic Wigner-Seitz radii
  virtual crystal weights
   VCA    =   1.00
   NELECT =      12.0000    total number of electrons
   NUPDOWN=      -1.0000    fix difference up-down

 DOS related values:
   EMIN   =  10.00;   EMAX   =-10.00  energy-range for DOS
   EFERMI =   0.00
   ISMEAR =     0;   SIGMA  =   0.00  broadening in eV -4-tet -1-fermi 0-gaus

 Electronic relaxation 2 (details)
   IALGO  =     90    algorithm
   LDIAG  =      T    sub-space diagonalisation (order eigenvalues)
   LSUBROT=      F    optimize rotation matrix (better conditioning)
[...]
   97.704504    0.954197    0.954194    0.954183   -0.000004   -0.000010   -0.000007
   99.698473    0.974841    0.974841    0.974841    0.000000    0.000000    0.000000
  101.692443    0.998615    0.998616    0.998620    0.000001    0.000003    0.000002
  103.686412    1.028544    1.028544    1.028541   -0.000001   -0.000002   -0.000002
  105.680382    0.993187    0.993155    0.993028   -0.000045   -0.000110   -0.000078
  107.674351    1.070855    1.070855    1.070855    0.000000    0.000000    0.000000
  109.668321    0.967484    0.967481    0.967469   -0.000004   -0.000010   -0.000007
  111.662290    0.966587    0.966585    0.966581   -0.000002   -0.000004   -0.000003
  113.656259    0.980633    0.980632    0.980626   -0.000002   -0.000005   -0.000004
  115.650229    1.100500    1.100495    1.100477   -0.000006   -0.000016   -0.000011
  117.644198    1.458856    1.458809    1.458621   -0.000066   -0.000162   -0.000115
[...]
  169.487404    0.937214    0.937214    0.937215    0.000000    0.000000    0.000000
  171.481374    0.939244    0.939244    0.939244    0.000000    0.000000    0.000000
  173.475343    0.941151    0.941152    0.941152    0.000000    0.000000    0.000000
  175.469313    0.942949    0.942949    0.942950    0.000000    0.000000    0.000000
  177.463282    0.944648    0.944648    0.944649    0.000000    0.000000    0.000000
  179.457252    0.946257    0.946257    0.946257    0.000000    0.000000    0.000000
  181.451221    0.947784    0.947784    0.947784    0.000000    0.000000    0.000000
  183.445191    0.949235    0.949235    0.949235    0.000000    0.000000    0.000000
  185.439160    0.950616    0.950616    0.950616    0.000000    0.000000    0.000000
  187.433130    0.951933    0.951933    0.951933    0.000000    0.000000    0.000000
  189.427099    0.953190    0.953190    0.953190    0.000000    0.000000    0.000000
  191.421069    0.954391    0.954391    0.954391    0.000000    0.000000    0.000000
  193.415038    0.955540    0.955540    0.955541    0.000000    0.000000    0.000000
  195.409007    0.956641    0.956641    0.956642    0.000000    0.000000    0.000000
  197.402977    0.957697    0.957697    0.957697    0.000000    0.000000    0.000000

  frequency dependent IMAGINARY DIELECTRIC FUNCTION (independent particle, no local field effects) current-current (2nd set in vasprun.xml)
     E(ev)      X         Y         Z        XY        YZ        ZX
    0.000000    0.000000    0.000000    0.000000    0.000000    0.000000    0.000000
    1.993969   62.992948   62.991824   62.987314   -0.001594   -0.003904   -0.002761
    3.987939   19.316983   19.317038   19.317263    0.000079    0.000193    0.000137
    5.981908    1.436909    1.436908    1.436903   -0.000002   -0.000004   -0.000003
    7.975878    4.307987    4.307989    4.307999    0.000003    0.000008    0.000006
    9.969847    0.554725    0.554734    0.554770    0.000013    0.000031    0.000022
   11.963817    2.796096    2.796094    2.796089   -0.000002   -0.000005   -0.000003
   13.957786    1.396076    1.396346    1.397427    0.000382    0.000936    0.000662
   15.951756    1.576010    1.576020    1.576057    0.000013    0.000033    0.000023
   17.945725    2.299447    2.299457    2.299498    0.000015    0.000036    0.000025
   19.939695    0.665839    0.665851    0.665899    0.000017    0.000042    0.000029
   21.933664    0.455408    0.455400    0.455366   -0.000012   -0.000029   -0.000021
   23.927634    1.123657    1.123657    1.123656   -0.000000   -0.000001   -0.000001
   25.921603    1.905093    1.905099    1.905120    0.000007    0.000018    0.000013
   27.915572    0.751994    0.752046    0.752255    0.000074    0.000181    0.000128
   29.909542    0.753806    0.753801    0.753782   -0.000007   -0.000017   -0.000012
   31.903511    1.169037    1.169024    1.168971   -0.000019   -0.000046   -0.000032
   33.897481    1.102564    1.102565    1.102567    0.000001    0.000002    0.000001
   35.891450    0.502913    0.502910    0.502901   -0.000003   -0.000008   -0.000006
   37.885420    0.549354    0.549358    0.549372    0.000005    0.000012    0.000009
   39.879389    0.365599    0.365562    0.365418   -0.000051   -0.000125   -0.000089
   41.873359    0.234889    0.234889    0.234891    0.000001    0.000002    0.000001
   43.867328    0.162163    0.162162    0.162159   -0.000001   -0.000003   -0.000002
   45.861298    0.280918    0.280931    0.280983    0.000019    0.000045    0.000032
   47.855267    0.341445    0.341439    0.341417   -0.000008   -0.000020   -0.000014
   49.849237    0.128240    0.128239    0.128234   -0.000002   -0.000004   -0.000003
   51.843206    0.128258    0.128256    0.128249   -0.000002   -0.000006   -0.000004
   53.837176    0.234457    0.234457    0.234461    0.000001    0.000003    0.000002
   55.831145    0.132430    0.132431    0.132434    0.000001    0.000003    0.000002
   57.825114    0.184671    0.184673    0.184680    0.000003    0.000006    0.000005
   59.819084    0.117307    0.117306    0.117300   -0.000002   -0.000005   -0.000003
   61.813053    0.067412    0.067412    0.067412    0.000000    0.000000    0.000000
   63.807023    0.072283    0.072282    0.072278   -0.000001   -0.000003   -0.000002
   65.800992    0.065401    0.065400    0.065397   -0.000001   -0.000003   -0.000002
   67.794962    0.047543    0.047542    0.047536   -0.000002   -0.000005   -0.000004
   69.788931    0.030283    0.030283    0.030283   -0.000000   -0.000000   -0.000000
   71.782901    0.036060    0.036061    0.036063    0.000001    0.000002    0.000001
   73.776870    0.029735    0.029719    0.029655   -0.000023   -0.000055   -0.000039
   75.770840    0.046591    0.046592    0.046598    0.000002    0.000005    0.000004
   77.764809    0.033660    0.033653    0.033622   -0.000011   -0.000027   -0.000019
   79.758779    0.028394    0.028394    0.028392   -0.000001   -0.000001   -0.000001
   81.752748    0.014298    0.014298    0.014299    0.000000    0.000001    0.000001
   83.746717    0.018460    0.018460    0.018462    0.000001    0.000001    0.000001
   85.740687    0.015686    0.015686    0.015685   -0.000000   -0.000000   -0.000000
   87.734656    0.022628    0.022629    0.022632    0.000001    0.000003    0.000002
   89.728626    0.013188    0.013188    0.013189    0.000000    0.000001    0.000001
   91.722595    0.025258    0.025258    0.025260    0.000000    0.000001    0.000001
   93.716565    0.018915    0.018908    0.018877   -0.000011   -0.000027   -0.000019
   95.710534    0.017291    0.017291    0.017290   -0.000000   -0.000001   -0.000001
   97.704504    0.020354    0.020338    0.020275   -0.000022   -0.000054   -0.000038
   99.698473    0.030571    0.030570    0.030566   -0.000001   -0.000003   -0.000002
  101.692443    0.024380    0.024406    0.024509    0.000036    0.000089    0.000063
  103.686412    0.051953    0.051955    0.051960    0.000002    0.000005    0.000004
  105.680382    0.036059    0.036061    0.036072    0.000004    0.000009    0.000006
  107.674351    0.053883    0.053880    0.053868   -0.000004   -0.000010   -0.000007
  109.668321    0.114158    0.114161    0.114170    0.000003    0.000008    0.000005
  111.662290    0.018224    0.018220    0.018206   -0.000005   -0.000012   -0.000008
  113.656259    0.053267    0.053267    0.053263   -0.000001   -0.000003   -0.000002
  115.650229    0.036284    0.036277    0.036252   -0.000009   -0.000022   -0.000016
  117.644198    0.125418    0.125415    0.125402   -0.000005   -0.000011   -0.000008
[...]
  169.487404    0.000000    0.000000    0.000000    0.000000    0.000000    0.000000
  171.481374    0.000000    0.000000    0.000000    0.000000    0.000000    0.000000
  173.475343    0.000000    0.000000    0.000000    0.000000    0.000000    0.000000
  175.469313    0.000000    0.000000    0.000000    0.000000    0.000000    0.000000
  177.463282    0.000000    0.000000    0.000000    0.000000    0.000000    0.000000
  179.457252    0.000000    0.000000    0.000000    0.000000    0.000000    0.000000
  181.451221    0.000000    0.000000    0.000000    0.000000    0.000000    0.000000
  183.445191    0.000000    0.000000    0.000000    0.000000    0.000000    0.000000
  185.439160    0.000000    0.000000    0.000000    0.000000    0.000000    0.000000
  187.433130    0.000000    0.000000    0.000000    0.000000    0.000000    0.000000
  189.427099    0.000000    0.000000    0.000000    0.000000    0.000000    0.000000
  191.421069    0.000000    0.000000    0.000000    0.000000    0.000000    0.000000
  193.415038    0.000000    0.000000    0.000000    0.000000    0.000000    0.000000
  195.409007    0.000000    0.000000    0.000000    0.000000    0.000000    0.000000
  197.402977    0.000000    0.000000    0.000000    0.000000    0.000000    0.000000

  frequency dependent      REAL DIELECTRIC FUNCTION (independent particle, no local field effects) current-current (2nd set in vasprun.xml)
     E(ev)        X           Y           Z          XY          YZ          ZX
    0.000000  228.099891  228.096821  228.081470   -0.005005   -0.012251   -0.008664
    1.993969    2.018431    2.018585    2.019076    0.000184    0.000450    0.000319
    3.987939  -11.687335  -11.687151  -11.686414    0.000261    0.000640    0.000452
    5.981908   -0.802401   -0.802415   -0.802483   -0.000023   -0.000056   -0.000040
    7.975878   -0.421884   -0.422324   -0.424085   -0.000622   -0.001525   -0.001078
    9.969847   -1.393037   -1.393121   -1.393460   -0.000119   -0.000293   -0.000207
   11.963817    1.128389    1.128401    1.128445    0.000016    0.000039    0.000027
   13.957786    1.428668    1.428748    1.429068    0.000113    0.000277    0.000196
   15.951756    0.198330    0.198331    0.198335    0.000001    0.000003    0.000002
   17.945725    0.650892    0.650904    0.650952    0.000017    0.000041    0.000029
   19.939695    1.206303    1.206321    1.206393    0.000026    0.000063    0.000044
   21.933664    0.279687    0.279688    0.279691    0.000001    0.000003    0.000002
   23.927634    0.086426    0.086428    0.086432    0.000002    0.000004    0.000003
   25.921603    0.575267    0.575282    0.575346    0.000022    0.000055    0.000039
   27.915572    0.736288    0.736309    0.736394    0.000030    0.000073    0.000052
   29.909542    0.362751    0.362756    0.362777    0.000008    0.000018    0.000013
   31.903511    0.471568    0.471578    0.471618    0.000014    0.000034    0.000024
   33.897481    0.029784    0.029803    0.029879    0.000027    0.000066    0.000047
   35.891450    0.264168    0.264169    0.264172    0.000001    0.000003    0.000002
   37.885420    0.379502    0.379502    0.379501   -0.000000   -0.000001   -0.000001
   39.879389    0.356959    0.356952    0.356926   -0.000009   -0.000023   -0.000016
   41.873359    0.389080    0.389079    0.389074   -0.000002   -0.000004   -0.000003
   43.867328    0.391376    0.391376    0.391379    0.000001    0.000002    0.000001
   45.861298    0.489465    0.489466    0.489468    0.000001    0.000002    0.000001
   47.855267    0.445913    0.445914    0.445917    0.000001    0.000003    0.000002
   49.849237    0.503374    0.503376    0.503382    0.000002    0.000005    0.000004
   51.843206    0.531623    0.531623    0.531623   -0.000000   -0.000000   -0.000000
   53.837176    0.651842    0.651839    0.651827   -0.000004   -0.000011   -0.000008
   55.831145    0.540055    0.540052    0.540044   -0.000003   -0.000008   -0.000005
   57.825114    0.643419    0.643423    0.643438    0.000005    0.000013    0.000009
   59.819084    0.658024    0.658025    0.658027    0.000001    0.000002    0.000002
   61.813053    0.713338    0.713338    0.713339    0.000000    0.000001    0.000001
   63.807023    0.730315    0.730315    0.730314   -0.000000   -0.000000   -0.000000
   65.800992    0.749229    0.749229    0.749228   -0.000000   -0.000001   -0.000000
   67.794962    0.741763    0.741762    0.741757   -0.000002   -0.000005   -0.000003
   69.788931    0.753646    0.753646    0.753649    0.000001    0.000002    0.000002
   71.782901    0.787796    0.787796    0.787799    0.000001    0.000002    0.000002
   73.776870    0.798868    0.798864    0.798849   -0.000005   -0.000013   -0.000010
   75.770840    0.819683    0.819684    0.819688    0.000002    0.000004    0.000003
   77.764809    0.835523    0.835524    0.835528    0.000002    0.000004    0.000003
   79.758779    0.837978    0.837981    0.837990    0.000003    0.000008    0.000006
   81.752748    0.860463    0.860464    0.860466    0.000001    0.000002    0.000001
   83.746717    0.877308    0.877308    0.877310    0.000001    0.000001    0.000001
   85.740687    0.877263    0.877263    0.877264    0.000000    0.000001    0.000001
   87.734656    0.900920    0.900920    0.900921    0.000000    0.000000    0.000000
   89.728626    0.911455    0.911456    0.911460    0.000001    0.000003    0.000002
   91.722595    0.925541    0.925540    0.925540   -0.000000   -0.000000   -0.000000
   93.716565    0.926555    0.926557    0.926565    0.000003    0.000007    0.000005
   95.710534    0.944241    0.944241    0.944241    0.000000    0.000000    0.000000
   97.704504    0.956088    0.956085    0.956074   -0.000004   -0.000010   -0.000007
   99.698473    0.976639    0.976639    0.976639   -0.000000   -0.000000   -0.000000
  101.692443    1.000341    1.000342    1.000346    0.000001    0.000003    0.000002
  103.686412    1.030185    1.030184    1.030181   -0.000001   -0.000003   -0.000002
  105.680382    0.994707    0.994675    0.994549   -0.000045   -0.000109   -0.000077
  107.674351    1.072296    1.072296    1.072296    0.000000    0.000000    0.000000
  109.668321    0.968789    0.968786    0.968774   -0.000004   -0.000010   -0.000007
  111.662290    0.968007    0.968005    0.968001   -0.000002   -0.000004   -0.000003
  113.656259    0.981980    0.981979    0.981972   -0.000002   -0.000005   -0.000004
  115.650229    1.101813    1.101808    1.101789   -0.000007   -0.000016   -0.000012
  117.644198    1.460002    1.459955    1.459765   -0.000067   -0.000164   -0.000116
[...]
  169.487404    0.937854    0.937854    0.937855    0.000000    0.000000    0.000000
  171.481374    0.939869    0.939869    0.939870    0.000000    0.000000    0.000000
  173.475343    0.941762    0.941763    0.941763    0.000000    0.000000    0.000000
  175.469313    0.943547    0.943547    0.943547    0.000000    0.000000    0.000000
  177.463282    0.945232    0.945232    0.945232    0.000000    0.000000    0.000000
  179.457252    0.946828    0.946828    0.946828    0.000000    0.000000    0.000000
  181.451221    0.948342    0.948342    0.948342    0.000000    0.000000    0.000000
  183.445191    0.949781    0.949781    0.949781    0.000000    0.000000    0.000000
  185.439160    0.951151    0.951151    0.951151    0.000000    0.000000    0.000000
  187.433130    0.952456    0.952456    0.952456    0.000000    0.000000    0.000000
  189.427099    0.953702    0.953702    0.953702    0.000000    0.000000    0.000000
  191.421069    0.954893    0.954893    0.954893    0.000000    0.000000    0.000000
  193.415038    0.956032    0.956032    0.956032    0.000000    0.000000    0.000000
  195.409007    0.957123    0.957123    0.957123    0.000000    0.000000    0.000000
  197.402977    0.958169    0.958169    0.958169    0.000000    0.000000    0.000000

 The outermost node in the dielectric function lies at epsilon=  34.5

 Spin-Orbit-Coupling matrix elements

 Ion:    1  E_soc:     -2.7373696
 l=   1
     0.0000000    -0.1310062    -0.1310072
    -0.1310062     0.0000000    -0.1310064
    -0.1310072    -0.1310064     0.0000000
 l=   2
     0.0000000    -0.0642159     0.0000000    -0.0628354    -0.2610061
    -0.0642159     0.0000000    -0.1967895    -0.0642159    -0.0655966
     0.0000000    -0.1967895     0.0000000    -0.1947189     0.0000000
    -0.0628354    -0.0642159    -0.1947189     0.0000000    -0.0662868
    -0.2610061    -0.0655966     0.0000000    -0.0662868     0.0000000
 l=   3
     0.0000000     0.0000000     0.0000000     0.0000000     0.0000000     0.0000000     0.0000000
     0.0000000     0.0000000     0.0000000     0.0000000     0.0000000     0.0000000     0.0000000
     0.0000000     0.0000000     0.0000000     0.0000000     0.0000000     0.0000000     0.0000000
     0.0000000     0.0000000     0.0000000     0.0000000     0.0000000     0.0000000     0.0000000
     0.0000000     0.0000000     0.0000000     0.0000000     0.0000000     0.0000000     0.0000000
     0.0000000     0.0000000     0.0000000     0.0000000     0.0000000     0.0000000     0.0000000
     0.0000000     0.0000000     0.0000000     0.0000000     0.0000000     0.0000000     0.0000000