 vasp.5.4.4.18Apr17-6-g9f103f2a35 (build Jul 09 2018 16:27:08) complex

 executed on             LinuxIFC date 2018.11.23  02:59:18

 INCAR:
 POTCAR:    PAW Og, JanMewes Oct 18

 POTCAR:    PAW Og, JanMewes Oct 18
   VRHFIN =Og : 10d 2s 6p, PE

   TITEL  = PAW Og, JanMewes Oct 18
   POMASS =    0.010; ZVAL   =   18.000    mass and valenz
   ENMAX  =  339.336; ENMIN  =  254.502 eV
   QCUT   =   -4.994; QGAM   =    9.988    optimization parameters

  PAW Og, JanMewes Oct 18               :

 POSCAR: Og_FCC
  positions in direct lattice
  velocities in cartesian coordinates
 exchange correlation table for  LEXCH =       14
   RHO(1)=    0.500       N(1)  =     2000
   RHO(2)=  100.500       N(2)  =     4000

 ion  position               nearest neighbor table
   1  0.000  0.000  0.000-

  LATTYP: Found a face centered cubic cell.
 ALAT       =     6.3497831056

  Lattice vectors:

 A1 = (   4.4899746930,   0.0000000000,   0.0000000000)
 A2 = (   2.2449873465,   3.8884321464,  -0.0000000000)
 A3 = (   2.2449873465,   1.2961440488,   3.6660489854)

Analysis of symmetry for initial positions (statically):
 Subroutine PRICEL returns:
 Original cell was already a primitive cell.

 Routine SETGRP: Setting up the symmetry group for a
 face centered cubic supercell.

 Subroutine GETGRP returns: Found 48 space group operations
 (whereof 48 operations were pure point group operations)
 out of a pool of 48 trial point group operations.

The static configuration has the point symmetry O_h .

Analysis of symmetry for dynamics (positions and initial velocities):
 Subroutine PRICEL returns:
 Original cell was already a primitive cell.

 Routine SETGRP: Setting up the symmetry group for a
 face centered cubic supercell.

 Subroutine GETGRP returns: Found 48 space group operations
 (whereof 48 operations were pure point group operations)
 out of a pool of 48 trial point group operations.

The dynamic configuration has the point symmetry O_h .

 Subroutine INISYM returns: Found 48 space group operations
 (whereof 48 operations are pure point group operations),
 and found     1 'primitive' translations

Automatic generation of k-mesh.
 generate k-points for:    9    9    9
Space group operators:
 irot       det(A)        alpha          n_x          n_y          n_z        tau_x        tau_y        tau_z
    1     1.000000     0.000000     1.000000     0.000000     0.000000     0.000000     0.000000     0.000000
    2    -1.000000     0.000000     1.000000     0.000000     0.000000     0.000000     0.000000     0.000000
    3     1.000000   120.000000    -0.816497    -0.471405    -0.333333     0.000000     0.000000     0.000000
    4    -1.000000   120.000000    -0.816497    -0.471405    -0.333333     0.000000     0.000000     0.000000
    5     1.000000   120.000000     0.816497     0.471405     0.333333     0.000000     0.000000     0.000000
    6    -1.000000   120.000000     0.816497     0.471405     0.333333     0.000000     0.000000     0.000000
    7     1.000000    90.000000    -0.707107    -0.408248     0.577350     0.000000     0.000000     0.000000
    8    -1.000000    90.000000    -0.707107    -0.408248     0.577350     0.000000     0.000000     0.000000
    9     1.000000   180.000000     1.000000     0.000000     0.000000     0.000000     0.000000     0.000000
   10    -1.000000   180.000000     1.000000     0.000000     0.000000     0.000000     0.000000     0.000000
   11     1.000000    90.000000     0.707107    -0.408248     0.577350     0.000000     0.000000     0.000000
   12    -1.000000    90.000000     0.707107    -0.408248     0.577350     0.000000     0.000000     0.000000
   13     1.000000   180.000000     0.707107     0.408248    -0.577350     0.000000     0.000000     0.000000
   14    -1.000000   180.000000     0.707107     0.408248    -0.577350     0.000000     0.000000     0.000000
   15     1.000000   120.000000     0.816497    -0.471405    -0.333333     0.000000     0.000000     0.000000
   16    -1.000000   120.000000     0.816497    -0.471405    -0.333333     0.000000     0.000000     0.000000
   17     1.000000   120.000000     0.000000    -0.942809     0.333333     0.000000     0.000000     0.000000
   18    -1.000000   120.000000     0.000000    -0.942809     0.333333     0.000000     0.000000     0.000000
   19     1.000000    90.000000     0.707107     0.408248    -0.577350     0.000000     0.000000     0.000000
   20    -1.000000    90.000000     0.707107     0.408248    -0.577350     0.000000     0.000000     0.000000
   21     1.000000    90.000000    -0.000000    -0.816497    -0.577350     0.000000     0.000000     0.000000
   22    -1.000000    90.000000    -0.000000    -0.816497    -0.577350     0.000000     0.000000     0.000000
   23     1.000000   180.000000     0.500000     0.866025     0.000000     0.000000     0.000000     0.000000
   24    -1.000000   180.000000     0.500000     0.866025     0.000000     0.000000     0.000000     0.000000
   25     1.000000   120.000000     0.000000     0.942809    -0.333333     0.000000     0.000000     0.000000
   26    -1.000000   120.000000     0.000000     0.942809    -0.333333     0.000000     0.000000     0.000000
   27     1.000000   120.000000    -0.000000     0.000000    -1.000000     0.000000     0.000000     0.000000
   28    -1.000000   120.000000    -0.000000     0.000000    -1.000000     0.000000     0.000000     0.000000
   29     1.000000   180.000000     0.000000    -0.816497    -0.577350     0.000000     0.000000     0.000000
   30    -1.000000   180.000000     0.000000    -0.816497    -0.577350     0.000000     0.000000     0.000000
   31     1.000000    90.000000    -0.707107     0.408248    -0.577350     0.000000     0.000000     0.000000
   32    -1.000000    90.000000    -0.707107     0.408248    -0.577350     0.000000     0.000000     0.000000
   33     1.000000   180.000000     0.500000     0.288675     0.816497     0.000000     0.000000     0.000000
   34    -1.000000   180.000000     0.500000     0.288675     0.816497     0.000000     0.000000     0.000000
   35     1.000000    90.000000    -0.000000     0.816497     0.577350     0.000000     0.000000     0.000000
   36    -1.000000    90.000000    -0.000000     0.816497     0.577350     0.000000     0.000000     0.000000
   37     1.000000   120.000000    -0.816497     0.471405     0.333333     0.000000     0.000000     0.000000
   38    -1.000000   120.000000    -0.816497     0.471405     0.333333     0.000000     0.000000     0.000000
   39     1.000000   180.000000    -0.707107     0.408248    -0.577350     0.000000     0.000000     0.000000
   40    -1.000000   180.000000    -0.707107     0.408248    -0.577350     0.000000     0.000000     0.000000
   41     1.000000   120.000000    -0.000000    -0.000000     1.000000     0.000000     0.000000     0.000000
   42    -1.000000   120.000000    -0.000000    -0.000000     1.000000     0.000000     0.000000     0.000000
   43     1.000000   180.000000    -0.000000    -0.577350     0.816497     0.000000     0.000000     0.000000
   44    -1.000000   180.000000    -0.000000    -0.577350     0.816497     0.000000     0.000000     0.000000
   45     1.000000   180.000000    -0.500000     0.866025     0.000000     0.000000     0.000000     0.000000
   46    -1.000000   180.000000    -0.500000     0.866025     0.000000     0.000000     0.000000     0.000000
   47     1.000000   180.000000    -0.500000     0.288675     0.816497     0.000000     0.000000     0.000000
   48    -1.000000   180.000000    -0.500000     0.288675     0.816497     0.000000     0.000000     0.000000

 Subroutine IBZKPT returns following result:

 Found     35 irreducible k-points:

 Following reciprocal coordinates:
            Coordinates               Weight
  0.000000  0.000000  0.000000      1.000000
  0.111111  0.000000  0.000000      8.000000
  0.222222  0.000000  0.000000      8.000000
  0.333333 -0.000000  0.000000      8.000000
  0.444444  0.000000  0.000000      8.000000
  0.111111  0.111111  0.000000      6.000000
  0.222222  0.111111  0.000000     24.000000
  0.333333  0.111111  0.000000     24.000000
  0.444444  0.111111  0.000000     24.000000
 -0.444444  0.111111 -0.000000     24.000000
 -0.333333  0.111111 -0.000000     24.000000
 -0.222222  0.111111 -0.000000     24.000000
 -0.111111  0.111111 -0.000000     12.000000
  0.222222  0.222222  0.000000      6.000000
  0.333333  0.222222  0.000000     24.000000
  0.444444  0.222222  0.000000     24.000000
 -0.444444  0.222222 -0.000000     24.000000
 -0.333333  0.222222 -0.000000     24.000000
 -0.222222  0.222222 -0.000000     12.000000
  0.333333  0.333333  0.000000      6.000000
  0.444444  0.333333  0.000000     24.000000
 -0.444444  0.333333 -0.000000     24.000000
 -0.333333  0.333333  0.000000     12.000000
  0.444444  0.444444  0.000000      6.000000
 -0.444444  0.444444 -0.000000     12.000000
  0.333333  0.222222  0.111111     24.000000
  0.444444  0.222222  0.111111     48.000000
 -0.444444  0.222222  0.111111     48.000000
  0.444444  0.333333  0.111111     24.000000
 -0.444444  0.333333  0.111111     48.000000
 -0.333333  0.333333  0.111111     48.000000
 -0.222222  0.333333  0.111111     24.000000
 -0.444444  0.444444  0.111111     24.000000
 -0.333333  0.444444  0.111111     24.000000
 -0.333333  0.444444  0.222222     24.000000

 Following cartesian coordinates:
            Coordinates               Weight
  0.000000  0.000000  0.000000      1.000000
  0.024746 -0.014287 -0.010103      8.000000
  0.049493 -0.028575 -0.020205      8.000000
  0.074239 -0.042862 -0.030308      8.000000
  0.098986 -0.057150 -0.040411      8.000000
  0.024746  0.014287 -0.020205      6.000000
  0.049493 -0.000000 -0.030308     24.000000
  0.074239 -0.014287 -0.040411     24.000000
  0.098986 -0.028575 -0.050514     24.000000
 -0.098986  0.085724  0.030308     24.000000
 -0.074239  0.071437  0.020205     24.000000
 -0.049493  0.057150  0.010103     24.000000
 -0.024746  0.042862 -0.000000     12.000000
  0.049493  0.028575 -0.040411      6.000000
  0.074239  0.014287 -0.050514     24.000000
  0.098986  0.000000 -0.060616     24.000000
 -0.098986  0.114299  0.020205     24.000000
 -0.074239  0.100012  0.010103     24.000000
 -0.049493  0.085724  0.000000     12.000000
  0.074239  0.042862 -0.060616      6.000000
  0.098986  0.028575 -0.070719     24.000000
 -0.098986  0.142874  0.010103     24.000000
 -0.074239  0.128587  0.000000     12.000000
  0.098986  0.057150 -0.080822      6.000000
 -0.098986  0.171449  0.000000     12.000000
  0.074239  0.014287 -0.020205     24.000000
  0.098986  0.000000 -0.030308     48.000000
 -0.098986  0.114299  0.050514     48.000000
  0.098986  0.028575 -0.040411     24.000000
 -0.098986  0.142874  0.040411     48.000000
 -0.074239  0.128587  0.030308     48.000000
 -0.049493  0.114299  0.020205     24.000000
 -0.098986  0.171449  0.030308     24.000000
 -0.074239  0.157161  0.020205     24.000000
 -0.074239  0.157161  0.050514     24.000000

 SYSTEM =  Og_FCC
 POSCAR =  Og_FCC

 Startparameter for this run:
   NWRITE =      2    write-flag & timer
   PREC   = accura    normal or accurate (medium, high low for compatibility)
[...]
   IDIPOL =      0    1-x, 2-y, 3-z, 4-all directions
   EPSILON=  1.0000000 bulk dielectric constant

 Exchange correlation treatment:
   GGA     =    PS    GGA type
   VOSKOWN=      0    Vosko Wilk Nusair interpolation
   LHFCALC =     F    Hartree Fock is set to
   LHFONE  =     F    Hartree Fock one center treatment
   AEXX    =    0.0000 exact exchange contribution

 Linear response parameters
   LEPSILON=     F    determine dielectric tensor
   LRPA    =     F    only Hartree local field effects (RPA)
   LNABLA  =     F    use nabla operator in PAW spheres
   LVEL    =     F    velocity operator in full k-point grid
   LINTERFAST=   F  fast interpolation
   KINTER  =     0    interpolate to denser k-point grid
   CSHIFT  =0.1000    complex shift for real part using Kramers Kronig
   OMEGAMAX=  -1.0    maximum frequency
   DEG_THRESHOLD= 0.2000000E-02 threshold for treating states as degnerate
   RTIME   =   -0.100 relaxation time in fs
  (WPLASMAI=    0.000 imaginary part of plasma frequency in eV, 0.658/RTIME)
   DFIELD  = 0.0000000 0.0000000 0.0000000 field for delta impulse in time

 Orbital magnetization related:
   ORBITALMAG=     F  switch on orbital magnetization
   LCHIMAG   =     F  perturbation theory with respect to B field
   DQ        =  0.001000  dq finite difference perturbation B field
   LLRAUG    =     F  two centre corrections for induced B field

 quasi-Newton-method for relaxation of ions
 charge density and potential will be updated during run
 non-spin polarized calculation
 RMM-DIIS sequential band-by-band and
  variant of blocked Davidson during initial phase
 perform sub-space diagonalisation
    before iterative eigenvector-optimisation
 modified Broyden-mixing scheme, WC =      100.0
 initial mixing is a Kerker type mixing with AMIX =  0.4000 and BMIX =      1.0000
 Hartree-type preconditioning will be used
 using additional bands            4
 reciprocal scheme for non local part
 use partial core corrections
 calculate Harris-corrections to forces
   (improved forces if not selfconsistent)
 use gradient corrections
 use of overlap-Matrix (Vanderbilt PP)
 Methfessel and Paxton  Order N= 1 SIGMA  =   0.05

  energy-cutoff  :      600.00
  volume of cell :       64.01
      direct lattice vectors                 reciprocal lattice vectors
     4.489974693  0.000000000  0.000000000     0.222718405 -0.128586531 -0.090924408
     2.244987346  3.888432146 -0.000000000     0.000000000  0.257173062 -0.090924408
     2.244987346  1.296144049  3.666048985    -0.000000000  0.000000000  0.272773224

  length of vectors
     4.489974693  4.489974693  4.489974693     0.272773224  0.272773224  0.272773224

 k-points in units of 2pi/SCALE and weight: read from INCAR
   0.00000000  0.00000000  0.00000000       0.001
   0.02474649 -0.01428739 -0.01010271       0.011
   0.04949298 -0.02857478 -0.02020542       0.011
   0.07423947 -0.04286218 -0.03030814       0.011
   0.09898596 -0.05714957 -0.04041085       0.011
   0.02474649  0.01428739 -0.02020542       0.008
   0.04949298 -0.00000000 -0.03030814       0.033
   0.07423947 -0.01428739 -0.04041085       0.033
   0.09898596 -0.02857478 -0.05051356       0.033
  -0.09898596  0.08572435  0.03030814       0.033
  -0.07423947  0.07143696  0.02020542       0.033
  -0.04949298  0.05714957  0.01010271       0.033
  -0.02474649  0.04286218 -0.00000000       0.016
   0.04949298  0.02857478 -0.04041085       0.008
   0.07423947  0.01428739 -0.05051356       0.033
   0.09898596  0.00000000 -0.06061627       0.033
  -0.09898596  0.11429914  0.02020542       0.033
  -0.07423947  0.10001175  0.01010271       0.033
  -0.04949298  0.08572435  0.00000000       0.016
   0.07423947  0.04286218 -0.06061627       0.008
   0.09898596  0.02857478 -0.07071898       0.033
  -0.09898596  0.14287392  0.01010271       0.033
  -0.07423947  0.12858653  0.00000000       0.016
   0.09898596  0.05714957 -0.08082170       0.008
  -0.09898596  0.17144871  0.00000000       0.016
   0.07423947  0.01428739 -0.02020542       0.033
   0.09898596  0.00000000 -0.03030814       0.066
  -0.09898596  0.11429914  0.05051356       0.066
   0.09898596  0.02857478 -0.04041085       0.033
  -0.09898596  0.14287392  0.04041085       0.066
  -0.07423947  0.12858653  0.03030814       0.066
  -0.04949298  0.11429914  0.02020542       0.033
  -0.09898596  0.17144871  0.03030814       0.033
  -0.07423947  0.15716132  0.02020542       0.033
  -0.07423947  0.15716132  0.05051356       0.033

 k-points in reciprocal lattice and weights: read from INCAR
   0.00000000  0.00000000  0.00000000       0.001
   0.11111111  0.00000000  0.00000000       0.011
   0.22222222  0.00000000  0.00000000       0.011
   0.33333333 -0.00000000  0.00000000       0.011
   0.44444444  0.00000000  0.00000000       0.011
   0.11111111  0.11111111  0.00000000       0.008
   0.22222222  0.11111111  0.00000000       0.033
   0.33333333  0.11111111  0.00000000       0.033
   0.44444444  0.11111111  0.00000000       0.033
  -0.44444444  0.11111111 -0.00000000       0.033
  -0.33333333  0.11111111 -0.00000000       0.033
  -0.22222222  0.11111111 -0.00000000       0.033
  -0.11111111  0.11111111 -0.00000000       0.016
   0.22222222  0.22222222  0.00000000       0.008
   0.33333333  0.22222222  0.00000000       0.033
   0.44444444  0.22222222  0.00000000       0.033
  -0.44444444  0.22222222 -0.00000000       0.033
  -0.33333333  0.22222222 -0.00000000       0.033
  -0.22222222  0.22222222 -0.00000000       0.016
   0.33333333  0.33333333  0.00000000       0.008
   0.44444444  0.33333333  0.00000000       0.033
  -0.44444444  0.33333333 -0.00000000       0.033
  -0.33333333  0.33333333  0.00000000       0.016
   0.44444444  0.44444444  0.00000000       0.008
  -0.44444444  0.44444444 -0.00000000       0.016
   0.33333333  0.22222222  0.11111111       0.033
   0.44444444  0.22222222  0.11111111       0.066
  -0.44444444  0.22222222  0.11111111       0.066
   0.44444444  0.33333333  0.11111111       0.033
  -0.44444444  0.33333333  0.11111111       0.066
  -0.33333333  0.33333333  0.11111111       0.066
  -0.22222222  0.33333333  0.11111111       0.033
  -0.44444444  0.44444444  0.11111111       0.033
  -0.33333333  0.44444444  0.11111111       0.033
  -0.33333333  0.44444444  0.22222222       0.033

 position of ions in fractional coordinates (direct lattice)
   0.00000000  0.00000000  0.00000000

 position of ions in cartesian coordinates  (Angst):
   0.00000000  0.00000000  0.00000000

 k-point  1 :   0.0000 0.0000 0.0000  plane waves:    2109
 k-point  2 :   0.1111 0.0000 0.0000  plane waves:    2118
 k-point  3 :   0.2222 0.0000 0.0000  plane waves:    2115
 k-point  4 :   0.3333-0.0000 0.0000  plane waves:    2138
 k-point  5 :   0.4444 0.0000 0.0000  plane waves:    2117
 k-point  6 :   0.1111 0.1111 0.0000  plane waves:    2133
 k-point  7 :   0.2222 0.1111 0.0000  plane waves:    2127
 k-point  8 :   0.3333 0.1111 0.0000  plane waves:    2137
 k-point  9 :   0.4444 0.1111 0.0000  plane waves:    2127
 k-point 10 :  -0.4444 0.1111-0.0000  plane waves:    2134
 k-point 11 :  -0.3333 0.1111-0.0000  plane waves:    2129
 k-point 12 :  -0.2222 0.1111-0.0000  plane waves:    2125
 k-point 13 :  -0.1111 0.1111-0.0000  plane waves:    2127
 k-point 14 :   0.2222 0.2222 0.0000  plane waves:    2121
 k-point 15 :   0.3333 0.2222 0.0000  plane waves:    2122
 k-point 16 :   0.4444 0.2222 0.0000  plane waves:    2135
 k-point 17 :  -0.4444 0.2222-0.0000  plane waves:    2137
 k-point 18 :  -0.3333 0.2222-0.0000  plane waves:    2143
 k-point 19 :  -0.2222 0.2222-0.0000  plane waves:    2131
 k-point 20 :   0.3333 0.3333 0.0000  plane waves:    2129
 k-point 21 :   0.4444 0.3333 0.0000  plane waves:    2142
 k-point 22 :  -0.4444 0.3333-0.0000  plane waves:    2137
 k-point 23 :  -0.3333 0.3333 0.0000  plane waves:    2121
 k-point 24 :   0.4444 0.4444 0.0000  plane waves:    2140
 k-point 25 :  -0.4444 0.4444-0.0000  plane waves:    2145
 k-point 26 :   0.3333 0.2222 0.1111  plane waves:    2134
 k-point 27 :   0.4444 0.2222 0.1111  plane waves:    2132
 k-point 28 :  -0.4444 0.2222 0.1111  plane waves:    2147
 k-point 29 :   0.4444 0.3333 0.1111  plane waves:    2136
 k-point 30 :  -0.4444 0.3333 0.1111  plane waves:    2140
 k-point 31 :  -0.3333 0.3333 0.1111  plane waves:    2142
 k-point 32 :  -0.2222 0.3333 0.1111  plane waves:    2140
 k-point 33 :  -0.4444 0.4444 0.1111  plane waves:    2141
 k-point 34 :  -0.3333 0.4444 0.1111  plane waves:    2146
 k-point 35 :  -0.3333 0.4444 0.2222  plane waves:    2165

 maximum and minimum number of plane-waves per node :       545      517

 maximum number of plane-waves:      2165
 maximum index in each direction:
   IXMAX=    9   IYMAX=    8   IZMAX=    8
   IXMIN=   -9   IYMIN=   -9   IZMIN=   -9

 parallel 3D FFT for wavefunctions:
    minimum data exchange during FFTs selected (reduces bandwidth)
 parallel 3D FFT for charge:
    minimum data exchange during FFTs selected (reduces bandwidth)

 Broyden mixing: mesh for mixing (old mesh)
   NGX = 17   NGY = 17   NGZ = 17
  (NGX  = 72   NGY  = 72   NGZ  = 72)
  gives a total of   4913 points

 initial charge density was supplied:
 charge density of overlapping atoms calculated
 number of electron      18.0000000 magnetization
 keeping initial charge density in first step

 Maximum index for augmentation-charges        84925 (set IRDMAX)

 First call to EWALD:  gamma=   0.443
 Maximum number of real-space cells 3x 3x 3
 Maximum number of reciprocal cells 3x 3x 3

--------------------------------------- Iteration      1(   1)  ---------------------------------------

 eigenvalue-minimisations  :   926
 total energy-change (2. order) : 0.2967893E+03  (-0.9488872E+03)
 number of electron      18.0000000 magnetization
 augmentation part       18.0000000 magnetization

 Free energy of the ion-electron system (eV)
  alpha Z        PSCENC =        59.60834591
  Ewald energy   TEWEN  =     -1684.37377873
  -Hartree energ DENC   =      -697.96555248
  -exchange      EXHF   =         0.00000000
  -V(xc)+E(xc)   XCENC  =       -67.22056282
  PAW double counting   =      2266.27872487    -2184.08858500
  entropy T*S    EENTRO =        -0.00037720
  eigenvalues    EBANDS =       -37.46640019
  atomic energy  EATOM  =      2642.01744135
  Solvation  Ediel_sol  =         0.00000000
  free energy    TOTEN  =       296.78925570 eV

  energy without entropy =      296.78963290  energy(sigma->0) =      296.78938143

[...]

 eigenvalue-minimisations  :  1145
 total energy-change (2. order) :-0.2867482E+03  (-0.2797975E+03)
 number of electron      18.0000000 magnetization
 augmentation part       18.0000000 magnetization

[...]

 Broyden mixing:
  rms(total) = 0.20252E-01    rms(broyden)= 0.18952E-01
  rms(prec ) = 0.51231E-01
  weight for this iteration     100.00

[...]

 eigenvalues of (default mixing * dielectric matrix)
  average eigenvalue GAMMA=   2.2757
  2.2757

[...]

 Broyden mixing:
  rms(total) = 0.23734E-04    rms(broyden)= 0.23493E-04
  rms(prec ) = 0.68941E-04
  weight for this iteration     100.00

[...]

 eigenvalue-minimisations  :   700
 total energy-change (2. order) : 0.1046710E-06  (-0.3864587E-08)
 number of electron      18.0000000 magnetization
 augmentation part        2.9905693 magnetization

 Broyden mixing:
  rms(total) = 0.62536E-05    rms(broyden)= 0.52676E-05
  rms(prec ) = 0.12410E-04
  weight for this iteration     100.00
  WARNING: grid for Broyden might be to small

 eigenvalues of (default mixing * dielectric matrix)
  average eigenvalue GAMMA=   1.8364
  3.1073  3.1073  2.4232  1.5674  1.5674  1.0541  0.9736  0.8912

[...]

--------------------------------------- Iteration      1(  14)  ---------------------------------------

 eigenvalue-minimisations  :   600
 total energy-change (2. order) :-0.2050001E-08  (-0.1000909E-08)
 number of electron      18.0000000 magnetization
 augmentation part        2.9905693 magnetization

 Free energy of the ion-electron system (eV)
  alpha Z        PSCENC =        59.60834591
  Ewald energy   TEWEN  =     -1684.37377873
  -Hartree energ DENC   =      -696.54805068
  -exchange      EXHF   =         0.00000000
  -V(xc)+E(xc)   XCENC  =       -67.29691323
  PAW double counting   =      2254.04044132    -2171.79340012
  entropy T*S    EENTRO =         0.00018149
  eigenvalues    EBANDS =      -335.76934310
  atomic energy  EATOM  =      2642.01744135
  Solvation  Ediel_sol  =         0.00000000
  free energy    TOTEN  =        -0.11507580 eV

  energy without entropy =       -0.11525729  energy(sigma->0) =       -0.11513629

 average (electrostatic) potential at core
  the test charge radii are     1.2024
  (the norm of the test charge is              1.0000)
       1-112.9998

 E-fermi :   0.7701     XC(G=0):  -7.8917     alpha+bet : -6.8560

 k-point     1 :       0.0000    0.0000    0.0000
  band No.  band energies     occupation
      1     -28.9468      2.00000
      2     -28.9468      2.00000
      3     -28.9468      2.00000
      4     -28.9446      2.00000
      5     -28.9446      2.00000
      6     -21.9474      2.00000
      7       0.7581      1.39594
      8       0.7581      1.39594
      9       0.7581      1.39593
     10       2.9194      0.00000
     11       9.8777      0.00000
     12       9.8777      0.00000
     13       9.8794      0.00000

[...]

 k-point    35 :      -0.3333    0.4444    0.2222
  band No.  band energies     occupation
      1     -28.9454      2.00000
      2     -28.9454      2.00000
      3     -28.9440      2.00000
      4     -28.9429      2.00000
      5     -28.9410      2.00000
      6     -21.8637      2.00000
      7      -1.1776      2.00000
      8      -0.8629      2.00000
      9      -0.2514      2.00000
     10       7.3975      0.00000
     11       8.3628      0.00000
     12       8.7958      0.00000
     13      10.0921      0.00000

 soft charge-density along one line, spin component           1
         0         1         2         3         4         5         6         7         8         9
 total charge-density along one line

------------------------ aborting loop because EDIFF is reached ----------------------------------------

  FORCE on cell =-STRESS in cart. coord.  units (eV):
  Direction    XX          YY          ZZ          XY          YZ          ZX
  Alpha Z    59.60835    59.60835    59.60835
  Ewald    -561.45794  -561.45794  -561.45794    -0.00000    -0.00000     0.00000
  Hartree   232.18295   232.18295   232.18295     0.00000    -0.00000     0.00000
  E(xc)    -108.85347  -108.85347  -108.85347     0.00000     0.00000     0.00000
  Local    -186.36726  -186.36727  -186.36727     0.00001     0.00000     0.00001
  n-local    95.78967    99.17721   101.41132     1.22822    -0.30670     3.51595
  augment    79.48904    79.48905    79.48905    -0.00001    -0.00000    -0.00001
  Kinetic   384.14272   386.90357   388.77414     1.26012     0.13642     3.04745
  Fock        0.00000     0.00000     0.00000     0.00000     0.00000     0.00000
  Total       0.00120     0.00120     0.00120     0.00000    -0.00000    -0.00000
  in kB       0.03009     0.03009     0.03009     0.00000    -0.00000    -0.00000

 VOLUME and BASIS-vectors are now :
  energy-cutoff  :      600.00
  volume of cell :       64.01
      direct lattice vectors                 reciprocal lattice vectors
     4.489974693  0.000000000  0.000000000     0.222718405 -0.128586531 -0.090924408
     2.244987346  3.888432146 -0.000000000     0.000000000  0.257173062 -0.090924408
     2.244987346  1.296144049  3.666048985    -0.000000000  0.000000000  0.272773224

  length of vectors
     4.489974693  4.489974693  4.489974693     0.272773224  0.272773224  0.272773224

 FORCES acting on ions
    electron-ion (+dipol)            ewald-force                    non-local-force                 convergence-correction
   -.445E-13 0.130E-13 -.618E-13   -.620E-14 -.240E-15 -.219E-14   -.119E-21 0.146E-21 0.132E-22   -.446E-13 0.192E-13 -.218E-13
   -.445E-13 0.130E-13 -.618E-13   -.620E-14 -.240E-15 -.219E-14   -.119E-21 0.146E-21 0.132E-22   -.446E-13 0.192E-13 -.218E-13

 POSITION                                       TOTAL-FORCE (eV/Angst)
      0.00000      0.00000      0.00000        -0.000000     -0.000000     -0.000000
    total drift:                               -0.000000      0.000000     -0.000000

  FREE ENERGIE OF THE ION-ELECTRON SYSTEM (eV)
  free  energy   TOTEN  =        -0.11507580 eV

  energy  without entropy=       -0.11525729  energy(sigma->0) =       -0.11513629

 Quasi-Newton relaxation of ions (Broydens 2nd method)
  g(Force)  = 0.000E+00   g(Stress)= 0.418E-07

 Reset! Starting new Quasi-Newton update for ions

 reached required accuracy - stopping structural energy minimisation