 vasp.5.4.4.18Apr17-6-g9f103f2a35 (build Nov 03 2018 10:20:43) complex

 executed on             LinuxIFC date 2018.11.29  16:21:16

 INCAR:
 POTCAR:    PAW Og, JanMewes Oct 18

 POTCAR:    PAW Og, JanMewes Oct 18
   VRHFIN =Og : 10d 2s 6p, PE

   TITEL  = PAW Og, JanMewes Oct 18
   POMASS =    0.010; ZVAL   =   18.000    mass and valenz
   ENMAX  =  339.336; ENMIN  =  254.502 eV
   QCUT   =   -4.994; QGAM   =    9.988    optimization parameters

  PAW Og, JanMewes Oct 18               :

 POSCAR: Og_FCC
  positions in direct lattice
  velocities in cartesian coordinates
 exchange correlation table for  LEXCH =        8
   RHO(1)=    0.500       N(1)  =     2000
   RHO(2)=  100.500       N(2)  =     4000

 ion  position               nearest neighbor table
   1  0.000  0.000  0.000-

  LATTYP: Found a face centered cubic cell.
 ALAT       =     6.3497831056

  Lattice vectors:

 A1 = (   4.4899746930,   0.0000000000,   0.0000000000)
 A2 = (   2.2449873465,   3.8884321464,  -0.0000000000)
 A3 = (   2.2449873465,   1.2961440488,   3.6660489854)

Analysis of symmetry for initial positions (statically):
 Subroutine PRICEL returns:
 Original cell was already a primitive cell.

 Routine SETGRP: Setting up the symmetry group for a
 face centered cubic supercell.

 Subroutine GETGRP returns: Found 48 space group operations
 (whereof 48 operations were pure point group operations)
 out of a pool of 48 trial point group operations.

The static configuration has the point symmetry O_h .

Analysis of symmetry for dynamics (positions and initial velocities):
 Subroutine PRICEL returns:
 Original cell was already a primitive cell.

 Routine SETGRP: Setting up the symmetry group for a
 face centered cubic supercell.

 Subroutine GETGRP returns: Found 48 space group operations
 (whereof 48 operations were pure point group operations)
 out of a pool of 48 trial point group operations.

The dynamic configuration has the point symmetry O_h .

 Subroutine INISYM returns: Found 48 space group operations
 (whereof 48 operations are pure point group operations),
 and found     1 'primitive' translations

Automatic generation of k-mesh.
 generate k-points for:    9    9    9
Space group operators:
 irot       det(A)        alpha          n_x          n_y          n_z        tau_x        tau_y        tau_z
    1     1.000000     0.000000     1.000000     0.000000     0.000000     0.000000     0.000000     0.000000
    2    -1.000000     0.000000     1.000000     0.000000     0.000000     0.000000     0.000000     0.000000
    3     1.000000   120.000000    -0.816497    -0.471405    -0.333333     0.000000     0.000000     0.000000
    4    -1.000000   120.000000    -0.816497    -0.471405    -0.333333     0.000000     0.000000     0.000000
    5     1.000000   120.000000     0.816497     0.471405     0.333333     0.000000     0.000000     0.000000
    6    -1.000000   120.000000     0.816497     0.471405     0.333333     0.000000     0.000000     0.000000
    7     1.000000    90.000000    -0.707107    -0.408248     0.577350     0.000000     0.000000     0.000000
    8    -1.000000    90.000000    -0.707107    -0.408248     0.577350     0.000000     0.000000     0.000000
    9     1.000000   180.000000     1.000000     0.000000     0.000000     0.000000     0.000000     0.000000
   10    -1.000000   180.000000     1.000000     0.000000     0.000000     0.000000     0.000000     0.000000
   11     1.000000    90.000000     0.707107    -0.408248     0.577350     0.000000     0.000000     0.000000
   12    -1.000000    90.000000     0.707107    -0.408248     0.577350     0.000000     0.000000     0.000000
   13     1.000000   180.000000     0.707107     0.408248    -0.577350     0.000000     0.000000     0.000000
   14    -1.000000   180.000000     0.707107     0.408248    -0.577350     0.000000     0.000000     0.000000
   15     1.000000   120.000000     0.816497    -0.471405    -0.333333     0.000000     0.000000     0.000000
   16    -1.000000   120.000000     0.816497    -0.471405    -0.333333     0.000000     0.000000     0.000000
   17     1.000000   120.000000     0.000000    -0.942809     0.333333     0.000000     0.000000     0.000000
   18    -1.000000   120.000000     0.000000    -0.942809     0.333333     0.000000     0.000000     0.000000
   19     1.000000    90.000000     0.707107     0.408248    -0.577350     0.000000     0.000000     0.000000
   20    -1.000000    90.000000     0.707107     0.408248    -0.577350     0.000000     0.000000     0.000000
   21     1.000000    90.000000    -0.000000    -0.816497    -0.577350     0.000000     0.000000     0.000000
   22    -1.000000    90.000000    -0.000000    -0.816497    -0.577350     0.000000     0.000000     0.000000
   23     1.000000   180.000000     0.500000     0.866025     0.000000     0.000000     0.000000     0.000000
   24    -1.000000   180.000000     0.500000     0.866025     0.000000     0.000000     0.000000     0.000000
   25     1.000000   120.000000     0.000000     0.942809    -0.333333     0.000000     0.000000     0.000000
   26    -1.000000   120.000000     0.000000     0.942809    -0.333333     0.000000     0.000000     0.000000
   27     1.000000   120.000000    -0.000000     0.000000    -1.000000     0.000000     0.000000     0.000000
   28    -1.000000   120.000000    -0.000000     0.000000    -1.000000     0.000000     0.000000     0.000000
   29     1.000000   180.000000     0.000000    -0.816497    -0.577350     0.000000     0.000000     0.000000
   30    -1.000000   180.000000     0.000000    -0.816497    -0.577350     0.000000     0.000000     0.000000
   31     1.000000    90.000000    -0.707107     0.408248    -0.577350     0.000000     0.000000     0.000000
   32    -1.000000    90.000000    -0.707107     0.408248    -0.577350     0.000000     0.000000     0.000000
   33     1.000000   180.000000     0.500000     0.288675     0.816497     0.000000     0.000000     0.000000
   34    -1.000000   180.000000     0.500000     0.288675     0.816497     0.000000     0.000000     0.000000
   35     1.000000    90.000000    -0.000000     0.816497     0.577350     0.000000     0.000000     0.000000
   36    -1.000000    90.000000    -0.000000     0.816497     0.577350     0.000000     0.000000     0.000000
   37     1.000000   120.000000    -0.816497     0.471405     0.333333     0.000000     0.000000     0.000000
   38    -1.000000   120.000000    -0.816497     0.471405     0.333333     0.000000     0.000000     0.000000
   39     1.000000   180.000000    -0.707107     0.408248    -0.577350     0.000000     0.000000     0.000000
   40    -1.000000   180.000000    -0.707107     0.408248    -0.577350     0.000000     0.000000     0.000000
   41     1.000000   120.000000    -0.000000    -0.000000     1.000000     0.000000     0.000000     0.000000
   42    -1.000000   120.000000    -0.000000    -0.000000     1.000000     0.000000     0.000000     0.000000
   43     1.000000   180.000000    -0.000000    -0.577350     0.816497     0.000000     0.000000     0.000000
   44    -1.000000   180.000000    -0.000000    -0.577350     0.816497     0.000000     0.000000     0.000000
   45     1.000000   180.000000    -0.500000     0.866025     0.000000     0.000000     0.000000     0.000000
   46    -1.000000   180.000000    -0.500000     0.866025     0.000000     0.000000     0.000000     0.000000
   47     1.000000   180.000000    -0.500000     0.288675     0.816497     0.000000     0.000000     0.000000
   48    -1.000000   180.000000    -0.500000     0.288675     0.816497     0.000000     0.000000     0.000000

 Subroutine IBZKPT returns following result:

 Found     35 irreducible k-points:

 Following reciprocal coordinates:
            Coordinates               Weight
  0.000000  0.000000  0.000000      1.000000
  0.111111  0.000000  0.000000      8.000000
  0.222222  0.000000  0.000000      8.000000
  0.333333 -0.000000  0.000000      8.000000
  0.444444  0.000000  0.000000      8.000000
  0.111111  0.111111  0.000000      6.000000
  0.222222  0.111111  0.000000     24.000000
  0.333333  0.111111  0.000000     24.000000
  0.444444  0.111111  0.000000     24.000000
 -0.444444  0.111111 -0.000000     24.000000
 -0.333333  0.111111 -0.000000     24.000000
 -0.222222  0.111111 -0.000000     24.000000
 -0.111111  0.111111 -0.000000     12.000000
  0.222222  0.222222  0.000000      6.000000
  0.333333  0.222222  0.000000     24.000000
  0.444444  0.222222  0.000000     24.000000
 -0.444444  0.222222 -0.000000     24.000000
 -0.333333  0.222222 -0.000000     24.000000
 -0.222222  0.222222 -0.000000     12.000000
  0.333333  0.333333  0.000000      6.000000
  0.444444  0.333333  0.000000     24.000000
 -0.444444  0.333333 -0.000000     24.000000
 -0.333333  0.333333  0.000000     12.000000
  0.444444  0.444444  0.000000      6.000000
 -0.444444  0.444444 -0.000000     12.000000
  0.333333  0.222222  0.111111     24.000000
  0.444444  0.222222  0.111111     48.000000
 -0.444444  0.222222  0.111111     48.000000
  0.444444  0.333333  0.111111     24.000000
 -0.444444  0.333333  0.111111     48.000000
 -0.333333  0.333333  0.111111     48.000000
 -0.222222  0.333333  0.111111     24.000000
 -0.444444  0.444444  0.111111     24.000000
 -0.333333  0.444444  0.111111     24.000000
 -0.333333  0.444444  0.222222     24.000000

 Following cartesian coordinates:
            Coordinates               Weight
  0.000000  0.000000  0.000000      1.000000
  0.024746 -0.014287 -0.010103      8.000000
  0.049493 -0.028575 -0.020205      8.000000
  0.074239 -0.042862 -0.030308      8.000000
  0.098986 -0.057150 -0.040411      8.000000
  0.024746  0.014287 -0.020205      6.000000
  0.049493 -0.000000 -0.030308     24.000000
  0.074239 -0.014287 -0.040411     24.000000
  0.098986 -0.028575 -0.050514     24.000000
 -0.098986  0.085724  0.030308     24.000000
 -0.074239  0.071437  0.020205     24.000000
 -0.049493  0.057150  0.010103     24.000000
 -0.024746  0.042862 -0.000000     12.000000
  0.049493  0.028575 -0.040411      6.000000
  0.074239  0.014287 -0.050514     24.000000
  0.098986  0.000000 -0.060616     24.000000
 -0.098986  0.114299  0.020205     24.000000
 -0.074239  0.100012  0.010103     24.000000
 -0.049493  0.085724  0.000000     12.000000
  0.074239  0.042862 -0.060616      6.000000
  0.098986  0.028575 -0.070719     24.000000
 -0.098986  0.142874  0.010103     24.000000
 -0.074239  0.128587  0.000000     12.000000
  0.098986  0.057150 -0.080822      6.000000
 -0.098986  0.171449  0.000000     12.000000
  0.074239  0.014287 -0.020205     24.000000
  0.098986  0.000000 -0.030308     48.000000
 -0.098986  0.114299  0.050514     48.000000
  0.098986  0.028575 -0.040411     24.000000
 -0.098986  0.142874  0.040411     48.000000
 -0.074239  0.128587  0.030308     48.000000
 -0.049493  0.114299  0.020205     24.000000
 -0.098986  0.171449  0.030308     24.000000
 -0.074239  0.157161  0.020205     24.000000
 -0.074239  0.157161  0.050514     24.000000

 SYSTEM =  Og_FCC
 POSCAR =  Og_FCC

 Startparameter for this run:
   NWRITE =      2    write-flag & timer
   PREC   = accura    normal or accurate (medium, high low for compatibility)
[...]
  -0.09898596  0.11429914  0.05051356       0.066
   0.09898596  0.02857478 -0.04041085       0.033
  -0.09898596  0.14287392  0.04041085       0.066
  -0.07423947  0.12858653  0.03030814       0.066
  -0.04949298  0.11429914  0.02020542       0.033
  -0.09898596  0.17144871  0.03030814       0.033
  -0.07423947  0.15716132  0.02020542       0.033
  -0.07423947  0.15716132  0.05051356       0.033

 k-points in reciprocal lattice and weights: read from INCAR
   0.00000000  0.00000000  0.00000000       0.001
   0.11111111  0.00000000  0.00000000       0.011
   0.22222222  0.00000000  0.00000000       0.011
   0.33333333 -0.00000000  0.00000000       0.011
   0.44444444  0.00000000  0.00000000       0.011
   0.11111111  0.11111111  0.00000000       0.008
   0.22222222  0.11111111  0.00000000       0.033
   0.33333333  0.11111111  0.00000000       0.033
   0.44444444  0.11111111  0.00000000       0.033
  -0.44444444  0.11111111 -0.00000000       0.033
  -0.33333333  0.11111111 -0.00000000       0.033
  -0.22222222  0.11111111 -0.00000000       0.033
  -0.11111111  0.11111111 -0.00000000       0.016
   0.22222222  0.22222222  0.00000000       0.008
   0.33333333  0.22222222  0.00000000       0.033
   0.44444444  0.22222222  0.00000000       0.033
  -0.44444444  0.22222222 -0.00000000       0.033
  -0.33333333  0.22222222 -0.00000000       0.033
  -0.22222222  0.22222222 -0.00000000       0.016
   0.33333333  0.33333333  0.00000000       0.008
   0.44444444  0.33333333  0.00000000       0.033
  -0.44444444  0.33333333 -0.00000000       0.033
  -0.33333333  0.33333333  0.00000000       0.016
   0.44444444  0.44444444  0.00000000       0.008
  -0.44444444  0.44444444 -0.00000000       0.016
   0.33333333  0.22222222  0.11111111       0.033
   0.44444444  0.22222222  0.11111111       0.066
  -0.44444444  0.22222222  0.11111111       0.066
   0.44444444  0.33333333  0.11111111       0.033
  -0.44444444  0.33333333  0.11111111       0.066
  -0.33333333  0.33333333  0.11111111       0.066
  -0.22222222  0.33333333  0.11111111       0.033
  -0.44444444  0.44444444  0.11111111       0.033
  -0.33333333  0.44444444  0.11111111       0.033
  -0.33333333  0.44444444  0.22222222       0.033

 position of ions in fractional coordinates (direct lattice)
   0.00000000  0.00000000  0.00000000

 position of ions in cartesian coordinates  (Angst):
   0.00000000  0.00000000  0.00000000

 k-point  1 :   0.0000 0.0000 0.0000  plane waves:    2109
 k-point  2 :   0.1111 0.0000 0.0000  plane waves:    2118
 k-point  3 :   0.2222 0.0000 0.0000  plane waves:    2115
 k-point  4 :   0.3333-0.0000 0.0000  plane waves:    2138
 k-point  5 :   0.4444 0.0000 0.0000  plane waves:    2117
 k-point  6 :   0.1111 0.1111 0.0000  plane waves:    2133
 k-point  7 :   0.2222 0.1111 0.0000  plane waves:    2127
 k-point  8 :   0.3333 0.1111 0.0000  plane waves:    2137
 k-point  9 :   0.4444 0.1111 0.0000  plane waves:    2127
 k-point 10 :  -0.4444 0.1111-0.0000  plane waves:    2134
 k-point 11 :  -0.3333 0.1111-0.0000  plane waves:    2129
 k-point 12 :  -0.2222 0.1111-0.0000  plane waves:    2125
 k-point 13 :  -0.1111 0.1111-0.0000  plane waves:    2127
 k-point 14 :   0.2222 0.2222 0.0000  plane waves:    2121
 k-point 15 :   0.3333 0.2222 0.0000  plane waves:    2122
 k-point 16 :   0.4444 0.2222 0.0000  plane waves:    2135
 k-point 17 :  -0.4444 0.2222-0.0000  plane waves:    2137
 k-point 18 :  -0.3333 0.2222-0.0000  plane waves:    2143
 k-point 19 :  -0.2222 0.2222-0.0000  plane waves:    2131
 k-point 20 :   0.3333 0.3333 0.0000  plane waves:    2129
 k-point 21 :   0.4444 0.3333 0.0000  plane waves:    2142
 k-point 22 :  -0.4444 0.3333-0.0000  plane waves:    2137
 k-point 23 :  -0.3333 0.3333 0.0000  plane waves:    2121
 k-point 24 :   0.4444 0.4444 0.0000  plane waves:    2140
 k-point 25 :  -0.4444 0.4444-0.0000  plane waves:    2145
 k-point 26 :   0.3333 0.2222 0.1111  plane waves:    2134
 k-point 27 :   0.4444 0.2222 0.1111  plane waves:    2132
 k-point 28 :  -0.4444 0.2222 0.1111  plane waves:    2147
 k-point 29 :   0.4444 0.3333 0.1111  plane waves:    2136
 k-point 30 :  -0.4444 0.3333 0.1111  plane waves:    2140
 k-point 31 :  -0.3333 0.3333 0.1111  plane waves:    2142
 k-point 32 :  -0.2222 0.3333 0.1111  plane waves:    2140
 k-point 33 :  -0.4444 0.4444 0.1111  plane waves:    2141
 k-point 34 :  -0.3333 0.4444 0.1111  plane waves:    2146
 k-point 35 :  -0.3333 0.4444 0.2222  plane waves:    2165

 maximum and minimum number of plane-waves per node :      1083     1047

 maximum number of plane-waves:      2165
 maximum index in each direction:
   IXMAX=    9   IYMAX=    8   IZMAX=    8
   IXMIN=   -9   IYMIN=   -9   IZMIN=   -9

 parallel 3D FFT for wavefunctions:
    minimum data exchange during FFTs selected (reduces bandwidth)
 parallel 3D FFT for charge:
    minimum data exchange during FFTs selected (reduces bandwidth)

 Broyden mixing: mesh for mixing (old mesh)
   NGX = 17   NGY = 17   NGZ = 17
  (NGX  = 72   NGY  = 72   NGZ  = 72)
  gives a total of   4913 points

 initial charge density was supplied:
 charge density of overlapping atoms calculated
 number of electron      18.0000000 magnetization
 keeping initial charge density in first step

 Maximum index for augmentation-charges       170001 (set IRDMAX)

 First call to EWALD:  gamma=   0.443
 Maximum number of real-space cells 3x 3x 3
 Maximum number of reciprocal cells 3x 3x 3

--------------------------------------- Iteration      1(   1)  ---------------------------------------

 eigenvalue-minimisations  :   926
 total energy-change (2. order) : 0.2972862E+03  (-0.9498044E+03)
 number of electron      18.0000000 magnetization
 augmentation part       18.0000000 magnetization

 Free energy of the ion-electron system (eV)
  alpha Z        PSCENC =        59.60834591
  Ewald energy   TEWEN  =     -1684.37377873
  -Hartree energ DENC   =      -697.96555248
  -exchange      EXHF   =         0.00000000
  -V(xc)+E(xc)   XCENC  =       -69.40551690
  PAW double counting   =      2268.42939301    -2184.22833953
  entropy T*S    EENTRO =        -0.00037738
  eigenvalues    EBANDS =       -35.30668669
  atomic energy  EATOM  =      2640.52872706
  Solvation  Ediel_sol  =         0.00000000
  free energy    TOTEN  =       297.28621425 eV

  energy without entropy =      297.28659164  energy(sigma->0) =      297.28634005

[...]

 eigenvalue-minimisations  :  1145
 total energy-change (2. order) :-0.2871201E+03  (-0.2802099E+03)
 number of electron      18.0000000 magnetization
 augmentation part       18.0000000 magnetization

[...]

 Broyden mixing:
  rms(total) = 0.15048E-01    rms(broyden)= 0.13284E-01
  rms(prec ) = 0.30380E-01
  weight for this iteration     100.00
  WARNING: grid for Broyden might be to small

[...]

 Broyden mixing:
  rms(total) = 0.79405E-02    rms(broyden)= 0.78158E-02
  rms(prec ) = 0.18359E-01
  weight for this iteration     100.00

 eigenvalues of (default mixing * dielectric matrix)
  average eigenvalue GAMMA=   2.3374
  2.3374

[...]

 average (electrostatic) potential at core
  the test charge radii are     1.2024
  (the norm of the test charge is              1.0000)
       1-113.1456

 E-fermi :   0.8928     XC(G=0):  -7.6880     alpha+bet : -6.8560

 k-point     1 :       0.0000    0.0000    0.0000
  band No.  band energies     occupation
      1     -28.8087      2.00000
      2     -28.8087      2.00000
      3     -28.8087      2.00000
      4     -28.8064      2.00000
      5     -28.8064      2.00000
      6     -21.7970      2.00000
      7       0.8806      1.39964
      8       0.8806      1.39964
      9       0.8806      1.39964
     10       3.1666      0.00000
     11      10.0675      0.00000
     12      10.0675      0.00000
     13      10.0676      0.00000

[...]

 soft charge-density along one line, spin component           1
         0         1         2         3         4         5         6         7         8         9
 total charge-density along one line

------------------------ aborting loop because EDIFF is reached ----------------------------------------

  FORCE on cell =-STRESS in cart. coord.  units (eV):
  Direction    XX          YY          ZZ          XY          YZ          ZX
  Alpha Z    59.60835    59.60835    59.60835
  Ewald    -561.45794  -561.45794  -561.45794    -0.00000    -0.00000     0.00000
  Hartree   232.41728   232.41728   232.41728     0.00000    -0.00000     0.00000
  E(xc)    -110.45989  -110.45989  -110.45989    -0.00000     0.00000     0.00000
  Local    -186.82152  -186.82153  -186.82154     0.00001     0.00000     0.00001
  n-local    97.70268   101.03733   103.21935     1.20898    -0.30856     3.45260
  augment    79.64194    79.64195    79.64195    -0.00001    -0.00000    -0.00001
  Kinetic   384.36686   387.11479   388.96054     1.24743     0.12092     3.02403
  Fock        0.00000     0.00000     0.00000     0.00000     0.00000     0.00000
  Total       0.39540     0.39540     0.39540    -0.00000    -0.00000    -0.00000
  in kB       9.89765     9.89765     9.89765    -0.00000    -0.00000    -0.00000

 VOLUME and BASIS-vectors are now :
  energy-cutoff  :      600.00
  volume of cell :       64.01
      direct lattice vectors                 reciprocal lattice vectors
     4.489974693  0.000000000  0.000000000     0.222718405 -0.128586531 -0.090924408
     2.244987346  3.888432146 -0.000000000     0.000000000  0.257173062 -0.090924408
     2.244987346  1.296144049  3.666048985    -0.000000000  0.000000000  0.272773224

[...]

 FORCES acting on ions
    electron-ion (+dipol)            ewald-force                    non-local-force                 convergence-correction
   -.374E-13 0.778E-14 -.692E-13   -.620E-14 -.240E-15 -.219E-14   0.119E-21 0.159E-21 0.000E+00   -.626E-13 0.223E-13 -.105E-13
   -.374E-13 0.778E-14 -.692E-13   -.620E-14 -.240E-15 -.219E-14   0.119E-21 0.159E-21 0.000E+00   -.626E-13 0.223E-13 -.105E-13

 POSITION                                       TOTAL-FORCE (eV/Angst)
      0.00000      0.00000      0.00000         0.000000     -0.000000      0.000000
    total drift:                               -0.000000      0.000000     -0.000000

  FREE ENERGIE OF THE ION-ELECTRON SYSTEM (eV)
  free  energy   TOTEN  =         0.03418665 eV

  energy  without entropy=        0.03400559  energy(sigma->0) =        0.03412630

 Quasi-Newton relaxation of ions (Broydens 2nd method)
  g(Force)  = 0.000E+00   g(Stress)= 0.453E-02

 Reset! Starting new Quasi-Newton update for ions

[...]

 d Force = 0.0000000E+00[ 0.000E+00, 0.000E+00]  d Energy = 0.4340172E-02-0.434E-02
 d Force = 0.0000000E+00[ 0.000E+00, 0.000E+00]  d Ewald  =-0.6401535E+01 0.640E+01

[...]

 retain information from N=  1 steps
 eigenvalues of (default step * inverse Hessian matrix)
  average eigenvalue of G=  13.4631
 eigenvalue spectrum of G is 13.4631

[...]

 eigenvalue-minimisations  :  1029
 total energy-change (2. order) : 0.1236341E-05  (-0.3445167E-05)
 number of electron      18.0000000 magnetization
 augmentation part        2.9895702 magnetization

[...]

 Broyden mixing:
  rms(total) = 0.14120E-04    rms(broyden)= 0.13491E-04
  rms(prec ) = 0.26974E-04
  weight for this iteration     100.00

[...]

 Broyden mixing:
  rms(total) = 0.41329E-05    rms(broyden)= 0.96035E-06
  rms(prec ) = 0.26034E-05
  weight for this iteration     100.00
  WARNING: grid for Broyden might be to small

 eigenvalues of (default mixing * dielectric matrix)
  average eigenvalue GAMMA=   1.6428
  3.6193  3.2796  3.2796  3.2137  3.0430  2.1622  2.1622  2.9195  2.6995  2.6995
  2.7461  2.2832  2.5591  2.5591  2.4886  2.5209  1.1340  1.1340  1.2609  1.2609
  0.7654  0.8326  0.9582  0.9582  0.9108  0.9108  1.0013  1.0013  0.9502  1.0163
  0.9844  0.9844  0.9843  1.0005  1.0005  1.0010  0.9991  0.9991  1.0003  1.0000
  1.0000  1.0000  1.0000  1.0000

[...]

--------------------------------------- Iteration      4(  11)  ---------------------------------------

 eigenvalue-minimisations  :   588
 total energy-change (2. order) :-0.3210516E-09  (-0.2088272E-09)
 number of electron      18.0000000 magnetization
 augmentation part        2.9895490 magnetization

 Free energy of the ion-electron system (eV)
  alpha Z        PSCENC =        50.85004713
  Ewald energy   TEWEN  =     -1597.47192766
  -Hartree energ DENC   =      -757.33033605
  -exchange      EXHF   =         0.00000000
  -V(xc)+E(xc)   XCENC  =       -69.56448628
  PAW double counting   =      2266.11933222    -2181.89586631
  entropy T*S    EENTRO =         0.00019264
  eigenvalues    EBANDS =      -351.23229801
  atomic energy  EATOM  =      2640.52872706
  Solvation  Ediel_sol  =         0.00000000
  free energy    TOTEN  =         0.00338475 eV

  energy without entropy =        0.00319211  energy(sigma->0) =        0.00332053

 average (electrostatic) potential at core
  the test charge radii are     1.2024
  (the norm of the test charge is              1.0000)
       1-114.1554

 E-fermi :  -0.4267     XC(G=0):  -6.9742     alpha+bet : -5.8487

[...]

 k-point    35 :      -0.3333    0.4444    0.2222
  band No.  band energies     occupation
      1     -29.8153      2.00000
      2     -29.8153      2.00000
      3     -29.8147      2.00000
      4     -29.8142      2.00000
      5     -29.8134      2.00000
      6     -22.7291      2.00000
      7      -1.8033      2.00000
      8      -1.5747      2.00000
      9      -1.1320      2.00000
     10       6.4782      0.00000
     11       7.2094      0.00000
     12       7.6903      0.00000
     13       8.7739      0.00000

 soft charge-density along one line, spin component           1
         0         1         2         3         4         5         6         7         8         9
 total charge-density along one line

------------------------ aborting loop because EDIFF is reached ----------------------------------------

  FORCE on cell =-STRESS in cart. coord.  units (eV):
  Direction    XX          YY          ZZ          XY          YZ          ZX
  Alpha Z    50.85005    50.85005    50.85005
  Ewald    -532.49066  -532.49066  -532.49066     0.00000    -0.00000     0.00000
  Hartree   252.44343   252.44343   252.44343     0.00000    -0.00000     0.00000
  E(xc)    -110.40519  -110.40519  -110.40519     0.00000    -0.00000    -0.00000
  Local    -227.09971  -227.09972  -227.09972     0.00001     0.00000     0.00001
  n-local    97.94180   100.81307   102.49625     1.02182    -0.27032     2.88523
  augment    79.59483    79.59484    79.59484    -0.00001    -0.00000    -0.00000
  Kinetic   384.63470   387.00256   388.43500     0.99415    -0.00728     2.49949
  Fock        0.00000     0.00000     0.00000     0.00000     0.00000     0.00000
  Total       0.00055     0.00055     0.00055     0.00000    -0.00000     0.00000
  in kB       0.01165     0.01165     0.01165     0.00000    -0.00000     0.00000

 VOLUME and BASIS-vectors are now :
  energy-cutoff  :      600.00
  volume of cell :       75.03
      direct lattice vectors                 reciprocal lattice vectors
     4.734227569  0.000000000  0.000000000     0.211227700 -0.121952369 -0.086233347
     2.367113784  4.099961342 -0.000000000     0.000000000  0.243904739 -0.086233347
     2.367113784  1.366653781  3.865480623    -0.000000000  0.000000000  0.258700042

  length of vectors
     4.734227569  4.734227569  4.734227569     0.258700042  0.258700042  0.258700042

 FORCES acting on ions
    electron-ion (+dipol)            ewald-force                    non-local-force                 convergence-correction
   -.348E-13 0.270E-14 -.757E-13   -.205E-14 -.744E-15 -.448E-16   0.165E-23 -.579E-23 0.000E+00   -.103E-12 0.218E-12 0.238E-12
   -.348E-13 0.270E-14 -.757E-13   -.205E-14 -.744E-15 -.448E-16   0.165E-23 -.579E-23 0.000E+00   -.103E-12 0.218E-12 0.238E-12

 POSITION                                       TOTAL-FORCE (eV/Angst)
      0.00000      0.00000      0.00000         0.000000      0.000000      0.000000
    total drift:                               -0.000000      0.000000      0.000000

  FREE ENERGIE OF THE ION-ELECTRON SYSTEM (eV)
  free  energy   TOTEN  =         0.00338475 eV

  energy  without entropy=        0.00319211  energy(sigma->0) =        0.00332053

 d Force = 0.0000000E+00[ 0.000E+00, 0.000E+00]  d Energy = 0.9329091E-04-0.933E-04
 d Force = 0.0000000E+00[ 0.000E+00, 0.000E+00]  d Ewald  =-0.4614840E+01 0.461E+01

 Quasi-Newton relaxation of ions (Broydens 2nd method)
  g(Force)  = 0.000E+00   g(Stress)= 0.862E-08

 retain information from N=  1 steps
 eigenvalues of (default step * inverse Hessian matrix)
  average eigenvalue of G=  14.7082
 eigenvalue spectrum of G is 14.7082

 reached required accuracy - stopping structural energy minimisation