 vasp.5.4.4.18Apr17-6-g9f103f2a35 (build Nov 03 2018 10:20:46) complex

 executed on             LinuxIFC date 2018.12.04  09:34:30

 INCAR:
 POTCAR:    PAW_PBE Ne_GW 22Sep2014

 POTCAR:    PAW_PBE Ne_GW 22Sep2014
   VRHFIN =Ne: s2p6

   TITEL  = PAW_PBE Ne_GW 22Sep2014
   POMASS =   20.180; ZVAL   =    8.000    mass and valenz
   ENMAX  =  432.275; ENMIN  =  324.206 eV

  PAW_PBE Ne_GW 22Sep2014               :

 POSCAR: Ne_FCC
  positions in direct lattice
  velocities in cartesian coordinates
 exchange correlation table for  LEXCH =        8
   RHO(1)=    0.500       N(1)  =     2000
   RHO(2)=  100.500       N(2)  =     4000

 ion  position               nearest neighbor table
   1  0.000  0.000  0.000-

  LATTYP: Found a face centered cubic cell.
 ALAT       =     4.2061646154

  Lattice vectors:

 A1 = (   2.9742075223,   0.0000000000,   0.0000000000)
 A2 = (   1.4871037611,   2.5757392704,   0.0000000000)
 A3 = (   1.4871037611,   0.8585797568,   2.4284302730)

Analysis of symmetry for initial positions (statically):
 Subroutine PRICEL returns:
 Original cell was already a primitive cell.

 Routine SETGRP: Setting up the symmetry group for a
 face centered cubic supercell.

 Subroutine GETGRP returns: Found 48 space group operations
 (whereof 48 operations were pure point group operations)
 out of a pool of 48 trial point group operations.

The static configuration has the point symmetry O_h .

Analysis of symmetry for dynamics (positions and initial velocities):
 Subroutine PRICEL returns:
 Original cell was already a primitive cell.

 Routine SETGRP: Setting up the symmetry group for a
 face centered cubic supercell.

 Subroutine GETGRP returns: Found 48 space group operations
 (whereof 48 operations were pure point group operations)
 out of a pool of 48 trial point group operations.

The dynamic configuration has the point symmetry O_h .

 Subroutine INISYM returns: Found 48 space group operations
 (whereof 48 operations are pure point group operations),
 and found     1 'primitive' translations

Automatic generation of k-mesh.
 generate k-points for:   13   13   13
Space group operators:
 irot       det(A)        alpha          n_x          n_y          n_z        tau_x        tau_y        tau_z
    1     1.000000     0.000001     1.000000     0.000000     0.000000     0.000000     0.000000     0.000000
    2    -1.000000     0.000001     1.000000     0.000000     0.000000     0.000000     0.000000     0.000000
    3     1.000000   120.000000    -0.816497    -0.471405    -0.333333     0.000000     0.000000     0.000000
    4    -1.000000   120.000000    -0.816497    -0.471405    -0.333333     0.000000     0.000000     0.000000
    5     1.000000   120.000000     0.816497     0.471405     0.333333     0.000000     0.000000     0.000000
    6    -1.000000   120.000000     0.816497     0.471405     0.333333     0.000000     0.000000     0.000000
    7     1.000000    90.000000    -0.707107    -0.408248     0.577350     0.000000     0.000000     0.000000
    8    -1.000000    90.000000    -0.707107    -0.408248     0.577350     0.000000     0.000000     0.000000
    9     1.000000   180.000000     1.000000     0.000000    -0.000000     0.000000     0.000000     0.000000
   10    -1.000000   180.000000     1.000000     0.000000    -0.000000     0.000000     0.000000     0.000000
   11     1.000000    90.000000     0.707107    -0.408248     0.577350     0.000000     0.000000     0.000000
   12    -1.000000    90.000000     0.707107    -0.408248     0.577350     0.000000     0.000000     0.000000
   13     1.000000   180.000000     0.707107     0.408248    -0.577350     0.000000     0.000000     0.000000
   14    -1.000000   180.000000     0.707107     0.408248    -0.577350     0.000000     0.000000     0.000000
   15     1.000000   120.000000     0.816497    -0.471405    -0.333333     0.000000     0.000000     0.000000
   16    -1.000000   120.000000     0.816497    -0.471405    -0.333333     0.000000     0.000000     0.000000
   17     1.000000   120.000000     0.000000    -0.942809     0.333333     0.000000     0.000000     0.000000
   18    -1.000000   120.000000     0.000000    -0.942809     0.333333     0.000000     0.000000     0.000000
   19     1.000000    90.000000     0.707107     0.408248    -0.577350     0.000000     0.000000     0.000000
   20    -1.000000    90.000000     0.707107     0.408248    -0.577350     0.000000     0.000000     0.000000
   21     1.000000    90.000000    -0.000000    -0.816497    -0.577350     0.000000     0.000000     0.000000
   22    -1.000000    90.000000    -0.000000    -0.816497    -0.577350     0.000000     0.000000     0.000000
   23     1.000000   180.000000     0.500000     0.866025     0.000000     0.000000     0.000000     0.000000
   24    -1.000000   180.000000     0.500000     0.866025     0.000000     0.000000     0.000000     0.000000
   25     1.000000   120.000000     0.000000     0.942809    -0.333333     0.000000     0.000000     0.000000
   26    -1.000000   120.000000     0.000000     0.942809    -0.333333     0.000000     0.000000     0.000000
   27     1.000000   120.000000    -0.000000     0.000000    -1.000000     0.000000     0.000000     0.000000
   28    -1.000000   120.000000    -0.000000     0.000000    -1.000000     0.000000     0.000000     0.000000
   29     1.000000   180.000000     0.000000    -0.816497    -0.577350     0.000000     0.000000     0.000000
   30    -1.000000   180.000000     0.000000    -0.816497    -0.577350     0.000000     0.000000     0.000000
   31     1.000000    90.000000    -0.707107     0.408248    -0.577350     0.000000     0.000000     0.000000
   32    -1.000000    90.000000    -0.707107     0.408248    -0.577350     0.000000     0.000000     0.000000
   33     1.000000   179.999999    -0.500000    -0.288675    -0.816497     0.000000     0.000000     0.000000
   34    -1.000000   179.999999    -0.500000    -0.288675    -0.816497     0.000000     0.000000     0.000000
   35     1.000000    90.000000    -0.000000     0.816497     0.577350     0.000000     0.000000     0.000000
   36    -1.000000    90.000000    -0.000000     0.816497     0.577350     0.000000     0.000000     0.000000
   37     1.000000   120.000000    -0.816497     0.471405     0.333333     0.000000     0.000000     0.000000
   38    -1.000000   120.000000    -0.816497     0.471405     0.333333     0.000000     0.000000     0.000000
   39     1.000000   179.999999    -0.707107     0.408248    -0.577350     0.000000     0.000000     0.000000
   40    -1.000000   179.999999    -0.707107     0.408248    -0.577350     0.000000     0.000000     0.000000
   41     1.000000   120.000000    -0.000000    -0.000000     1.000000     0.000000     0.000000     0.000000
   42    -1.000000   120.000000    -0.000000    -0.000000     1.000000     0.000000     0.000000     0.000000
   43     1.000000   180.000000     0.000000    -0.577350     0.816497     0.000000     0.000000     0.000000
   44    -1.000000   180.000000     0.000000    -0.577350     0.816497     0.000000     0.000000     0.000000
   45     1.000000   180.000000    -0.500000     0.866025     0.000000     0.000000     0.000000     0.000000
   46    -1.000000   180.000000    -0.500000     0.866025     0.000000     0.000000     0.000000     0.000000
   47     1.000000   180.000000    -0.500000     0.288675     0.816497     0.000000     0.000000     0.000000
   48    -1.000000   180.000000    -0.500000     0.288675     0.816497     0.000000     0.000000     0.000000

 Subroutine IBZKPT returns following result:

 Found     84 irreducible k-points:

 Following reciprocal coordinates:
            Coordinates               Weight
  0.000000  0.000000  0.000000      1.000000
  0.076923  0.000000  0.000000      8.000000
  0.153846  0.000000  0.000000      8.000000
  0.230769  0.000000  0.000000      8.000000
  0.307692  0.000000  0.000000      8.000000
  0.384615  0.000000  0.000000      8.000000
  0.461538  0.000000  0.000000      8.000000
  0.076923  0.076923  0.000000      6.000000
  0.153846  0.076923  0.000000     24.000000
  0.230769  0.076923  0.000000     24.000000
  0.307692  0.076923  0.000000     24.000000
  0.384615  0.076923  0.000000     24.000000
  0.461538  0.076923  0.000000     24.000000
 -0.461538  0.076923 -0.000000     24.000000
 -0.384615  0.076923  0.000000     24.000000
 -0.307692  0.076923 -0.000000     24.000000
 -0.230769  0.076923 -0.000000     24.000000
 -0.153846  0.076923 -0.000000     24.000000
 -0.076923  0.076923 -0.000000     12.000000
  0.153846  0.153846  0.000000      6.000000
  0.230769  0.153846 -0.000000     24.000000
  0.307692  0.153846  0.000000     24.000000
  0.384615  0.153846 -0.000000     24.000000
  0.461538  0.153846  0.000000     24.000000
 -0.461538  0.153846 -0.000000     24.000000
 -0.384615  0.153846 -0.000000     24.000000
 -0.307692  0.153846 -0.000000     24.000000
 -0.230769  0.153846 -0.000000     24.000000
 -0.153846  0.153846 -0.000000     12.000000
  0.230769  0.230769  0.000000      6.000000
  0.307692  0.230769  0.000000     24.000000
  0.384615  0.230769  0.000000     24.000000
  0.461538  0.230769  0.000000     24.000000
 -0.461538  0.230769  0.000000     24.000000
 -0.384615  0.230769  0.000000     24.000000
 -0.307692  0.230769 -0.000000     24.000000
 -0.230769  0.230769 -0.000000     12.000000
  0.307692  0.307692 -0.000000      6.000000
  0.384615  0.307692 -0.000000     24.000000
  0.461538  0.307692  0.000000     24.000000
 -0.461538  0.307692 -0.000000     24.000000
 -0.384615  0.307692 -0.000000     24.000000
 -0.307692  0.307692 -0.000000     12.000000
  0.384615  0.384615  0.000000      6.000000
  0.461538  0.384615  0.000000     24.000000
 -0.461538  0.384615 -0.000000     24.000000
 -0.384615  0.384615 -0.000000     12.000000
  0.461538  0.461538  0.000000      6.000000
 -0.461538  0.461538 -0.000000     12.000000
  0.230769  0.153846  0.076923     24.000000
  0.307692  0.153846  0.076923     48.000000
  0.384615  0.153846  0.076923     48.000000
  0.461538  0.153846  0.076923     48.000000
 -0.461538  0.153846  0.076923     48.000000
  0.307692  0.230769  0.076923     24.000000
  0.384615  0.230769  0.076923     48.000000
  0.461538  0.230769  0.076923     48.000000
 -0.461538  0.230769  0.076923     48.000000
 -0.384615  0.230769  0.076923     48.000000
 -0.307692  0.230769  0.076923     48.000000
[...]
 -0.461538  0.384615  0.076923     48.000000
 -0.384615  0.384615  0.076923     48.000000
 -0.307692  0.384615  0.076923     24.000000
 -0.461538  0.461538  0.076923     24.000000
 -0.384615  0.461538  0.076923     24.000000
  0.461538  0.307692  0.153846     24.000000
 -0.461538  0.307692  0.153846     48.000000
 -0.384615  0.307692  0.153846     48.000000
 -0.461538  0.384615  0.153846     24.000000
 -0.384615  0.384615  0.153846     48.000000
 -0.307692  0.384615  0.153846     48.000000
 -0.230769  0.384615  0.153846     24.000000
 -0.384615  0.461538  0.153846     24.000000
 -0.307692  0.461538  0.153846     24.000000
 -0.307692  0.461538  0.230769     24.000000

 Following cartesian coordinates:
            Coordinates               Weight
  0.000000  0.000000  0.000000      1.000000
[...]
  -0.38461538  0.46153846  0.15384615       0.011
  -0.30769231  0.46153846  0.15384615       0.011
  -0.30769231  0.46153846  0.23076923       0.011

 position of ions in fractional coordinates (direct lattice)
   0.00000000  0.00000000  0.00000000

 position of ions in cartesian coordinates  (Angst):
   0.00000000  0.00000000  0.00000000

 k-point  1 :   0.0000 0.0000 0.0000  plane waves:     609
 k-point  2 :   0.0769 0.0000 0.0000  plane waves:     615
 k-point  3 :   0.1538 0.0000 0.0000  plane waves:     610
 k-point  4 :   0.2308 0.0000 0.0000  plane waves:     616
 k-point  5 :   0.3077 0.0000 0.0000  plane waves:     613
 k-point  6 :   0.3846 0.0000 0.0000  plane waves:     610
 k-point  7 :   0.4615 0.0000 0.0000  plane waves:     619
 k-point  8 :   0.0769 0.0769 0.0000  plane waves:     617
 k-point  9 :   0.1538 0.0769 0.0000  plane waves:     612
 k-point 10 :   0.2308 0.0769 0.0000  plane waves:     615
 k-point 11 :   0.3077 0.0769 0.0000  plane waves:     618
 k-point 12 :   0.3846 0.0769 0.0000  plane waves:     613
 k-point 13 :   0.4615 0.0769 0.0000  plane waves:     616
 k-point 14 :  -0.4615 0.0769-0.0000  plane waves:     616
 k-point 15 :  -0.3846 0.0769 0.0000  plane waves:     611
 k-point 16 :  -0.3077 0.0769-0.0000  plane waves:     616
 k-point 17 :  -0.2308 0.0769-0.0000  plane waves:     615
 k-point 18 :  -0.1538 0.0769-0.0000  plane waves:     610
 k-point 19 :  -0.0769 0.0769-0.0000  plane waves:     616
 k-point 20 :   0.1538 0.1538 0.0000  plane waves:     605
 k-point 21 :   0.2308 0.1538-0.0000  plane waves:     613
 k-point 22 :   0.3077 0.1538 0.0000  plane waves:     610
 k-point 23 :   0.3846 0.1538-0.0000  plane waves:     617
 k-point 24 :   0.4615 0.1538 0.0000  plane waves:     615
 k-point 25 :  -0.4615 0.1538-0.0000  plane waves:     616
 k-point 26 :  -0.3846 0.1538-0.0000  plane waves:     620
 k-point 27 :  -0.3077 0.1538-0.0000  plane waves:     619
 k-point 28 :  -0.2308 0.1538-0.0000  plane waves:     618
 k-point 29 :  -0.1538 0.1538-0.0000  plane waves:     616
 k-point 30 :   0.2308 0.2308 0.0000  plane waves:     612
 k-point 31 :   0.3077 0.2308 0.0000  plane waves:     616
 k-point 32 :   0.3846 0.2308 0.0000  plane waves:     621
 k-point 33 :   0.4615 0.2308 0.0000  plane waves:     620
 k-point 34 :  -0.4615 0.2308 0.0000  plane waves:     626
 k-point 35 :  -0.3846 0.2308 0.0000  plane waves:     626
 k-point 36 :  -0.3077 0.2308-0.0000  plane waves:     623
 k-point 37 :  -0.2308 0.2308-0.0000  plane waves:     624
 k-point 38 :   0.3077 0.3077-0.0000  plane waves:     624
 k-point 39 :   0.3846 0.3077-0.0000  plane waves:     624
 k-point 40 :   0.4615 0.3077 0.0000  plane waves:     629
 k-point 41 :  -0.4615 0.3077-0.0000  plane waves:     625
 k-point 42 :  -0.3846 0.3077-0.0000  plane waves:     628
 k-point 43 :  -0.3077 0.3077-0.0000  plane waves:     618
 k-point 44 :   0.3846 0.3846 0.0000  plane waves:     628
 k-point 45 :   0.4615 0.3846 0.0000  plane waves:     620
 k-point 46 :  -0.4615 0.3846-0.0000  plane waves:     626
 k-point 47 :  -0.3846 0.3846-0.0000  plane waves:     626
 k-point 48 :   0.4615 0.4615 0.0000  plane waves:     628
 k-point 49 :  -0.4615 0.4615-0.0000  plane waves:     632
 k-point 50 :   0.2308 0.1538 0.0769  plane waves:     612
 k-point 51 :   0.3077 0.1538 0.0769  plane waves:     617
 k-point 52 :   0.3846 0.1538 0.0769  plane waves:     620
 k-point 53 :   0.4615 0.1538 0.0769  plane waves:     616
 k-point 54 :  -0.4615 0.1538 0.0769  plane waves:     616
 k-point 55 :   0.3077 0.2308 0.0769  plane waves:     615
 k-point 56 :   0.3846 0.2308 0.0769  plane waves:     621
 k-point 57 :   0.4615 0.2308 0.0769  plane waves:     617
 k-point 58 :  -0.4615 0.2308 0.0769  plane waves:     622
 k-point 59 :  -0.3846 0.2308 0.0769  plane waves:     624
 k-point 60 :  -0.3077 0.2308 0.0769  plane waves:     620
[...]
 k-point 70 :  -0.4615 0.3846 0.0769  plane waves:     628
 k-point 71 :  -0.3846 0.3846 0.0769  plane waves:     626
 k-point 72 :  -0.3077 0.3846 0.0769  plane waves:     624
 k-point 73 :  -0.4615 0.4615 0.0769  plane waves:     623
 k-point 74 :  -0.3846 0.4615 0.0769  plane waves:     623
 k-point 75 :   0.4615 0.3077 0.1538  plane waves:     623
 k-point 76 :  -0.4615 0.3077 0.1538  plane waves:     629
 k-point 77 :  -0.3846 0.3077 0.1538  plane waves:     622
 k-point 78 :  -0.4615 0.3846 0.1538  plane waves:     627
 k-point 79 :  -0.3846 0.3846 0.1538  plane waves:     632
 k-point 80 :  -0.3077 0.3846 0.1538  plane waves:     629
 k-point 81 :  -0.2308 0.3846 0.1538  plane waves:     627
 k-point 82 :  -0.3846 0.4615 0.1538  plane waves:     630
 k-point 83 :  -0.3077 0.4615 0.1538  plane waves:     621
 k-point 84 :  -0.3077 0.4615 0.2308  plane waves:     624

 maximum and minimum number of plane-waves per node :       319      301

 maximum number of plane-waves:       632
 maximum index in each direction:
   IXMAX=    6   IYMAX=    5   IZMAX=    5
   IXMIN=   -6   IYMIN=   -6   IZMIN=   -6

 parallel 3D FFT for wavefunctions:
    minimum data exchange during FFTs selected (reduces bandwidth)
 parallel 3D FFT for charge:
    minimum data exchange during FFTs selected (reduces bandwidth)

 Broyden mixing: mesh for mixing (old mesh)
   NGX = 11   NGY = 11   NGZ = 11
  (NGX  = 48   NGY  = 48   NGZ  = 48)
  gives a total of   1331 points

 initial charge density was supplied:
 charge density of overlapping atoms calculated
 number of electron       8.0000000 magnetization
 keeping initial charge density in first step

 Maximum index for augmentation-charges        57137 (set IRDMAX)

 First call to EWALD:  gamma=   0.669
 Maximum number of real-space cells 3x 3x 3
 Maximum number of reciprocal cells 3x 3x 3

--------------------------------------- Iteration      1(   1)  ---------------------------------------

 eigenvalue-minimisations  :  1360
 total energy-change (2. order) : 0.4186341E+02  (-0.4741624E+03)
 number of electron       8.0000000 magnetization
 augmentation part        8.0000000 magnetization

 Free energy of the ion-electron system (eV)
  alpha Z        PSCENC =        16.68393133
  Ewald energy   TEWEN  =      -502.28020316
  -Hartree energ DENC   =      -334.16601662
  -exchange      EXHF   =         0.00000000
  -V(xc)+E(xc)   XCENC  =        45.57868902
  PAW double counting   =       753.58259359     -802.54577275
  entropy T*S    EENTRO =        -0.00006341
  eigenvalues    EBANDS =       -90.29045674
  atomic energy  EATOM  =       955.30070756
  Solvation  Ediel_sol  =         0.00000000
  free energy    TOTEN  =        41.86340882 eV

  energy without entropy =       41.86347222  energy(sigma->0) =       41.86342995

[...]

 eigenvalue-minimisations  :  1456
 total energy-change (2. order) :-0.4114118E+02  (-0.3790146E+02)
 number of electron       8.0000000 magnetization
 augmentation part        8.0000000 magnetization

[...]

 Broyden mixing:
  rms(total) = 0.22163E-01    rms(broyden)= 0.21099E-01
  rms(prec ) = 0.27655E-01
  weight for this iteration     100.00

[...]

 eigenvalues of (default mixing * dielectric matrix)
  average eigenvalue GAMMA=   2.2501
  2.2501

[...]

 Broyden mixing:
  rms(total) = 0.29574E-04    rms(broyden)= 0.26347E-04
  rms(prec ) = 0.86540E-04
  weight for this iteration     100.00
  WARNING: grid for Broyden might be to small

[...]

 Broyden mixing:
  rms(total) = 0.56584E-05    rms(broyden)= 0.48221E-05
  rms(prec ) = 0.88409E-05
  weight for this iteration     100.00
  WARNING: grid for Broyden might be to small

[...]

 average (electrostatic) potential at core
  the test charge radii are     0.8311
  (the norm of the test charge is              1.0000)
       1 -70.3475

 E-fermi : -10.3285     XC(G=0):  -7.1111     alpha+bet : -2.5602

 k-point     1 :       0.0000    0.0000    0.0000
  band No.  band energies     occupation
      1     -33.9529      2.00000
      2     -10.3387      1.33654
      3     -10.3387      1.33653
      4     -10.3387      1.33653
      5       1.5030      0.00000
      6      20.9409      0.00000
      7      20.9409      0.00000
      8      20.9409      0.00000

[...]

 soft charge-density along one line, spin component           1
         0         1         2         3         4         5         6         7         8         9
 total charge-density along one line

------------------------ aborting loop because EDIFF is reached ----------------------------------------

         DFTD3 V3.0 Rev 1
 IVDW         = 12
 DF pbe
 parameters
 VDW_S6       =    1.0000
 VDW_S8       =    0.7875
 VDW_A1       =    0.4289
 VDW_A2       =    4.4407
 k1-k3        =   16.0000    1.3333   -4.0000
 VDW_RADIUS   =   50.2022 A
 VDW_CNRADIUS =   21.1671 A
 Edisp (eV)   -0.02364

 E6    (eV) :    -0.0187
 E8    (eV) :    -0.0049
 % E8        : 20.79

  FORCE on cell =-STRESS in cart. coord.  units (eV):
  Direction    XX          YY          ZZ          XY          YZ          ZX
  Alpha Z    16.68393    16.68393    16.68393
  Ewald    -167.42674  -167.42674  -167.42674    -0.00000    -0.00000     0.00000
  Hartree   111.39895   111.39895   111.39895     0.00000    -0.00000     0.00000
  E(xc)     -49.15350   -49.15350   -49.15350    -0.00000     0.00000    -0.00000
  Local     -76.94350   -76.94350   -76.94350     0.00000     0.00000     0.00000
  n-local   -60.93980   -61.30988   -61.47318    -0.13053     0.05923    -0.32540
  augment    49.32700    49.32700    49.32700    -0.00000    -0.00000    -0.00000
  Kinetic   175.97595   177.71129   178.49909     0.64811    -0.20335     1.56765
  Fock        0.00000     0.00000     0.00000     0.00000     0.00000     0.00000
  vdW        -0.02684    -0.02684    -0.02684    -0.00000    -0.00000     0.00000
  Total       0.01379     0.01379     0.01379    -0.00000    -0.00000    -0.00000
  in kB       1.18722     1.18722     1.18722    -0.00000    -0.00000    -0.00000

 VOLUME and BASIS-vectors are now :
  energy-cutoff  :      600.00
  volume of cell :       18.60
      direct lattice vectors                 reciprocal lattice vectors
     2.974207522  0.000000000  0.000000000     0.336224017 -0.194119027 -0.137262880
     1.487103761  2.575739270  0.000000000     0.000000000  0.388238053 -0.137262880
     1.487103761  0.858579757  2.428430273     0.000000000  0.000000000  0.411788640

[...]

 FORCES acting on ions
    electron-ion (+dipol)            ewald-force                    non-local-force                 convergence-correction
   0.185E-13 0.347E-13 -.243E-15   0.287E-15 -.515E-16 -.237E-15   0.103E-23 -.750E-24 0.000E+00   0.178E-13 0.203E-13 -.325E-14
   0.185E-13 0.347E-13 -.243E-15   0.287E-15 -.515E-16 -.237E-15   0.103E-23 -.750E-24 0.000E+00   0.178E-13 0.203E-13 -.325E-14

 POSITION                                       TOTAL-FORCE (eV/Angst)
      0.00000      0.00000      0.00000        -0.000000      0.000000      0.000000
    total drift:                                0.000000      0.000000     -0.000000

  FREE ENERGIE OF THE ION-ELECTRON SYSTEM (eV)
  free  energy   TOTEN  =        -0.04234810 eV

  energy  without entropy=       -0.04329410  energy(sigma->0) =       -0.04266344

 Quasi-Newton relaxation of ions (Broydens 2nd method)
  g(Force)  = 0.000E+00   g(Stress)= 0.550E-05

 Reset! Starting new Quasi-Newton update for ions

[...]

 eigenvalue-minimisations  :  1344
 total energy-change (2. order) :-0.3150298E-04  (-0.5305823E-04)
 number of electron       8.0000000 magnetization
 augmentation part        2.2995885 magnetization

[...]

 Broyden mixing:
  rms(total) = 0.10236E-04    rms(broyden)= 0.10131E-04
  rms(prec ) = 0.24683E-04
  weight for this iteration     100.00

 eigenvalues of (default mixing * dielectric matrix)
  average eigenvalue GAMMA=   1.8713
  1.1526  0.9421  0.9748  1.0252  1.0252  2.8569  2.6806  2.5578  2.4702  2.4702
  2.4287

[...]

--------------------------------------- Iteration      2(   6)  ---------------------------------------

 eigenvalue-minimisations  :   680
 total energy-change (2. order) : 0.6823984E-07  (-0.1211006E-09)
 number of electron       8.0000000 magnetization
 augmentation part        2.2989983 magnetization

 Free energy of the ion-electron system (eV)
  alpha Z        PSCENC =        16.67727575
  Ewald energy   TEWEN  =      -502.21340416
  -Hartree energ DENC   =      -334.24869117
  -exchange      EXHF   =         0.00000000
  -V(xc)+E(xc)   XCENC  =        45.58186804
  PAW double counting   =       759.20545418     -808.28677721
  entropy T*S    EENTRO =         0.00094730
  eigenvalues    EBANDS =      -132.03610828
  atomic energy  EATOM  =       955.30070756
  Solvation  Ediel_sol  =         0.00000000
  free energy    TOTEN  =        -0.01872799 eV

  energy without entropy =       -0.01967529  energy(sigma->0) =       -0.01904375

 average (electrostatic) potential at core
  the test charge radii are     0.8311
  (the norm of the test charge is              1.0000)
       1 -70.3485

 E-fermi : -10.3299     XC(G=0):  -7.1095     alpha+bet : -2.5592

[...]

 k-point    84 :      -0.3077    0.4615    0.2308
  band No.  band energies     occupation
      1     -33.7621      2.00000
      2     -10.9924      2.00000
      3     -10.9031      2.00000
      4     -10.6611      2.00000
      5       9.4696      0.00000
      6      11.1161      0.00000
      7      11.2445      0.00000
      8      15.5618      0.00000

 soft charge-density along one line, spin component           1
         0         1         2         3         4         5         6         7         8         9
 total charge-density along one line

------------------------ aborting loop because EDIFF is reached ----------------------------------------

         DFTD3 V3.0 Rev 1
 Edisp (eV)   -0.02363

 E6    (eV) :    -0.0187
 E8    (eV) :    -0.0049
 % E8        : 20.79

  FORCE on cell =-STRESS in cart. coord.  units (eV):
  Direction    XX          YY          ZZ          XY          YZ          ZX
  Alpha Z    16.67728    16.67728    16.67728
  Ewald    -167.40447  -167.40447  -167.40447    -0.00000    -0.00000    -0.00000
  Hartree   111.41603   111.41603   111.41603     0.00000    -0.00000     0.00000
  E(xc)     -49.15347   -49.15347   -49.15346    -0.00000     0.00000    -0.00000
  Local     -76.97625   -76.97625   -76.97626     0.00000     0.00000     0.00000
  n-local   -60.93920   -61.30909   -61.47232    -0.13046     0.05921    -0.32523
  augment    49.32699    49.32700    49.32700    -0.00000    -0.00000    -0.00000
  Kinetic   175.97593   177.71041   178.49786     0.64777    -0.20333     1.56689
  Fock        0.00000     0.00000     0.00000     0.00000     0.00000     0.00000
  vdW        -0.02683    -0.02683    -0.02683    -0.00000    -0.00000     0.00000
  Total       0.01381     0.01381     0.01381     0.00000    -0.00000    -0.00000
  in kB       1.18876     1.18876     1.18876     0.00000    -0.00000    -0.00000

 VOLUME and BASIS-vectors are now :
  energy-cutoff  :      600.00
  volume of cell :       18.61
      direct lattice vectors                 reciprocal lattice vectors
     2.974603119  0.000000000  0.000000000     0.336179302 -0.194093210 -0.137244625
     1.487301560  2.576081867  0.000000000     0.000000000  0.388186421 -0.137244625
     1.487301560  0.858693956  2.428753277     0.000000000  0.000000000  0.411733876

  length of vectors
     2.974603119  2.974603119  2.974603119     0.411733876  0.411733876  0.411733876

 FORCES acting on ions
    electron-ion (+dipol)            ewald-force                    non-local-force                 convergence-correction
   0.194E-13 0.356E-13 -.598E-15   0.212E-15 0.546E-15 0.124E-14   -.658E-24 0.113E-25 0.000E+00   -.943E-13 0.168E-12 -.170E-12
   0.194E-13 0.356E-13 -.598E-15   0.212E-15 0.546E-15 0.124E-14   -.658E-24 0.113E-25 0.000E+00   -.943E-13 0.168E-12 -.170E-12

 POSITION                                       TOTAL-FORCE (eV/Angst)
      0.00000      0.00000      0.00000        -0.000000      0.000000      0.000000
    total drift:                               -0.000000      0.000000     -0.000000

  FREE ENERGIE OF THE ION-ELECTRON SYSTEM (eV)
  free  energy   TOTEN  =        -0.04235363 eV

  energy  without entropy=       -0.04330093  energy(sigma->0) =       -0.04266940

 d Force = 0.0000000E+00[ 0.000E+00, 0.000E+00]  d Energy = 0.5527790E-05-0.553E-05
 d Force = 0.0000000E+00[ 0.000E+00, 0.000E+00]  d Ewald  =-0.6679899E-01 0.668E-01

 Quasi-Newton relaxation of ions (Broydens 2nd method)
  g(Force)  = 0.000E+00   g(Stress)= 0.552E-05

 retain information from N=  1 steps
 eigenvalues of (default step * inverse Hessian matrix)
  average eigenvalue of G= 546.1036
 eigenvalue spectrum of G is546.1036

 reached required accuracy - stopping structural energy minimisation