 vasp.5.4.4.18Apr17-6-g9f103f2a35 (build Nov 03 2018 10:20:46) complex

 executed on             LinuxIFC date 2018.12.03  15:19:49

 INCAR:
 POTCAR:    PAW_PBE Rn_d_GW 14Apr2014

 POTCAR:    PAW_PBE Rn_d_GW 14Apr2014
   VRHFIN =Rn:

   TITEL  = PAW_PBE Rn_d_GW 14Apr2014
   POMASS =  220.170; ZVAL   =   18.000    mass and valenz
   ENMAX  =  268.495; ENMIN  =  201.371 eV

  PAW_PBE Rn_d_GW 14Apr2014             :

 POSCAR: Rn_FCC
  positions in direct lattice
  velocities in cartesian coordinates

 METAGGA = SCAN     LMAXTAU =  0    LMIXTAU =  F

 ion  position               nearest neighbor table
   1  0.000  0.000  0.000-

  LATTYP: Found a face centered cubic cell.
 ALAT       =     6.3969881932

  Lattice vectors:

 A1 = (   4.5233537305,   0.0000000000,   0.0000000000)
 A2 = (   2.2616768652,   3.9173392408,  -0.0000000000)
 A3 = (   2.2616768652,   1.3057797469,   3.6933028554)

Analysis of symmetry for initial positions (statically):
 Subroutine PRICEL returns:
 Original cell was already a primitive cell.

 Routine SETGRP: Setting up the symmetry group for a
 face centered cubic supercell.

 Subroutine GETGRP returns: Found 48 space group operations
 (whereof 48 operations were pure point group operations)
 out of a pool of 48 trial point group operations.

The static configuration has the point symmetry O_h .

Analysis of symmetry for dynamics (positions and initial velocities):
 Subroutine PRICEL returns:
 Original cell was already a primitive cell.

 Routine SETGRP: Setting up the symmetry group for a
 face centered cubic supercell.

 Subroutine GETGRP returns: Found 48 space group operations
 (whereof 48 operations were pure point group operations)
 out of a pool of 48 trial point group operations.

The dynamic configuration has the point symmetry O_h .

 Subroutine INISYM returns: Found 48 space group operations
 (whereof 48 operations are pure point group operations),
 and found     1 'primitive' translations

Automatic generation of k-mesh.
 generate k-points for:    9    9    9
Space group operators:
 irot       det(A)        alpha          n_x          n_y          n_z        tau_x        tau_y        tau_z
    1     1.000000     0.000000     1.000000     0.000000     0.000000     0.000000     0.000000     0.000000
    2    -1.000000     0.000000     1.000000     0.000000     0.000000     0.000000     0.000000     0.000000
    3     1.000000   120.000000    -0.816497    -0.471405    -0.333333     0.000000     0.000000     0.000000
    4    -1.000000   120.000000    -0.816497    -0.471405    -0.333333     0.000000     0.000000     0.000000
    5     1.000000   120.000000     0.816497     0.471405     0.333333     0.000000     0.000000     0.000000
    6    -1.000000   120.000000     0.816497     0.471405     0.333333     0.000000     0.000000     0.000000
    7     1.000000    90.000000    -0.707107    -0.408248     0.577350     0.000000     0.000000     0.000000
    8    -1.000000    90.000000    -0.707107    -0.408248     0.577350     0.000000     0.000000     0.000000
    9     1.000000   180.000000     1.000000     0.000000     0.000000     0.000000     0.000000     0.000000
   10    -1.000000   180.000000     1.000000     0.000000     0.000000     0.000000     0.000000     0.000000
   11     1.000000    90.000000     0.707107    -0.408248     0.577350     0.000000     0.000000     0.000000
   12    -1.000000    90.000000     0.707107    -0.408248     0.577350     0.000000     0.000000     0.000000
   13     1.000000   180.000000     0.707107     0.408248    -0.577350     0.000000     0.000000     0.000000
   14    -1.000000   180.000000     0.707107     0.408248    -0.577350     0.000000     0.000000     0.000000
   15     1.000000   120.000000     0.816497    -0.471405    -0.333333     0.000000     0.000000     0.000000
   16    -1.000000   120.000000     0.816497    -0.471405    -0.333333     0.000000     0.000000     0.000000
   17     1.000000   120.000000     0.000000    -0.942809     0.333333     0.000000     0.000000     0.000000
   18    -1.000000   120.000000     0.000000    -0.942809     0.333333     0.000000     0.000000     0.000000
   19     1.000000    90.000000     0.707107     0.408248    -0.577350     0.000000     0.000000     0.000000
   20    -1.000000    90.000000     0.707107     0.408248    -0.577350     0.000000     0.000000     0.000000
   21     1.000000    90.000000    -0.000000    -0.816497    -0.577350     0.000000     0.000000     0.000000
   22    -1.000000    90.000000    -0.000000    -0.816497    -0.577350     0.000000     0.000000     0.000000
   23     1.000000   180.000000     0.500000     0.866025     0.000000     0.000000     0.000000     0.000000
   24    -1.000000   180.000000     0.500000     0.866025     0.000000     0.000000     0.000000     0.000000
   25     1.000000   120.000000     0.000000     0.942809    -0.333333     0.000000     0.000000     0.000000
   26    -1.000000   120.000000     0.000000     0.942809    -0.333333     0.000000     0.000000     0.000000
   27     1.000000   120.000000    -0.000000     0.000000    -1.000000     0.000000     0.000000     0.000000
   28    -1.000000   120.000000    -0.000000     0.000000    -1.000000     0.000000     0.000000     0.000000
   29     1.000000   180.000000    -0.000000     0.816497     0.577350     0.000000     0.000000     0.000000
   30    -1.000000   180.000000    -0.000000     0.816497     0.577350     0.000000     0.000000     0.000000
   31     1.000000    90.000000    -0.707107     0.408248    -0.577350     0.000000     0.000000     0.000000
   32    -1.000000    90.000000    -0.707107     0.408248    -0.577350     0.000000     0.000000     0.000000
   33     1.000000   180.000000     0.500000     0.288675     0.816497     0.000000     0.000000     0.000000
   34    -1.000000   180.000000     0.500000     0.288675     0.816497     0.000000     0.000000     0.000000
   35     1.000000    90.000000    -0.000000     0.816497     0.577350     0.000000     0.000000     0.000000
   36    -1.000000    90.000000    -0.000000     0.816497     0.577350     0.000000     0.000000     0.000000
   37     1.000000   120.000000    -0.816497     0.471405     0.333333     0.000000     0.000000     0.000000
   38    -1.000000   120.000000    -0.816497     0.471405     0.333333     0.000000     0.000000     0.000000
   39     1.000000   180.000000     0.707107    -0.408248     0.577350     0.000000     0.000000     0.000000
   40    -1.000000   180.000000     0.707107    -0.408248     0.577350     0.000000     0.000000     0.000000
   41     1.000000   120.000000    -0.000000    -0.000000     1.000000     0.000000     0.000000     0.000000
   42    -1.000000   120.000000    -0.000000    -0.000000     1.000000     0.000000     0.000000     0.000000
   43     1.000000   180.000000     0.000000     0.577350    -0.816497     0.000000     0.000000     0.000000
   44    -1.000000   180.000000     0.000000     0.577350    -0.816497     0.000000     0.000000     0.000000
   45     1.000000   180.000000    -0.500000     0.866025     0.000000     0.000000     0.000000     0.000000
   46    -1.000000   180.000000    -0.500000     0.866025     0.000000     0.000000     0.000000     0.000000
   47     1.000000   180.000000    -0.500000     0.288675     0.816497     0.000000     0.000000     0.000000
   48    -1.000000   180.000000    -0.500000     0.288675     0.816497     0.000000     0.000000     0.000000

 Subroutine IBZKPT returns following result:

 Found     35 irreducible k-points:

 Following reciprocal coordinates:
            Coordinates               Weight
  0.000000  0.000000  0.000000      1.000000
  0.111111  0.000000  0.000000      8.000000
  0.222222  0.000000 -0.000000      8.000000
  0.333333  0.000000  0.000000      8.000000
  0.444444  0.000000 -0.000000      8.000000
  0.111111  0.111111  0.000000      6.000000
  0.222222  0.111111  0.000000     24.000000
  0.333333  0.111111  0.000000     24.000000
  0.444444  0.111111 -0.000000     24.000000
 -0.444444  0.111111 -0.000000     24.000000
 -0.333333  0.111111 -0.000000     24.000000
 -0.222222  0.111111  0.000000     24.000000
 -0.111111  0.111111 -0.000000     12.000000
  0.222222  0.222222  0.000000      6.000000
  0.333333  0.222222  0.000000     24.000000
  0.444444  0.222222  0.000000     24.000000
 -0.444444  0.222222  0.000000     24.000000
 -0.333333  0.222222 -0.000000     24.000000
 -0.222222  0.222222 -0.000000     12.000000
  0.333333  0.333333  0.000000      6.000000
  0.444444  0.333333  0.000000     24.000000
 -0.444444  0.333333  0.000000     24.000000
 -0.333333  0.333333 -0.000000     12.000000
  0.444444  0.444444  0.000000      6.000000
 -0.444444  0.444444 -0.000000     12.000000
  0.333333  0.222222  0.111111     24.000000
  0.444444  0.222222  0.111111     48.000000
 -0.444444  0.222222  0.111111     48.000000
  0.444444  0.333333  0.111111     24.000000
 -0.444444  0.333333  0.111111     48.000000
 -0.333333  0.333333  0.111111     48.000000
 -0.222222  0.333333  0.111111     24.000000
 -0.444444  0.444444  0.111111     24.000000
 -0.333333  0.444444  0.111111     24.000000
 -0.333333  0.444444  0.222222     24.000000

 Following cartesian coordinates:
            Coordinates               Weight
  0.000000  0.000000  0.000000      1.000000
  0.024564 -0.014182 -0.010028      8.000000
  0.049128 -0.028364 -0.020056      8.000000
  0.073692 -0.042546 -0.030084      8.000000
  0.098256 -0.056728 -0.040113      8.000000
  0.024564  0.014182 -0.020056      6.000000
  0.049128 -0.000000 -0.030084     24.000000
  0.073692 -0.014182 -0.040113     24.000000
  0.098256 -0.028364 -0.050141     24.000000
 -0.098256  0.085092  0.030084     24.000000
 -0.073692  0.070910  0.020056     24.000000
 -0.049128  0.056728  0.010028     24.000000
 -0.024564  0.042546  0.000000     12.000000
  0.049128  0.028364 -0.040113      6.000000
  0.073692  0.014182 -0.050141     24.000000
  0.098256  0.000000 -0.060169     24.000000
 -0.098256  0.113456  0.020056     24.000000
 -0.073692  0.099274  0.010028     24.000000
 -0.049128  0.085092  0.000000     12.000000
  0.073692  0.042546 -0.060169      6.000000
  0.098256  0.028364 -0.070197     24.000000
 -0.098256  0.141820  0.010028     24.000000
 -0.073692  0.127638  0.000000     12.000000
  0.098256  0.056728 -0.080225      6.000000
 -0.098256  0.170184  0.000000     12.000000
  0.073692  0.014182 -0.020056     24.000000
  0.098256  0.000000 -0.030084     48.000000
 -0.098256  0.113456  0.050141     48.000000
  0.098256  0.028364 -0.040113     24.000000
 -0.098256  0.141820  0.040113     48.000000
 -0.073692  0.127638  0.030084     48.000000
 -0.049128  0.113456  0.020056     24.000000
 -0.098256  0.170184  0.030084     24.000000
 -0.073692  0.156002  0.020056     24.000000
 -0.073692  0.156002  0.050141     24.000000

 SYSTEM =  Cn_FCC
 POSCAR =  Rn_FCC

 Startparameter for this run:
   NWRITE =      2    write-flag & timer
   PREC   = accura    normal or accurate (medium, high low for compatibility)
   ISTART =      0    job   : 0-new  1-cont  2-samecut
   ICHARG =      2    charge: 1-file 2-atom 10-const
   ISPIN  =      1    spin polarized calculation?
[...]
  -0.02456388  0.04254589  0.00000000       0.016
   0.04912776  0.02836392 -0.04011265       0.008
   0.07369164  0.01418196 -0.05014081       0.033
   0.09825551  0.00000000 -0.06016897       0.033
  -0.09825551  0.11345569  0.02005632       0.033
  -0.07369164  0.09927373  0.01002816       0.033
  -0.04912776  0.08509177  0.00000000       0.016
   0.07369164  0.04254589 -0.06016897       0.008
   0.09825551  0.02836392 -0.07019713       0.033
  -0.09825551  0.14181962  0.01002816       0.033
  -0.07369164  0.12763766  0.00000000       0.016
   0.09825551  0.05672785 -0.08022529       0.008
  -0.09825551  0.17018354  0.00000000       0.016
   0.07369164  0.01418196 -0.02005632       0.033
   0.09825551  0.00000000 -0.03008448       0.066
  -0.09825551  0.11345569  0.05014081       0.066
   0.09825551  0.02836392 -0.04011265       0.033
  -0.09825551  0.14181962  0.04011265       0.066
  -0.07369164  0.12763766  0.03008448       0.066
  -0.04912776  0.11345569  0.02005632       0.033
  -0.09825551  0.17018354  0.03008448       0.033
  -0.07369164  0.15600158  0.02005632       0.033
  -0.07369164  0.15600158  0.05014081       0.033

 k-points in reciprocal lattice and weights: read from INCAR
   0.00000000  0.00000000  0.00000000       0.001
   0.11111111  0.00000000  0.00000000       0.011
   0.22222222  0.00000000 -0.00000000       0.011
   0.33333333  0.00000000  0.00000000       0.011
   0.44444444  0.00000000 -0.00000000       0.011
   0.11111111  0.11111111  0.00000000       0.008
   0.22222222  0.11111111  0.00000000       0.033
   0.33333333  0.11111111  0.00000000       0.033
   0.44444444  0.11111111 -0.00000000       0.033
  -0.44444444  0.11111111 -0.00000000       0.033
  -0.33333333  0.11111111 -0.00000000       0.033
  -0.22222222  0.11111111  0.00000000       0.033
  -0.11111111  0.11111111 -0.00000000       0.016
   0.22222222  0.22222222  0.00000000       0.008
   0.33333333  0.22222222  0.00000000       0.033
   0.44444444  0.22222222  0.00000000       0.033
  -0.44444444  0.22222222  0.00000000       0.033
  -0.33333333  0.22222222 -0.00000000       0.033
  -0.22222222  0.22222222 -0.00000000       0.016
   0.33333333  0.33333333  0.00000000       0.008
   0.44444444  0.33333333  0.00000000       0.033
  -0.44444444  0.33333333  0.00000000       0.033
  -0.33333333  0.33333333 -0.00000000       0.016
   0.44444444  0.44444444  0.00000000       0.008
  -0.44444444  0.44444444 -0.00000000       0.016
   0.33333333  0.22222222  0.11111111       0.033
   0.44444444  0.22222222  0.11111111       0.066
  -0.44444444  0.22222222  0.11111111       0.066
   0.44444444  0.33333333  0.11111111       0.033
  -0.44444444  0.33333333  0.11111111       0.066
  -0.33333333  0.33333333  0.11111111       0.066
  -0.22222222  0.33333333  0.11111111       0.033
  -0.44444444  0.44444444  0.11111111       0.033
  -0.33333333  0.44444444  0.11111111       0.033
  -0.33333333  0.44444444  0.22222222       0.033

 position of ions in fractional coordinates (direct lattice)
   0.00000000  0.00000000  0.00000000

 position of ions in cartesian coordinates  (Angst):
   0.00000000  0.00000000  0.00000000

 k-point  1 :   0.0000 0.0000 0.0000  plane waves:    2133
 k-point  2 :   0.1111 0.0000 0.0000  plane waves:    2157
 k-point  3 :   0.2222 0.0000-0.0000  plane waves:    2166
 k-point  4 :   0.3333 0.0000 0.0000  plane waves:    2181
 k-point  5 :   0.4444 0.0000-0.0000  plane waves:    2177
 k-point  6 :   0.1111 0.1111 0.0000  plane waves:    2161
 k-point  7 :   0.2222 0.1111 0.0000  plane waves:    2172
 k-point  8 :   0.3333 0.1111 0.0000  plane waves:    2168
 k-point  9 :   0.4444 0.1111-0.0000  plane waves:    2189
 k-point 10 :  -0.4444 0.1111-0.0000  plane waves:    2179
 k-point 11 :  -0.3333 0.1111-0.0000  plane waves:    2182
 k-point 12 :  -0.2222 0.1111 0.0000  plane waves:    2181
 k-point 13 :  -0.1111 0.1111-0.0000  plane waves:    2175
 k-point 14 :   0.2222 0.2222 0.0000  plane waves:    2189
 k-point 15 :   0.3333 0.2222 0.0000  plane waves:    2181
 k-point 16 :   0.4444 0.2222 0.0000  plane waves:    2182
 k-point 17 :  -0.4444 0.2222 0.0000  plane waves:    2190
 k-point 18 :  -0.3333 0.2222-0.0000  plane waves:    2184
 k-point 19 :  -0.2222 0.2222-0.0000  plane waves:    2183
 k-point 20 :   0.3333 0.3333 0.0000  plane waves:    2181
 k-point 21 :   0.4444 0.3333 0.0000  plane waves:    2172
 k-point 22 :  -0.4444 0.3333 0.0000  plane waves:    2184
 k-point 23 :  -0.3333 0.3333-0.0000  plane waves:    2185
 k-point 24 :   0.4444 0.4444 0.0000  plane waves:    2184
 k-point 25 :  -0.4444 0.4444-0.0000  plane waves:    2193
 k-point 26 :   0.3333 0.2222 0.1111  plane waves:    2178
 k-point 27 :   0.4444 0.2222 0.1111  plane waves:    2183
 k-point 28 :  -0.4444 0.2222 0.1111  plane waves:    2188
 k-point 29 :   0.4444 0.3333 0.1111  plane waves:    2181
 k-point 30 :  -0.4444 0.3333 0.1111  plane waves:    2192
 k-point 31 :  -0.3333 0.3333 0.1111  plane waves:    2195
 k-point 32 :  -0.2222 0.3333 0.1111  plane waves:    2194
 k-point 33 :  -0.4444 0.4444 0.1111  plane waves:    2189
 k-point 34 :  -0.3333 0.4444 0.1111  plane waves:    2192
 k-point 35 :  -0.3333 0.4444 0.2222  plane waves:    2194

 maximum and minimum number of plane-waves per node :       559      522

 maximum number of plane-waves:      2195
 maximum index in each direction:
   IXMAX=    9   IYMAX=    9   IZMAX=    9
   IXMIN=   -9   IYMIN=   -9   IZMIN=   -9

 parallel 3D FFT for wavefunctions:
    minimum data exchange during FFTs selected (reduces bandwidth)
 parallel 3D FFT for charge:
    minimum data exchange during FFTs selected (reduces bandwidth)

 Broyden mixing: mesh for mixing (old mesh)
   NGX = 19   NGY = 19   NGZ = 19
  (NGX  = 72   NGY  = 72   NGZ  = 72)
  gives a total of   6859 points

 initial charge density was supplied:
 charge density of overlapping atoms calculated
 number of electron      18.0000000 magnetization
 keeping initial charge density in first step

 Maximum index for augmentation-charges        13573 (set IRDMAX)

 First call to EWALD:  gamma=   0.440
 Maximum number of real-space cells 3x 3x 3
 Maximum number of reciprocal cells 3x 3x 3

--------------------------------------- Iteration      1(   1)  ---------------------------------------

 eigenvalue-minimisations  :  1248
 total energy-change (2. order) : 0.1079614E+03  (-0.1040989E+04)
 number of electron      18.0000000 magnetization
 augmentation part       18.0000000 magnetization

 Free energy of the ion-electron system (eV)
  alpha Z        PSCENC =        64.79124116
  Ewald energy   TEWEN  =     -1671.94433393
  -Hartree energ DENC   =     -1019.25893130
  -exchange      EXHF   =         0.00000000
  -V(xc)+E(xc)   XCENC  =        55.28889818
  PAW double counting   =      2485.17647602    -2545.39855190
  entropy T*S    EENTRO =         0.00016357
  eigenvalues    EBANDS =      -291.39990292
  atomic energy  EATOM  =      3030.70638948
  Solvation  Ediel_sol  =         0.00000000
  free energy    TOTEN  =       107.96144836 eV

  energy without entropy =      107.96128479  energy(sigma->0) =      107.96139383

[...]

 eigenvalue-minimisations  :  1480
 total energy-change (2. order) :-0.1329129E+03  (-0.1244519E+03)
 number of electron      18.0000000 magnetization
 augmentation part       18.0000000 magnetization

[...]

 Broyden mixing:
  rms(total) = 0.42087E-01    rms(broyden)= 0.42075E-01
  rms(prec ) = 0.11347E+00
  weight for this iteration     100.00

[...]

 eigenvalues of (default mixing * dielectric matrix)
  average eigenvalue GAMMA=   0.5405
  0.5405

[...]

 average (electrostatic) potential at core
  the test charge radii are     1.0367
  (the norm of the test charge is              1.0000)
       1 -90.9569

 E-fermi :  -2.8358     XC(G=0):  -7.4121     alpha+bet : -4.5271

 k-point     1 :       0.0000    0.0000    0.0000
  band No.  band energies     occupation
      1     -42.5480      2.00000
      2     -42.5480      2.00000
      3     -42.5480      2.00000
      4     -42.5475      2.00000
      5     -42.5475      2.00000
      6     -18.2308      2.00000
      7      -2.8652      1.47462
      8      -2.8652      1.47458
      9      -2.8652      1.47456
     10       2.6609      0.00000
     11       7.9802      0.00000
     12       7.9802      0.00000
     13       7.9802      0.00000
     14       9.7117      0.00000
     15      10.4129      0.00000
     16      10.4129      0.00000

[...]

 soft charge-density along one line, spin component           1
         0         1         2         3         4         5         6         7         8         9
 total charge-density along one line

------------------------ aborting loop because EDIFF is reached ----------------------------------------

  FORCE on cell =-STRESS in cart. coord.  units (eV):
  Direction    XX          YY          ZZ          XY          YZ          ZX
  Alpha Z    64.79124    64.79124    64.79124
  Ewald    -557.31480  -557.31480  -557.31480    -0.00000    -0.00000     0.00000
  Hartree   339.83625   339.83625   339.83625     0.00000    -0.00000     0.00000
  E(xc)    -110.96100  -110.85643  -110.79830     0.04394    -0.00378     0.10506
  Local     -75.14854   -75.14854   -75.14855     0.00000     0.00000     0.00000
  n-local    71.92040    73.42264    74.24827     0.55330    -0.17375     1.47226
  augment   105.90551   105.90551   105.90551    -0.00000    -0.00000    -0.00000
  Kinetic   157.44333   159.98361   161.41135     1.05628    -0.09863     2.54548
  Fock        0.00000     0.00000     0.00000     0.00000     0.00000     0.00000
  Total       0.00762     0.00762     0.00762     0.00000    -0.00000     0.00000
  in kB       0.18649     0.18649     0.18649     0.00000    -0.00000     0.00000

 VOLUME and BASIS-vectors are now :
  energy-cutoff  :      600.00
  volume of cell :       65.44
      direct lattice vectors                 reciprocal lattice vectors
     4.523353730  0.000000000  0.000000000     0.221074906 -0.127637656 -0.090253452
     2.261676865  3.917339241 -0.000000000     0.000000000  0.255275313 -0.090253452
     2.261676865  1.305779747  3.693302855    -0.000000000  0.000000000  0.270760357

[...]

 FORCES acting on ions
    electron-ion (+dipol)            ewald-force                    non-local-force                 convergence-correction
   0.443E-13 0.112E-12 -.176E-13   0.276E-14 0.367E-15 0.181E-15   0.132E-22 -.132E-22 0.000E+00   -.242E-12 0.471E-13 -.205E-12
   0.468E-13 0.116E-12 -.170E-13   0.276E-14 0.367E-15 0.181E-15   0.132E-22 -.132E-22 0.000E+00   -.242E-12 0.471E-13 -.205E-12

 POSITION                                       TOTAL-FORCE (eV/Angst)
      0.00000      0.00000      0.00000         0.000000     -0.000000      0.000000
    total drift:                               -0.000000      0.000000     -0.000000

  FREE ENERGIE OF THE ION-ELECTRON SYSTEM (eV)
  free  energy   TOTEN  =       -81.01434109 eV

  energy  without entropy=      -81.01579446  energy(sigma->0) =      -81.01482555

 Quasi-Newton relaxation of ions (Broydens 2nd method)
  g(Force)  = 0.000E+00   g(Stress)= 0.168E-05

 Reset! Starting new Quasi-Newton update for ions

[...]

 eigenvalue-minimisations  :  1280
 total energy-change (2. order) :-0.4836511E-04  (-0.3830073E-04)
 number of electron      18.0000000 magnetization
 augmentation part        7.1178701 magnetization

[...]

 Broyden mixing:
  rms(total) = 0.19713E-04    rms(broyden)= 0.19712E-04
  rms(prec ) = 0.26887E-04
  weight for this iteration     100.00

 eigenvalues of (default mixing * dielectric matrix)
  average eigenvalue GAMMA=   1.6074
  3.9374  3.1355  3.1355  2.6529  2.4195  1.5873  1.5873  1.6019  1.6019  1.1549
  1.1549  0.9641  0.9641  0.9439  0.8755  0.8755  0.5612  0.6236  0.7645

[...]

--------------------------------------- Iteration      2(   8)  ---------------------------------------

 eigenvalue-minimisations  :   736
 total energy-change (2. order) : 0.9743144E-07  (-0.1431532E-08)
 number of electron      18.0000000 magnetization
 augmentation part        7.1179641 magnetization

 Free energy of the ion-electron system (eV)
  alpha Z        PSCENC =        64.77695708
  Ewald energy   TEWEN  =     -1671.82145755
  -Hartree energ DENC   =     -1019.60016725
  -exchange      EXHF   =         0.00000000
  -V(xc)+E(xc)   XCENC  =        59.24011234
  PAW double counting   =      2384.80597633    -2445.71965957
  entropy T*S    EENTRO =         0.00145506
  eigenvalues    EBANDS =      -483.40394989
  atomic energy  EATOM  =      3030.70638948
  Solvation  Ediel_sol  =         0.00000000
  free energy    TOTEN  =       -81.01434397 eV

  energy without entropy =      -81.01579903  energy(sigma->0) =      -81.01482899

 average (electrostatic) potential at core
  the test charge radii are     1.0367
  (the norm of the test charge is              1.0000)
       1 -90.9581

 E-fermi :  -2.8372     XC(G=0):  -7.4110     alpha+bet : -4.5261

[...]

 k-point    35 :      -0.3333    0.4444    0.2222
  band No.  band energies     occupation
      1     -42.5490      2.00000
      2     -42.5488      2.00000
      3     -42.5487      2.00000
      4     -42.5485      2.00000
      5     -42.5484      2.00000
      6     -18.0460      2.00000
      7      -4.1326      2.00000
      8      -3.9163      2.00000
      9      -3.4994      2.00000
     10       5.4640      0.00000
     11       6.7863      0.00000
     12       7.0759      0.00000
     13       8.4024      0.00000
     14      11.6603      0.00000
     15      11.7566      0.00000
     16      13.8248      0.00000

 soft charge-density along one line, spin component           1
         0         1         2         3         4         5         6         7         8         9
 total charge-density along one line

------------------------ aborting loop because EDIFF is reached ----------------------------------------

  FORCE on cell =-STRESS in cart. coord.  units (eV):
  Direction    XX          YY          ZZ          XY          YZ          ZX
  Alpha Z    64.77696    64.77696    64.77696
  Ewald    -557.27384  -557.27384  -557.27384     0.00000    -0.00000     0.00000
  Hartree   339.86691   339.86691   339.86691     0.00000    -0.00000     0.00000
  E(xc)    -110.96089  -110.85635  -110.79823     0.04392    -0.00378     0.10503
  Local     -75.20475   -75.20475   -75.20475     0.00000     0.00000     0.00000
  n-local    71.92626    73.42814    74.25347     0.55316    -0.17373     1.47187
  augment   105.90603   105.90603   105.90603    -0.00000    -0.00000    -0.00000
  Kinetic   157.44264   159.98231   161.40946     1.05590    -0.09873     2.54472
  Fock        0.00000     0.00000     0.00000     0.00000     0.00000     0.00000
  Total       0.01358     0.01358     0.01358     0.00000     0.00000     0.00000
  in kB       0.33250     0.33250     0.33250     0.00000     0.00000     0.00000

 VOLUME and BASIS-vectors are now :
  energy-cutoff  :      600.00
  volume of cell :       65.46
      direct lattice vectors                 reciprocal lattice vectors
     4.523686190  0.000000000  0.000000000     0.221058658 -0.127628276 -0.090246819
     2.261843095  3.917627159 -0.000000000     0.000000000  0.255256552 -0.090246819
     2.261843095  1.305875720  3.693574308    -0.000000000  0.000000000  0.270740458

  length of vectors
     4.523686190  4.523686190  4.523686190     0.270740458  0.270740458  0.270740458

 FORCES acting on ions
    electron-ion (+dipol)            ewald-force                    non-local-force                 convergence-correction
   0.328E-13 0.109E-12 -.139E-13   -.588E-14 0.339E-15 0.122E-14   0.331E-23 -.662E-23 0.000E+00   -.340E-12 0.198E-13 -.269E-12
   0.357E-13 0.113E-12 -.131E-13   -.588E-14 0.339E-15 0.122E-14   0.331E-23 -.662E-23 0.000E+00   -.340E-12 0.198E-13 -.269E-12

 POSITION                                       TOTAL-FORCE (eV/Angst)
      0.00000      0.00000      0.00000        -0.000000      0.000000      0.000000
    total drift:                               -0.000000      0.000000     -0.000000

  FREE ENERGIE OF THE ION-ELECTRON SYSTEM (eV)
  free  energy   TOTEN  =       -81.01434397 eV

  energy  without entropy=      -81.01579903  energy(sigma->0) =      -81.01482899

 d Force = 0.0000000E+00[ 0.000E+00, 0.000E+00]  d Energy = 0.2879606E-05-0.288E-05
 d Force = 0.0000000E+00[ 0.000E+00, 0.000E+00]  d Ewald  =-0.1228764E+00 0.123E+00

 Quasi-Newton relaxation of ions (Broydens 2nd method)
  g(Force)  = 0.000E+00   g(Stress)= 0.534E-05

 retain information from N=  1 steps
 eigenvalues of (default step * inverse Hessian matrix)
  average eigenvalue of G=   1.2764
 eigenvalue spectrum of G is  1.2764

 reached required accuracy - stopping structural energy minimisation