 vasp.5.4.4.18Apr17-6-g9f103f2a35 (build Nov 03 2018 10:20:46) complex

 executed on             LinuxIFC date 2018.12.20  14:42:48

 INCAR:
 POTCAR:    PAW Og, JanMewes Oct 18

 POTCAR:    PAW Og, JanMewes Oct 18
   VRHFIN =Og : 10d 2s 6p, PE

   TITEL  = PAW Og, JanMewes Oct 18
   POMASS =    0.010; ZVAL   =   18.000    mass and valenz
   ENMAX  =  339.336; ENMIN  =  254.502 eV
   QCUT   =   -4.994; QGAM   =    9.988    optimization parameters

  PAW Og, JanMewes Oct 18               :

 POSCAR: Og_FCC
  positions in direct lattice
  velocities in cartesian coordinates
 exchange correlation table for  LEXCH =        8
   RHO(1)=    0.500       N(1)  =     2000
   RHO(2)=  100.500       N(2)  =     4000

 ion  position               nearest neighbor table
   1  0.000  0.000  0.000-

IMPORTANT INFORMATION: All symmetrisations will be switched off!
NOSYMM: (Re-)initialisation of all symmetry stuff for point group C_1.

 KPOINTS: k-points

Automatic generation of k-mesh.
Space group operators:
 irot       det(A)        alpha          n_x          n_y          n_z        tau_x        tau_y        tau_z
    1     1.000000     0.000000     1.000000     0.000000     0.000000     0.000000     0.000000     0.000000

 Subroutine IBZKPT returns following result:

 Found    216 irreducible k-points:

 Following reciprocal coordinates:
            Coordinates               Weight
  0.000000  0.000000  0.000000      1.000000
  0.166667 -0.000000 -0.000000      1.000000
  0.333333 -0.000000  0.000000      1.000000
  0.500000 -0.000000  0.000000      1.000000
 -0.333333  0.000000 -0.000000      1.000000
 -0.166667  0.000000  0.000000      1.000000
 -0.000000  0.166667  0.000000      1.000000
  0.166667  0.166667  0.000000      1.000000
  0.333333  0.166667  0.000000      1.000000
  0.500000  0.166667  0.000000      1.000000
 -0.333333  0.166667 -0.000000      1.000000
 -0.166667  0.166667 -0.000000      1.000000
 -0.000000  0.333333 -0.000000      1.000000
  0.166667  0.333333 -0.000000      1.000000
  0.333333  0.333333  0.000000      1.000000
  0.500000  0.333333 -0.000000      1.000000
 -0.333333  0.333333 -0.000000      1.000000
 -0.166667  0.333333 -0.000000      1.000000
  0.000000  0.500000 -0.000000      1.000000
  0.166667  0.500000 -0.000000      1.000000
  0.333333  0.500000  0.000000      1.000000
  0.500000  0.500000  0.000000      1.000000
 -0.333333  0.500000 -0.000000      1.000000
 -0.166667  0.500000 -0.000000      1.000000
  0.000000 -0.333333  0.000000      1.000000
  0.166667 -0.333333  0.000000      1.000000
  0.333333 -0.333333  0.000000      1.000000
  0.500000 -0.333333  0.000000      1.000000
 -0.333333 -0.333333 -0.000000      1.000000
 -0.166667 -0.333333  0.000000      1.000000
  0.000000 -0.166667  0.000000      1.000000
  0.166667 -0.166667  0.000000      1.000000
  0.333333 -0.166667  0.000000      1.000000
  0.500000 -0.166667  0.000000      1.000000
 -0.333333 -0.166667  0.000000      1.000000
 -0.166667 -0.166667  0.000000      1.000000
  0.000000  0.000000  0.166667      1.000000
  0.166667 -0.000000  0.166667      1.000000
  0.333333 -0.000000  0.166667      1.000000
  0.500000 -0.000000  0.166667      1.000000
 -0.333333  0.000000  0.166667      1.000000
 -0.166667  0.000000  0.166667      1.000000
 -0.000000  0.166667  0.166667      1.000000
  0.166667  0.166667  0.166667      1.000000
  0.333333  0.166667  0.166667      1.000000
  0.500000  0.166667  0.166667      1.000000
 -0.333333  0.166667  0.166667      1.000000
 -0.166667  0.166667  0.166667      1.000000
  0.000000  0.333333  0.166667      1.000000
  0.166667  0.333333  0.166667      1.000000
  0.333333  0.333333  0.166667      1.000000
  0.500000  0.333333  0.166667      1.000000
 -0.333333  0.333333  0.166667      1.000000
 -0.166667  0.333333  0.166667      1.000000
  0.000000  0.500000  0.166667      1.000000
  0.166667  0.500000  0.166667      1.000000
  0.333333  0.500000  0.166667      1.000000
  0.500000  0.500000  0.166667      1.000000
 -0.333333  0.500000  0.166667      1.000000
 -0.166667  0.500000  0.166667      1.000000
[...]
  0.500000  0.500000 -0.166667      1.000000
 -0.333333  0.500000 -0.166667      1.000000
 -0.166667  0.500000 -0.166667      1.000000
 -0.000000 -0.333333 -0.166667      1.000000
  0.166667 -0.333333 -0.166667      1.000000
  0.333333 -0.333333 -0.166667      1.000000
  0.500000 -0.333333 -0.166667      1.000000
 -0.333333 -0.333333 -0.166667      1.000000
 -0.166667 -0.333333 -0.166667      1.000000
  0.000000 -0.166667 -0.166667      1.000000
  0.166667 -0.166667 -0.166667      1.000000
  0.333333 -0.166667 -0.166667      1.000000
  0.500000 -0.166667 -0.166667      1.000000
 -0.333333 -0.166667 -0.166667      1.000000
 -0.166667 -0.166667 -0.166667      1.000000

 Following cartesian coordinates:
            Coordinates               Weight
  0.000000  0.000000  0.000000      1.000000
  0.038382 -0.022160 -0.015669      1.000000
  0.076763 -0.044319 -0.031339      1.000000
  0.115145 -0.066479 -0.047008      1.000000
 -0.076763  0.044319  0.031339      1.000000
 -0.038382  0.022160  0.015669      1.000000
  0.000000  0.044319 -0.015669      1.000000
  0.038382  0.022160 -0.031339      1.000000
  0.076763  0.000000 -0.047008      1.000000
  0.115145 -0.022160 -0.062677      1.000000
 -0.076763  0.088639  0.015669      1.000000
 -0.038382  0.066479  0.000000      1.000000
  0.000000  0.088639 -0.031339      1.000000
  0.038382  0.066479 -0.047008      1.000000
  0.076763  0.044319 -0.062677      1.000000
  0.115145  0.022160 -0.078346      1.000000
 -0.076763  0.132958  0.000000      1.000000
 -0.038382  0.110798 -0.015669      1.000000
  0.000000  0.132958 -0.047008      1.000000
  0.038382  0.110798 -0.062677      1.000000
  0.076763  0.088639 -0.078346      1.000000
  0.115145  0.066479 -0.094016      1.000000
 -0.076763  0.177278 -0.015669      1.000000
 -0.038382  0.155118 -0.031339      1.000000
 -0.000000 -0.088639  0.031339      1.000000
  0.038382 -0.110798  0.015669      1.000000
  0.076763 -0.132958 -0.000000      1.000000
  0.115145 -0.155118 -0.015669      1.000000
 -0.076763 -0.044319  0.062677      1.000000
 -0.038382 -0.066479  0.047008      1.000000
 -0.000000 -0.044319  0.015669      1.000000
  0.038382 -0.066479 -0.000000      1.000000
  0.076763 -0.088639 -0.015669      1.000000
  0.115145 -0.110798 -0.031339      1.000000
 -0.076763 -0.000000  0.047008      1.000000
 -0.038382 -0.022160  0.031339      1.000000
 -0.000000  0.000000  0.047008      1.000000
  0.038382 -0.022160  0.031339      1.000000
  0.076763 -0.044319  0.015669      1.000000
  0.115145 -0.066479  0.000000      1.000000
 -0.076763  0.044319  0.078346      1.000000
 -0.038382  0.022160  0.062677      1.000000
 -0.000000  0.044319  0.031339      1.000000
  0.038382  0.022160  0.015669      1.000000
  0.076763  0.000000  0.000000      1.000000
  0.115145 -0.022160 -0.015669      1.000000
 -0.076763  0.088639  0.062677      1.000000
 -0.038382  0.066479  0.047008      1.000000
 -0.000000  0.088639  0.015669      1.000000
  0.038382  0.066479  0.000000      1.000000
  0.076763  0.044319 -0.015669      1.000000
  0.115145  0.022160 -0.031339      1.000000
 -0.076763  0.132958  0.047008      1.000000
 -0.038382  0.110798  0.031339      1.000000
 -0.000000  0.132958  0.000000      1.000000
  0.038382  0.110798 -0.015669      1.000000
  0.076763  0.088639 -0.031339      1.000000
  0.115145  0.066479 -0.047008      1.000000
 -0.076763  0.177278  0.031339      1.000000
 -0.038382  0.155118  0.015669      1.000000
[...]
  0.115145  0.066479 -0.141023      1.000000
 -0.076763  0.177278 -0.062677      1.000000
 -0.038382  0.155118 -0.078346      1.000000
  0.000000 -0.088639 -0.015669      1.000000
  0.038382 -0.110798 -0.031339      1.000000
  0.076763 -0.132958 -0.047008      1.000000
  0.115145 -0.155118 -0.062677      1.000000
 -0.076763 -0.044319  0.015669      1.000000
 -0.038382 -0.066479 -0.000000      1.000000
  0.000000 -0.044319 -0.031339      1.000000
  0.038382 -0.066479 -0.047008      1.000000
  0.076763 -0.088639 -0.062677      1.000000
  0.115145 -0.110798 -0.078346      1.000000
 -0.076763 -0.000000 -0.000000      1.000000
 -0.038382 -0.022160 -0.015669      1.000000

 Subroutine IBZKPT_HF returns following result:

 Found    216 k-points in 1st BZ
 the following    216 k-points will be used (e.g. in the exchange kernel)
 Following reciprocal coordinates:   # in IRBZ
  0.000000  0.000000  0.000000    0.00462963   1 t-inv F
  0.166667 -0.000000 -0.000000    0.00462963   2 t-inv F
  0.333333 -0.000000  0.000000    0.00462963   3 t-inv F
  0.500000 -0.000000  0.000000    0.00462963   4 t-inv F
 -0.333333  0.000000 -0.000000    0.00462963   5 t-inv F
 -0.166667  0.000000  0.000000    0.00462963   6 t-inv F
 -0.000000  0.166667  0.000000    0.00462963   7 t-inv F
  0.166667  0.166667  0.000000    0.00462963   8 t-inv F
  0.333333  0.166667  0.000000    0.00462963   9 t-inv F
  0.500000  0.166667  0.000000    0.00462963  10 t-inv F
 -0.333333  0.166667 -0.000000    0.00462963  11 t-inv F
 -0.166667  0.166667 -0.000000    0.00462963  12 t-inv F
 -0.000000  0.333333 -0.000000    0.00462963  13 t-inv F
  0.166667  0.333333 -0.000000    0.00462963  14 t-inv F
  0.333333  0.333333  0.000000    0.00462963  15 t-inv F
  0.500000  0.333333 -0.000000    0.00462963  16 t-inv F
 -0.333333  0.333333 -0.000000    0.00462963  17 t-inv F
 -0.166667  0.333333 -0.000000    0.00462963  18 t-inv F
  0.000000  0.500000 -0.000000    0.00462963  19 t-inv F
  0.166667  0.500000 -0.000000    0.00462963  20 t-inv F
  0.333333  0.500000  0.000000    0.00462963  21 t-inv F
  0.500000  0.500000  0.000000    0.00462963  22 t-inv F
 -0.333333  0.500000 -0.000000    0.00462963  23 t-inv F
 -0.166667  0.500000 -0.000000    0.00462963  24 t-inv F
  0.000000 -0.333333  0.000000    0.00462963  25 t-inv F
  0.166667 -0.333333  0.000000    0.00462963  26 t-inv F
  0.333333 -0.333333  0.000000    0.00462963  27 t-inv F
  0.500000 -0.333333  0.000000    0.00462963  28 t-inv F
 -0.333333 -0.333333 -0.000000    0.00462963  29 t-inv F
 -0.166667 -0.333333  0.000000    0.00462963  30 t-inv F
  0.000000 -0.166667  0.000000    0.00462963  31 t-inv F
  0.166667 -0.166667  0.000000    0.00462963  32 t-inv F
  0.333333 -0.166667  0.000000    0.00462963  33 t-inv F
  0.500000 -0.166667  0.000000    0.00462963  34 t-inv F
 -0.333333 -0.166667  0.000000    0.00462963  35 t-inv F
 -0.166667 -0.166667  0.000000    0.00462963  36 t-inv F
  0.000000  0.000000  0.166667    0.00462963  37 t-inv F
  0.166667 -0.000000  0.166667    0.00462963  38 t-inv F
  0.333333 -0.000000  0.166667    0.00462963  39 t-inv F
  0.500000 -0.000000  0.166667    0.00462963  40 t-inv F
 -0.333333  0.000000  0.166667    0.00462963  41 t-inv F
 -0.166667  0.000000  0.166667    0.00462963  42 t-inv F
 -0.000000  0.166667  0.166667    0.00462963  43 t-inv F
  0.166667  0.166667  0.166667    0.00462963  44 t-inv F
  0.333333  0.166667  0.166667    0.00462963  45 t-inv F
  0.500000  0.166667  0.166667    0.00462963  46 t-inv F
 -0.333333  0.166667  0.166667    0.00462963  47 t-inv F
 -0.166667  0.166667  0.166667    0.00462963  48 t-inv F
[...]
 k-point 47 :  -0.3333 0.1667 0.1667  plane waves:    1428
 k-point 48 :  -0.1667 0.1667 0.1667  plane waves:    1428
 k-point 49 :   0.0000 0.3333 0.1667  plane waves:    1428
 k-point 50 :   0.1667 0.3333 0.1667  plane waves:    1420
 k-point 51 :   0.3333 0.3333 0.1667  plane waves:    1428
 k-point 52 :   0.5000 0.3333 0.1667  plane waves:    1418
 k-point 53 :  -0.3333 0.3333 0.1667  plane waves:    1428
 k-point 54 :  -0.1667 0.3333 0.1667  plane waves:    1418
 k-point 55 :   0.0000 0.5000 0.1667  plane waves:    1428
 k-point 56 :   0.1667 0.5000 0.1667  plane waves:    1406
 k-point 57 :   0.3333 0.5000 0.1667  plane waves:    1418
 k-point 58 :   0.5000 0.5000 0.1667  plane waves:    1418
 k-point 59 :  -0.3333 0.5000 0.1667  plane waves:    1416
 k-point 60 :  -0.1667 0.5000 0.1667  plane waves:    1428
[...]
 k-point 85 :   0.0000 0.3333 0.3333  plane waves:    1434
 k-point 86 :   0.1667 0.3333 0.3333  plane waves:    1428
 k-point 87 :   0.3333 0.3333 0.3333  plane waves:    1394
 k-point 88 :   0.5000 0.3333 0.3333  plane waves:    1406
 k-point 89 :  -0.3333 0.3333 0.3333  plane waves:    1432
 k-point 90 :  -0.1667 0.3333 0.3333  plane waves:    1418
 k-point 91 :   0.0000 0.5000 0.3333  plane waves:    1418
 k-point 92 :   0.1667 0.5000 0.3333  plane waves:    1418
 k-point 93 :   0.3333 0.5000 0.3333  plane waves:    1406
 k-point 94 :   0.5000 0.5000 0.3333  plane waves:    1428
 k-point 95 :  -0.3333 0.5000 0.3333  plane waves:    1428
 k-point 96 :  -0.1667 0.5000 0.3333  plane waves:    1416
 k-point 97 :  -0.0000-0.3333 0.3333  plane waves:    1432
 k-point 98 :   0.1667-0.3333 0.3333  plane waves:    1428
 k-point 99 :   0.3333-0.3333 0.3333  plane waves:    1432
 k-point ** :   0.5000-0.3333 0.3333  plane waves:    1428
 k-point ** :  -0.3333-0.3333 0.3333  plane waves:    1432
 k-point ** :  -0.1667-0.3333 0.3333  plane waves:    1428
 k-point ** :   0.0000-0.1667 0.3333  plane waves:    1406
 k-point ** :   0.1667-0.1667 0.3333  plane waves:    1418
 k-point ** :   0.3333-0.1667 0.3333  plane waves:    1418
 k-point ** :   0.5000-0.1667 0.3333  plane waves:    1416
 k-point ** :  -0.3333-0.1667 0.3333  plane waves:    1428
 k-point ** :  -0.1667-0.1667 0.3333  plane waves:    1428
 k-point ** :   0.0000 0.0000 0.5000  plane waves:    1436
 k-point ** :   0.1667 0.0000 0.5000  plane waves:    1428
 k-point ** :   0.3333-0.0000 0.5000  plane waves:    1418
 k-point ** :   0.5000-0.0000 0.5000  plane waves:    1448
 k-point ** :  -0.3333 0.0000 0.5000  plane waves:    1418
 k-point ** :  -0.1667 0.0000 0.5000  plane waves:    1428
 k-point ** :  -0.0000 0.1667 0.5000  plane waves:    1428
 k-point ** :   0.1667 0.1667 0.5000  plane waves:    1406
 k-point ** :   0.3333 0.1667 0.5000  plane waves:    1418
 k-point ** :   0.5000 0.1667 0.5000  plane waves:    1418
 k-point ** :  -0.3333 0.1667 0.5000  plane waves:    1416
 k-point ** :  -0.1667 0.1667 0.5000  plane waves:    1428
 k-point ** :   0.0000 0.3333 0.5000  plane waves:    1418
 k-point ** :   0.1667 0.3333 0.5000  plane waves:    1418
 k-point ** :   0.3333 0.3333 0.5000  plane waves:    1406
 k-point ** :   0.5000 0.3333 0.5000  plane waves:    1428
 k-point ** :  -0.3333 0.3333 0.5000  plane waves:    1428
 k-point ** :  -0.1667 0.3333 0.5000  plane waves:    1416
 k-point ** :   0.0000 0.5000 0.5000  plane waves:    1448
 k-point ** :   0.1667 0.5000 0.5000  plane waves:    1418
 k-point ** :   0.3333 0.5000 0.5000  plane waves:    1428
 k-point ** :   0.5000 0.5000 0.5000  plane waves:    1436
 k-point ** :  -0.3333 0.5000 0.5000  plane waves:    1428
 k-point ** :  -0.1667 0.5000 0.5000  plane waves:    1418
 k-point ** :   0.0000-0.3333 0.5000  plane waves:    1418
 k-point ** :   0.1667-0.3333 0.5000  plane waves:    1416
 k-point ** :   0.3333-0.3333 0.5000  plane waves:    1428
 k-point ** :   0.5000-0.3333 0.5000  plane waves:    1428
 k-point ** :  -0.3333-0.3333 0.5000  plane waves:    1406
 k-point ** :  -0.1667-0.3333 0.5000  plane waves:    1418
 k-point ** :   0.0000-0.1667 0.5000  plane waves:    1428
 k-point ** :   0.1667-0.1667 0.5000  plane waves:    1428
 k-point ** :   0.3333-0.1667 0.5000  plane waves:    1416
 k-point ** :   0.5000-0.1667 0.5000  plane waves:    1418
 k-point ** :  -0.3333-0.1667 0.5000  plane waves:    1418
 k-point ** :  -0.1667-0.1667 0.5000  plane waves:    1406
 k-point ** :   0.0000-0.0000-0.3333  plane waves:    1394
 k-point ** :   0.1667-0.0000-0.3333  plane waves:    1406
 k-point ** :   0.3333-0.0000-0.3333  plane waves:    1432
 k-point ** :   0.5000-0.0000-0.3333  plane waves:    1418
 k-point ** :  -0.3333 0.0000-0.3333  plane waves:    1434
 k-point ** :  -0.1667 0.0000-0.3333  plane waves:    1428
 k-point ** :  -0.0000 0.1667-0.3333  plane waves:    1406
 k-point ** :   0.1667 0.1667-0.3333  plane waves:    1428
 k-point ** :   0.3333 0.1667-0.3333  plane waves:    1428
 k-point ** :   0.5000 0.1667-0.3333  plane waves:    1416
 k-point ** :  -0.3333 0.1667-0.3333  plane waves:    1418
 k-point ** :  -0.1667 0.1667-0.3333  plane waves:    1418
 k-point ** :   0.0000 0.3333-0.3333  plane waves:    1432
 k-point ** :   0.1667 0.3333-0.3333  plane waves:    1428
 k-point ** :   0.3333 0.3333-0.3333  plane waves:    1432
[...]
 k-point ** :   0.5000 0.5000-0.1667  plane waves:    1418
 k-point ** :  -0.3333 0.5000-0.1667  plane waves:    1418
 k-point ** :  -0.1667 0.5000-0.1667  plane waves:    1406
 k-point ** :  -0.0000-0.3333-0.1667  plane waves:    1428
 k-point ** :   0.1667-0.3333-0.1667  plane waves:    1418
 k-point ** :   0.3333-0.3333-0.1667  plane waves:    1428
 k-point ** :   0.5000-0.3333-0.1667  plane waves:    1418
 k-point ** :  -0.3333-0.3333-0.1667  plane waves:    1428
 k-point ** :  -0.1667-0.3333-0.1667  plane waves:    1420
 k-point ** :   0.0000-0.1667-0.1667  plane waves:    1386
 k-point ** :   0.1667-0.1667-0.1667  plane waves:    1428
 k-point ** :   0.3333-0.1667-0.1667  plane waves:    1428
 k-point ** :   0.5000-0.1667-0.1667  plane waves:    1406
 k-point ** :  -0.3333-0.1667-0.1667  plane waves:    1420
 k-point ** :  -0.1667-0.1667-0.1667  plane waves:    1424

 maximum and minimum number of plane-waves per node :       402      326

 maximum number of plane-waves:      1450
 maximum index in each direction:
   IXMAX=    6   IYMAX=    6   IZMAX=    6
   IXMIN=   -6   IYMIN=   -6   IZMIN=   -6

 parallel 3D FFT for wavefunctions:
    minimum data exchange during FFTs selected (reduces bandwidth)
 parallel 3D FFT for charge:
    minimum data exchange during FFTs selected (reduces bandwidth)

 FFT grid for exact exchange (Hartree Fock)
  NGX = 20; NGY = 20; NGZ = 20

 Radii for the augmentation spheres in the non-local exchange
 for species   1 augmentation radius   1.503 (default was   1.202)
       energy cutoff for augmentation   1200.0

 real space projection operators:
  max/ min on nodes  :         94.14         86.91

 Maximum index for augmentation-charges in exchange          445
  SETUP_FOCK is finished

 Broyden mixing: mesh for mixing (old mesh)
   NGX = 13   NGY = 13   NGZ = 13
  (NGX  = 56   NGY  = 56   NGZ  = 56)
  gives a total of   2197 points

 initial charge density was supplied:
 charge density of overlapping atoms calculated
 number of electron      18.0000000 magnetization       1.0000000      1.0000000      1.0000000
 keeping initial charge density in first step

 Maximum index for augmentation-charges        21357 (set IRDMAX)

 First call to EWALD:  gamma=   0.453
 Maximum number of real-space cells 3x 3x 3
 Maximum number of reciprocal cells 3x 3x 3

--------------------------------------- Iteration      1(   1)  ---------------------------------------

 eigenvalue-minimisations  : 20044
 total energy-change (2. order) : 0.3080797E+03  (-0.7021153E+03)
 number of electron      18.0000000 magnetization       1.0000000      1.0000000      1.0000000
 augmentation part       18.0000000 magnetization       1.0000000      1.0000000      1.0000000

 Free energy of the ion-electron system (eV)
  alpha Z        PSCENC =        63.49827359
  Ewald energy   TEWEN  =     -1720.24414233
  -Hartree energ DENC   =      -673.98211291
  -exchange      EXHF   =         0.00000000
  -V(xc)+E(xc)   XCENC  =       -55.41475888
  PAW double counting   =      2254.42671922    -2193.40431754
  entropy T*S    EENTRO =        -0.00071291
  eigenvalues    EBANDS =       -27.57032669
  atomic energy  EATOM  =      2660.77110554
  free energy    TOTEN  =       308.07972709 eV

  energy without entropy =      308.08044000  energy(sigma->0) =      308.08008354
  exchange ACFDT corr.  =         0.00000000  see jH, gK, PRB 81, 115126

[...]

 eigenvalue-minimisations  : 19448
 total energy-change (2. order) :-0.2471378E+03  (-0.2412193E+03)
 number of electron      18.0000000 magnetization       1.0000000      1.0000000      1.0000000
 augmentation part       18.0000000 magnetization       1.0000000      1.0000000      1.0000000

[...]

 eigenvalue-minimisations  :     0
 total energy-change (2. order) : 0.7279274E-01  (-0.1783709E+01)
 number of electron      18.0000000 magnetization       0.0046954      0.0067468      0.0032730
 augmentation part        2.7605528 magnetization       0.0001340      0.0001983      0.0001542

[...]

--------------------------------------- Iteration      1(  27)  ---------------------------------------

 eigenvalue-minimisations  :     0
 total energy-change (2. order) :-0.8965526E-07  (-0.6166177E-07)
 number of electron      18.0000000 magnetization      -0.0000006     -0.0000000     -0.0000015
 augmentation part        2.8575339 magnetization      -0.0000002     -0.0000001     -0.0000003

 Free energy of the ion-electron system (eV)
  alpha Z        PSCENC =        63.49827359
  Ewald energy   TEWEN  =     -1720.24414233
  -Hartree energ DENC   =      -694.72918074
  -exchange      EXHF   =        39.80899058
  -V(xc)+E(xc)   XCENC  =       -55.05421940
  PAW double counting   =      2357.63473904    -2306.06829830
  entropy T*S    EENTRO =        -0.00000000
  eigenvalues    EBANDS =      -358.68441134
  atomic energy  EATOM  =      2660.77110554
  free energy    TOTEN  =       -13.06714488 eV

  energy without entropy =      -13.06714488  energy(sigma->0) =      -13.06714488
  exchange ACFDT corr.  =        -0.00006886  see jH, gK, PRB 81, 115126

  average scaling for gradient   0.7108

 average (electrostatic) potential at core
  the test charge radii are     1.2024
  (the norm of the test charge is              1.0000)
       1-102.9173

 E-fermi :   3.1805     XC(G=0):  -6.7248     alpha+bet : -7.3034

 k-point     1 :       0.0000    0.0000    0.0000
  band No.  band energies     occupation
      1     -34.1955      1.00000
      2     -34.1955      1.00000
      3     -34.1955      1.00000
      4     -34.1955      1.00000
      5     -27.2297      1.00000
      6     -27.2297      1.00000
      7     -27.2236      1.00000
      8     -27.2236      1.00000
      9     -27.2236      1.00000
     10     -27.2236      1.00000
     11     -22.7221      1.00000
     12     -22.7221      1.00000
     13      -8.2227      1.00000
     14      -8.2227      1.00000
     15       2.9761      1.00000
     16       2.9761      1.00000
     17       2.9761      1.00000
     18       2.9761      1.00000
     19       3.4113      0.00000
     20       3.4113      0.00000
     21      10.9291      0.00000
     22      10.9291      0.00000
     23      10.9292      0.00000
     24      10.9306      0.00000
     25      11.2318      0.00000
     26      11.2384      0.00000
     27      11.3708      0.00000
     28      11.3795      0.00000

[...]

 k-point   216 :      -0.1667   -0.1667   -0.1667
  band No.  band energies     occupation
      1     -34.1876      1.00000
      2     -34.1876      1.00000
      3     -34.1748      1.00000
      4     -34.1748      1.00000
      5     -27.2213      1.00000
      6     -27.2213      1.00000
      7     -27.2106      1.00000
      8     -27.2106      1.00000
      9     -27.2082      1.00000
     10     -27.2082      1.00000
     11     -22.6833      1.00000
     12     -22.6833      1.00000
     13      -8.3024      1.00000
     14      -8.3024      1.00000
     15       1.3574      1.00000
     16       1.3574      1.00000
     17       2.8435      1.00000
     18       2.8436      1.00000
     19       5.1305      0.00000
     20       5.1305      0.00000
     21       9.8400      0.00000
     22       9.8400      0.00000
     23      11.1243      0.00000
     24      11.1282      0.00000
     25      11.3377      0.00000
     26      11.3458      0.00000
     27      12.3754      0.00000
     28      12.6527      0.00000

 soft charge-density along one line, spin component           1
         0         1         2         3         4         5         6         7         8         9
 total charge-density along one line

[...]

 soft charge-density along one line, spin component           4
         0         1         2         3         4         5         6         7         8         9
 total charge-density along one line

------------------------ aborting loop because EDIFF is reached ----------------------------------------

  FORCE on cell =-STRESS in cart. coord.  units (eV):
  Direction    XX          YY          ZZ          XY          YZ          ZX
  Alpha Z    63.49827    63.49827    63.49827
  Ewald    -573.41473  -573.41473  -573.41473    -0.00000    -0.00000    -0.00000
  Hartree   231.57640   231.57638   231.57640     0.00001     0.00000     0.00000
  E(xc)     -84.87062   -84.87062   -84.87062    -0.00000    -0.00000    -0.00000
  Local    -175.08151  -175.08141  -175.08145    -0.00006    -0.00001    -0.00003
  n-local   139.81734   139.81735   139.81739    -0.00003    -0.00002    -0.00003
  augment    71.68615    71.68613    71.68613     0.00002     0.00001     0.00001
  Kinetic   399.26563   399.26567   399.26569    -0.00003    -0.00001    -0.00002
  Fock      -77.16030   -77.16028   -77.16028    -0.00002    -0.00001    -0.00001
  Total      -4.68337    -4.68324    -4.68320    -0.00011    -0.00005    -0.00008
  in kB    -124.88415  -124.88065  -124.87965    -0.00297    -0.00123    -0.00213

 VOLUME and BASIS-vectors are now :
  energy-cutoff  :      300.00
  volume of cell :       60.08
      direct lattice vectors                 reciprocal lattice vectors
     4.396350177  0.000000000  0.000000000     0.227461408 -0.131324905 -0.092860731
     2.198175089  3.807350937 -0.000000000     0.000000000  0.262649810 -0.092860731
     2.198175089  1.269116979  3.589604888    -0.000000000  0.000000000  0.278582192

  length of vectors
     4.396350177  4.396350177  4.396350177     0.278582193  0.278582193  0.278582192

 FORCES acting on ions:
    Electron-Ion                     Ewald-Force                    Non-Local-Force
   -.190E-03 0.227E-03 -.607E-04   0.481E-14 0.658E-15 -.418E-15   0.187E-03 -.226E-03 0.572E-04
   -.201E-03 0.240E-03 -.642E-04   0.481E-14 0.658E-15 -.418E-15   0.187E-03 -.226E-03 0.572E-04

 POSITION                                       TOTAL-FORCE (eV/Angst)
      0.00000      0.00000      0.00000        -0.000006      0.000004     -0.000004
    total drift:                               -0.000006      0.000004     -0.000004

  FREE ENERGIE OF THE ION-ELECTRON SYSTEM (eV)
  free  energy   TOTEN  =       -13.06714488 eV

  energy  without entropy=      -13.06714488  energy(sigma->0) =      -13.06714488

 writing wavefunctions

 Spin-Orbit-Coupling matrix elements

 Ion:    1  E_soc:    -32.1749564
 l=   1
     0.0000000    -4.9626563    -4.9626562
    -4.9626563     0.0000000    -4.9626560
    -4.9626562    -4.9626560     0.0000000
 l=   2
     0.0000000    -0.0799718     0.0000000    -0.0799718    -0.3198572
    -0.0799718     0.0000000    -0.2398929    -0.0799793    -0.0799718
     0.0000000    -0.2398929     0.0000000    -0.2398929     0.0000000
    -0.0799718    -0.0799793    -0.2398929     0.0000000    -0.0799718
    -0.3198572    -0.0799718     0.0000000    -0.0799718     0.0000000
 l=   3
     0.0000000     0.0000000     0.0000000     0.0000000     0.0000000     0.0000000     0.0000000
     0.0000000     0.0000000     0.0000000     0.0000000     0.0000000     0.0000000     0.0000000
     0.0000000     0.0000000     0.0000000     0.0000000     0.0000000     0.0000000     0.0000000
     0.0000000     0.0000000     0.0000000     0.0000000     0.0000000     0.0000000     0.0000000
     0.0000000     0.0000000     0.0000000     0.0000000     0.0000000     0.0000000     0.0000000
     0.0000000     0.0000000     0.0000000     0.0000000     0.0000000     0.0000000     0.0000000
     0.0000000     0.0000000     0.0000000     0.0000000     0.0000000     0.0000000     0.0000000