 vasp.5.4.4.18Apr17-6-g9f103f2a35 (build Nov 03 2018 10:20:43) complex

 executed on             LinuxIFC date 2018.11.14  13:27:43

 INCAR:
 POTCAR:    PAW_PBE Rn_d_GW 14Apr2014

 POTCAR:    PAW_PBE Rn_d_GW 14Apr2014
   VRHFIN =Rn:

   TITEL  = PAW_PBE Rn_d_GW 14Apr2014
   POMASS =  220.170; ZVAL   =   18.000    mass and valenz
   ENMAX  =  268.495; ENMIN  =  201.371 eV

  PAW_PBE Rn_d_GW 14Apr2014             :

 POSCAR: Rn_FCC
  positions in direct lattice
  velocities in cartesian coordinates
 exchange correlation table for  LEXCH =        8
   RHO(1)=    0.500       N(1)  =     2000
   RHO(2)=  100.500       N(2)  =     4000

 ion  position               nearest neighbor table
   1  0.000  0.000  0.000-

  LATTYP: Found a face centered cubic cell.
 ALAT       =     6.3961577520

  Lattice vectors:

 A1 = (   4.5227665199,   0.0000000000,   0.0000000000)
 A2 = (   2.2613832599,   3.9168307015,  -0.0000000000)
 A3 = (   2.2613832599,   1.3056102338,   3.6928233999)

Analysis of symmetry for initial positions (statically):
 Subroutine PRICEL returns:
 Original cell was already a primitive cell.

 Routine SETGRP: Setting up the symmetry group for a
 face centered cubic supercell.

 Subroutine GETGRP returns: Found 48 space group operations
 (whereof 48 operations were pure point group operations)
 out of a pool of 48 trial point group operations.

The static configuration has the point symmetry O_h .

Analysis of symmetry for dynamics (positions and initial velocities):
 Subroutine PRICEL returns:
 Original cell was already a primitive cell.

 Routine SETGRP: Setting up the symmetry group for a
 face centered cubic supercell.

 Subroutine GETGRP returns: Found 48 space group operations
 (whereof 48 operations were pure point group operations)
 out of a pool of 48 trial point group operations.

The dynamic configuration has the point symmetry O_h .

 Subroutine INISYM returns: Found 48 space group operations
 (whereof 48 operations are pure point group operations),
 and found     1 'primitive' translations

Automatic generation of k-mesh.
 generate k-points for:    9    9    9
Space group operators:
 irot       det(A)        alpha          n_x          n_y          n_z        tau_x        tau_y        tau_z
    1     1.000000     0.000000     1.000000     0.000000     0.000000     0.000000     0.000000     0.000000
    2    -1.000000     0.000000     1.000000     0.000000     0.000000     0.000000     0.000000     0.000000
    3     1.000000   120.000000    -0.816497    -0.471405    -0.333333     0.000000     0.000000     0.000000
    4    -1.000000   120.000000    -0.816497    -0.471405    -0.333333     0.000000     0.000000     0.000000
    5     1.000000   120.000000     0.816497     0.471405     0.333333     0.000000     0.000000     0.000000
    6    -1.000000   120.000000     0.816497     0.471405     0.333333     0.000000     0.000000     0.000000
    7     1.000000    90.000000    -0.707107    -0.408248     0.577350     0.000000     0.000000     0.000000
    8    -1.000000    90.000000    -0.707107    -0.408248     0.577350     0.000000     0.000000     0.000000
    9     1.000000   180.000000     1.000000     0.000000     0.000000     0.000000     0.000000     0.000000
   10    -1.000000   180.000000     1.000000     0.000000     0.000000     0.000000     0.000000     0.000000
   11     1.000000    90.000000     0.707107    -0.408248     0.577350     0.000000     0.000000     0.000000
   12    -1.000000    90.000000     0.707107    -0.408248     0.577350     0.000000     0.000000     0.000000
   13     1.000000   180.000000     0.707107     0.408248    -0.577350     0.000000     0.000000     0.000000
   14    -1.000000   180.000000     0.707107     0.408248    -0.577350     0.000000     0.000000     0.000000
   15     1.000000   120.000000     0.816497    -0.471405    -0.333333     0.000000     0.000000     0.000000
   16    -1.000000   120.000000     0.816497    -0.471405    -0.333333     0.000000     0.000000     0.000000
   17     1.000000   120.000000     0.000000    -0.942809     0.333333     0.000000     0.000000     0.000000
   18    -1.000000   120.000000     0.000000    -0.942809     0.333333     0.000000     0.000000     0.000000
   19     1.000000    90.000000     0.707107     0.408248    -0.577350     0.000000     0.000000     0.000000
   20    -1.000000    90.000000     0.707107     0.408248    -0.577350     0.000000     0.000000     0.000000
   21     1.000000    90.000000    -0.000000    -0.816497    -0.577350     0.000000     0.000000     0.000000
   22    -1.000000    90.000000    -0.000000    -0.816497    -0.577350     0.000000     0.000000     0.000000
   23     1.000000   180.000000     0.500000     0.866025     0.000000     0.000000     0.000000     0.000000
   24    -1.000000   180.000000     0.500000     0.866025     0.000000     0.000000     0.000000     0.000000
   25     1.000000   120.000000     0.000000     0.942809    -0.333333     0.000000     0.000000     0.000000
   26    -1.000000   120.000000     0.000000     0.942809    -0.333333     0.000000     0.000000     0.000000
   27     1.000000   120.000000    -0.000000     0.000000    -1.000000     0.000000     0.000000     0.000000
   28    -1.000000   120.000000    -0.000000     0.000000    -1.000000     0.000000     0.000000     0.000000
   29     1.000000   180.000000    -0.000000     0.816497     0.577350     0.000000     0.000000     0.000000
   30    -1.000000   180.000000    -0.000000     0.816497     0.577350     0.000000     0.000000     0.000000
   31     1.000000    90.000000    -0.707107     0.408248    -0.577350     0.000000     0.000000     0.000000
   32    -1.000000    90.000000    -0.707107     0.408248    -0.577350     0.000000     0.000000     0.000000
   33     1.000000   180.000000     0.500000     0.288675     0.816497     0.000000     0.000000     0.000000
   34    -1.000000   180.000000     0.500000     0.288675     0.816497     0.000000     0.000000     0.000000
   35     1.000000    90.000000    -0.000000     0.816497     0.577350     0.000000     0.000000     0.000000
   36    -1.000000    90.000000    -0.000000     0.816497     0.577350     0.000000     0.000000     0.000000
   37     1.000000   120.000000    -0.816497     0.471405     0.333333     0.000000     0.000000     0.000000
   38    -1.000000   120.000000    -0.816497     0.471405     0.333333     0.000000     0.000000     0.000000
   39     1.000000   180.000000     0.707107    -0.408248     0.577350     0.000000     0.000000     0.000000
   40    -1.000000   180.000000     0.707107    -0.408248     0.577350     0.000000     0.000000     0.000000
   41     1.000000   120.000000    -0.000000    -0.000000     1.000000     0.000000     0.000000     0.000000
   42    -1.000000   120.000000    -0.000000    -0.000000     1.000000     0.000000     0.000000     0.000000
   43     1.000000   180.000000     0.000000     0.577350    -0.816497     0.000000     0.000000     0.000000
   44    -1.000000   180.000000     0.000000     0.577350    -0.816497     0.000000     0.000000     0.000000
   45     1.000000   180.000000    -0.500000     0.866025     0.000000     0.000000     0.000000     0.000000
   46    -1.000000   180.000000    -0.500000     0.866025     0.000000     0.000000     0.000000     0.000000
   47     1.000000   180.000000    -0.500000     0.288675     0.816497     0.000000     0.000000     0.000000
   48    -1.000000   180.000000    -0.500000     0.288675     0.816497     0.000000     0.000000     0.000000

 Subroutine IBZKPT returns following result:

 Found     35 irreducible k-points:

 Following reciprocal coordinates:
            Coordinates               Weight
  0.000000  0.000000  0.000000      1.000000
  0.111111  0.000000 -0.000000      8.000000
  0.222222 -0.000000 -0.000000      8.000000
  0.333333  0.000000 -0.000000      8.000000
  0.444444 -0.000000 -0.000000      8.000000
  0.111111  0.111111 -0.000000      6.000000
  0.222222  0.111111 -0.000000     24.000000
  0.333333  0.111111 -0.000000     24.000000
  0.444444  0.111111 -0.000000     24.000000
 -0.444444  0.111111  0.000000     24.000000
 -0.333333  0.111111  0.000000     24.000000
 -0.222222  0.111111  0.000000     24.000000
 -0.111111  0.111111  0.000000     12.000000
  0.222222  0.222222 -0.000000      6.000000
  0.333333  0.222222 -0.000000     24.000000
  0.444444  0.222222 -0.000000     24.000000
 -0.444444  0.222222  0.000000     24.000000
 -0.333333  0.222222  0.000000     24.000000
 -0.222222  0.222222  0.000000     12.000000
  0.333333  0.333333 -0.000000      6.000000
  0.444444  0.333333 -0.000000     24.000000
 -0.444444  0.333333  0.000000     24.000000
 -0.333333  0.333333 -0.000000     12.000000
  0.444444  0.444444 -0.000000      6.000000
 -0.444444  0.444444  0.000000     12.000000
  0.333333  0.222222  0.111111     24.000000
  0.444444  0.222222  0.111111     48.000000
 -0.444444  0.222222  0.111111     48.000000
  0.444444  0.333333  0.111111     24.000000
 -0.444444  0.333333  0.111111     48.000000
 -0.333333  0.333333  0.111111     48.000000
 -0.222222  0.333333  0.111111     24.000000
 -0.444444  0.444444  0.111111     24.000000
 -0.333333  0.444444  0.111111     24.000000
 -0.333333  0.444444  0.222222     24.000000

 Following cartesian coordinates:
            Coordinates               Weight
  0.000000  0.000000  0.000000      1.000000
  0.024567 -0.014184 -0.010029      8.000000
  0.049134 -0.028368 -0.020059      8.000000
  0.073701 -0.042551 -0.030088      8.000000
  0.098268 -0.056735 -0.040118      8.000000
  0.024567  0.014184 -0.020059      6.000000
  0.049134 -0.000000 -0.030088     24.000000
  0.073701 -0.014184 -0.040118     24.000000
  0.098268 -0.028368 -0.050147     24.000000
 -0.098268  0.085103  0.030088     24.000000
 -0.073701  0.070919  0.020059     24.000000
 -0.049134  0.056735  0.010029     24.000000
 -0.024567  0.042551  0.000000     12.000000
  0.049134  0.028368 -0.040118      6.000000
  0.073701  0.014184 -0.050147     24.000000
  0.098268 -0.000000 -0.060177     24.000000
 -0.098268  0.113470  0.020059     24.000000
 -0.073701  0.099287  0.010029     24.000000
 -0.049134  0.085103  0.000000     12.000000
  0.073701  0.042551 -0.060177      6.000000
  0.098268  0.028368 -0.070206     24.000000
 -0.098268  0.141838  0.010029     24.000000
 -0.073701  0.127654  0.000000     12.000000
  0.098268  0.056735 -0.080236      6.000000
 -0.098268  0.170206  0.000000     12.000000
  0.073701  0.014184 -0.020059     24.000000
  0.098268  0.000000 -0.030088     48.000000
 -0.098268  0.113470  0.050147     48.000000
  0.098268  0.028368 -0.040118     24.000000
 -0.098268  0.141838  0.040118     48.000000
 -0.073701  0.127654  0.030088     48.000000
 -0.049134  0.113470  0.020059     24.000000
 -0.098268  0.170206  0.030088     24.000000
 -0.073701  0.156022  0.020059     24.000000
 -0.073701  0.156022  0.050147     24.000000

 SYSTEM =  Cn_FCC
 POSCAR =  Rn_FCC

 Startparameter for this run:
   NWRITE =      2    write-flag & timer
   PREC   = accura    normal or accurate (medium, high low for compatibility)
   ISTART =      0    job   : 0-new  1-cont  2-samecut
[...]
   LVEL    =     F    velocity operator in full k-point grid
   LINTERFAST=   F  fast interpolation
   KINTER  =     0    interpolate to denser k-point grid
   CSHIFT  =0.1000    complex shift for real part using Kramers Kronig
   OMEGAMAX=  -1.0    maximum frequency
   DEG_THRESHOLD= 0.2000000E-02 threshold for treating states as degnerate
   RTIME   =   -0.100 relaxation time in fs
  (WPLASMAI=    0.000 imaginary part of plasma frequency in eV, 0.658/RTIME)
   DFIELD  = 0.0000000 0.0000000 0.0000000 field for delta impulse in time

 Orbital magnetization related:
   ORBITALMAG=     F  switch on orbital magnetization
   LCHIMAG   =     F  perturbation theory with respect to B field
   DQ        =  0.001000  dq finite difference perturbation B field
   LLRAUG    =     F  two centre corrections for induced B field

 quasi-Newton-method for relaxation of ions
 charge density and potential will be updated during run
 non-spin polarized calculation
 Variant of blocked Davidson
 Davidson routine will perform the subspace rotation
 perform sub-space diagonalisation
    after iterative eigenvector-optimisation
 modified Broyden-mixing scheme, WC =      100.0
 initial mixing is a Kerker type mixing with AMIX =  0.4000 and BMIX =      1.0000
 Hartree-type preconditioning will be used
 using additional bands            5
 reciprocal scheme for non local part
 use partial core corrections
 calculate Harris-corrections to forces
   (improved forces if not selfconsistent)
 use gradient corrections
 use of overlap-Matrix (Vanderbilt PP)
 Methfessel and Paxton  Order N= 1 SIGMA  =   0.10

  energy-cutoff  :      600.00
  volume of cell :       65.42
      direct lattice vectors                 reciprocal lattice vectors
     4.522766520  0.000000000  0.000000000     0.221103609 -0.127654228 -0.090265170
     2.261383260  3.916830702 -0.000000000     0.000000000  0.255308456 -0.090265170
     2.261383260  1.305610234  3.692823400    -0.000000000  0.000000000  0.270795511

  length of vectors
     4.522766520  4.522766520  4.522766520     0.270795511  0.270795511  0.270795511

 k-points in units of 2pi/SCALE and weight: read from INCAR
   0.00000000  0.00000000  0.00000000       0.001
   0.02456707 -0.01418380 -0.01002946       0.011
   0.04913414 -0.02836761 -0.02005893       0.011
   0.07370120 -0.04255141 -0.03008839       0.011
   0.09826827 -0.05673521 -0.04011785       0.011
   0.02456707  0.01418380 -0.02005893       0.008
   0.04913414 -0.00000000 -0.03008839       0.033
   0.07370120 -0.01418380 -0.04011785       0.033
   0.09826827 -0.02836761 -0.05014732       0.033
  -0.09826827  0.08510282  0.03008839       0.033
  -0.07370120  0.07091902  0.02005893       0.033
  -0.04913414  0.05673521  0.01002946       0.033
  -0.02456707  0.04255141  0.00000000       0.016
   0.04913414  0.02836761 -0.04011785       0.008
   0.07370120  0.01418380 -0.05014732       0.033
   0.09826827 -0.00000000 -0.06017678       0.033
  -0.09826827  0.11347043  0.02005893       0.033
  -0.07370120  0.09928662  0.01002946       0.033
  -0.04913414  0.08510282  0.00000000       0.016
   0.07370120  0.04255141 -0.06017678       0.008
   0.09826827  0.02836761 -0.07020624       0.033
  -0.09826827  0.14183803  0.01002946       0.033
  -0.07370120  0.12765423  0.00000000       0.016
   0.09826827  0.05673521 -0.08023571       0.008
  -0.09826827  0.17020564  0.00000000       0.016
   0.07370120  0.01418380 -0.02005893       0.033
   0.09826827  0.00000000 -0.03008839       0.066
  -0.09826827  0.11347043  0.05014732       0.066
   0.09826827  0.02836761 -0.04011785       0.033
  -0.09826827  0.14183803  0.04011785       0.066
  -0.07370120  0.12765423  0.03008839       0.066
  -0.04913414  0.11347043  0.02005893       0.033
  -0.09826827  0.17020564  0.03008839       0.033
  -0.07370120  0.15602183  0.02005893       0.033
  -0.07370120  0.15602183  0.05014732       0.033

 k-points in reciprocal lattice and weights: read from INCAR
   0.00000000  0.00000000  0.00000000       0.001
   0.11111111  0.00000000 -0.00000000       0.011
   0.22222222 -0.00000000 -0.00000000       0.011
   0.33333333  0.00000000 -0.00000000       0.011
   0.44444444 -0.00000000 -0.00000000       0.011
   0.11111111  0.11111111 -0.00000000       0.008
   0.22222222  0.11111111 -0.00000000       0.033
   0.33333333  0.11111111 -0.00000000       0.033
   0.44444444  0.11111111 -0.00000000       0.033
  -0.44444444  0.11111111  0.00000000       0.033
  -0.33333333  0.11111111  0.00000000       0.033
  -0.22222222  0.11111111  0.00000000       0.033
  -0.11111111  0.11111111  0.00000000       0.016
   0.22222222  0.22222222 -0.00000000       0.008
   0.33333333  0.22222222 -0.00000000       0.033
   0.44444444  0.22222222 -0.00000000       0.033
  -0.44444444  0.22222222  0.00000000       0.033
  -0.33333333  0.22222222  0.00000000       0.033
  -0.22222222  0.22222222  0.00000000       0.016
   0.33333333  0.33333333 -0.00000000       0.008
   0.44444444  0.33333333 -0.00000000       0.033
  -0.44444444  0.33333333  0.00000000       0.033
  -0.33333333  0.33333333 -0.00000000       0.016
   0.44444444  0.44444444 -0.00000000       0.008
  -0.44444444  0.44444444  0.00000000       0.016
   0.33333333  0.22222222  0.11111111       0.033
   0.44444444  0.22222222  0.11111111       0.066
  -0.44444444  0.22222222  0.11111111       0.066
   0.44444444  0.33333333  0.11111111       0.033
  -0.44444444  0.33333333  0.11111111       0.066
  -0.33333333  0.33333333  0.11111111       0.066
  -0.22222222  0.33333333  0.11111111       0.033
  -0.44444444  0.44444444  0.11111111       0.033
  -0.33333333  0.44444444  0.11111111       0.033
  -0.33333333  0.44444444  0.22222222       0.033

 position of ions in fractional coordinates (direct lattice)
   0.00000000  0.00000000  0.00000000

 position of ions in cartesian coordinates  (Angst):
   0.00000000  0.00000000  0.00000000

 k-point  1 :   0.0000 0.0000 0.0000  plane waves:    2133
 k-point  2 :   0.1111 0.0000-0.0000  plane waves:    2157
 k-point  3 :   0.2222-0.0000-0.0000  plane waves:    2166
 k-point  4 :   0.3333 0.0000-0.0000  plane waves:    2181
 k-point  5 :   0.4444-0.0000-0.0000  plane waves:    2177
 k-point  6 :   0.1111 0.1111-0.0000  plane waves:    2161
 k-point  7 :   0.2222 0.1111-0.0000  plane waves:    2172
 k-point  8 :   0.3333 0.1111-0.0000  plane waves:    2168
 k-point  9 :   0.4444 0.1111-0.0000  plane waves:    2176
 k-point 10 :  -0.4444 0.1111 0.0000  plane waves:    2179
 k-point 11 :  -0.3333 0.1111 0.0000  plane waves:    2182
 k-point 12 :  -0.2222 0.1111 0.0000  plane waves:    2181
 k-point 13 :  -0.1111 0.1111 0.0000  plane waves:    2165
 k-point 14 :   0.2222 0.2222-0.0000  plane waves:    2173
 k-point 15 :   0.3333 0.2222-0.0000  plane waves:    2181
 k-point 16 :   0.4444 0.2222-0.0000  plane waves:    2176
 k-point 17 :  -0.4444 0.2222 0.0000  plane waves:    2190
 k-point 18 :  -0.3333 0.2222 0.0000  plane waves:    2184
 k-point 19 :  -0.2222 0.2222 0.0000  plane waves:    2183
 k-point 20 :   0.3333 0.3333-0.0000  plane waves:    2181
 k-point 21 :   0.4444 0.3333-0.0000  plane waves:    2172
 k-point 22 :  -0.4444 0.3333 0.0000  plane waves:    2184
 k-point 23 :  -0.3333 0.3333-0.0000  plane waves:    2185
 k-point 24 :   0.4444 0.4444-0.0000  plane waves:    2184
 k-point 25 :  -0.4444 0.4444 0.0000  plane waves:    2193
 k-point 26 :   0.3333 0.2222 0.1111  plane waves:    2178
 k-point 27 :   0.4444 0.2222 0.1111  plane waves:    2178
 k-point 28 :  -0.4444 0.2222 0.1111  plane waves:    2188
 k-point 29 :   0.4444 0.3333 0.1111  plane waves:    2181
 k-point 30 :  -0.4444 0.3333 0.1111  plane waves:    2192
 k-point 31 :  -0.3333 0.3333 0.1111  plane waves:    2195
 k-point 32 :  -0.2222 0.3333 0.1111  plane waves:    2180
 k-point 33 :  -0.4444 0.4444 0.1111  plane waves:    2189
 k-point 34 :  -0.3333 0.4444 0.1111  plane waves:    2192
 k-point 35 :  -0.3333 0.4444 0.2222  plane waves:    2191

 maximum and minimum number of plane-waves per node :       555      524

 maximum number of plane-waves:      2195
 maximum index in each direction:
   IXMAX=    9   IYMAX=    9   IZMAX=    9
   IXMIN=   -9   IYMIN=   -9   IZMIN=   -9

 parallel 3D FFT for wavefunctions:
    minimum data exchange during FFTs selected (reduces bandwidth)
 parallel 3D FFT for charge:
    minimum data exchange during FFTs selected (reduces bandwidth)

 Broyden mixing: mesh for mixing (old mesh)
   NGX = 19   NGY = 19   NGZ = 19
  (NGX  = 72   NGY  = 72   NGZ  = 72)
  gives a total of   6859 points

 initial charge density was supplied:
 charge density of overlapping atoms calculated
 number of electron      18.0000000 magnetization
 keeping initial charge density in first step

 Maximum index for augmentation-charges        26475 (set IRDMAX)

 First call to EWALD:  gamma=   0.440
 Maximum number of real-space cells 3x 3x 3
 Maximum number of reciprocal cells 3x 3x 3

--------------------------------------- Iteration      1(   1)  ---------------------------------------

 eigenvalue-minimisations  :  1076
 total energy-change (2. order) : 0.1951801E+03  (-0.1100765E+04)
 number of electron      18.0000000 magnetization
 augmentation part       18.0000000 magnetization

 Free energy of the ion-electron system (eV)
  alpha Z        PSCENC =        64.81648083
  Ewald energy   TEWEN  =     -1672.16140979
  -Hartree energ DENC   =     -1019.09887106
  -exchange      EXHF   =         0.00000000
  -V(xc)+E(xc)   XCENC  =        36.78221804
  PAW double counting   =      2507.63485326    -2478.12974153
  entropy T*S    EENTRO =         0.00017452
  eigenvalues    EBANDS =      -275.36999697
  atomic energy  EATOM  =      3030.70638948
  Solvation  Ediel_sol  =         0.00000000
  free energy    TOTEN  =       195.18009679 eV

  energy without entropy =      195.17992227  energy(sigma->0) =      195.18003861

[...]

 eigenvalue-minimisations  :  1262
 total energy-change (2. order) :-0.1340323E+03  (-0.1255256E+03)
 number of electron      18.0000000 magnetization
 augmentation part       18.0000000 magnetization

[...]

 Broyden mixing:
  rms(total) = 0.25208E-01    rms(broyden)= 0.25179E-01
  rms(prec ) = 0.29157E-01
  weight for this iteration     100.00

[...]

 eigenvalues of (default mixing * dielectric matrix)
  average eigenvalue GAMMA=   1.3585
  1.3585

[...]

 eigenvalue-minimisations  :  1006
 total energy-change (2. order) :-0.5046977E-06  (-0.1273635E-07)
 number of electron      18.0000000 magnetization
 augmentation part        7.1347368 magnetization

[...]

 Broyden mixing:
  rms(total) = 0.13355E-03    rms(broyden)= 0.13252E-03
  rms(prec ) = 0.18014E-03
  weight for this iteration     100.00

[...]

 Broyden mixing:
  rms(total) = 0.17575E-04    rms(broyden)= 0.59481E-05
  rms(prec ) = 0.93143E-05
  weight for this iteration     100.00
  WARNING: grid for Broyden might be to small

 eigenvalues of (default mixing * dielectric matrix)
  average eigenvalue GAMMA=   1.5942
  3.2361  2.6364  1.5785  1.5785  1.7358  1.3467  1.3467  1.1274  1.1274  0.8708
  0.9520

[...]

--------------------------------------- Iteration      1(  17)  ---------------------------------------

 eigenvalue-minimisations  :   712
 total energy-change (2. order) : 0.3116929E-07  (-0.2082120E-08)
 number of electron      18.0000000 magnetization
 augmentation part        7.1347824 magnetization

 Free energy of the ion-electron system (eV)
  alpha Z        PSCENC =        64.81648083
  Ewald energy   TEWEN  =     -1672.16140979
  -Hartree energ DENC   =     -1019.23155669
  -exchange      EXHF   =         0.00000000
  -V(xc)+E(xc)   XCENC  =        36.78343253
  PAW double counting   =      2504.55433625    -2475.05721223
  entropy T*S    EENTRO =         0.00147428
  eigenvalues    EBANDS =      -470.43184171
  atomic energy  EATOM  =      3030.70638948
  Solvation  Ediel_sol  =         0.00000000
  free energy    TOTEN  =        -0.01990705 eV

  energy without entropy =       -0.02138133  energy(sigma->0) =       -0.02039848

 average (electrostatic) potential at core
  the test charge radii are     1.0367
  (the norm of the test charge is              1.0000)
       1 -84.6268

 E-fermi :  -2.3973     XC(G=0):  -6.9357     alpha+bet : -4.5288

 k-point     1 :       0.0000    0.0000    0.0000
  band No.  band energies     occupation
      1     -41.6743      2.00000
      2     -41.6743      2.00000
      3     -41.6743      2.00000
      4     -41.6741      2.00000
      5     -41.6741      2.00000
      6     -17.4400      2.00000
      7      -2.4266      1.47294
      8      -2.4266      1.47294
      9      -2.4266      1.47293
     10       2.4450      0.00000
     11       7.6756      0.00000
     12       7.6756      0.00000
     13       7.6756      0.00000
     14       9.4714      0.00000

[...]

 k-point    35 :      -0.3333    0.4444    0.2222
  band No.  band energies     occupation
      1     -41.6741      2.00000
      2     -41.6741      2.00000
      3     -41.6740      2.00000
      4     -41.6739      2.00000
      5     -41.6737      2.00000
      6     -17.2711      2.00000
      7      -3.6834      2.00000
      8      -3.4690      2.00000
      9      -3.0548      2.00000
     10       5.4325      0.00000
     11       6.5791      0.00000
     12       6.8062      0.00000
     13       8.0848      0.00000
     14      11.2053      0.00000

 soft charge-density along one line, spin component           1
         0         1         2         3         4         5         6         7         8         9
 total charge-density along one line

------------------------ aborting loop because EDIFF is reached ----------------------------------------

         DFTD3 V3.0 Rev 1
 IVDW         = 12
 DF pbe
 parameters
 VDW_S6       =    1.0000
 VDW_S8       =    0.7875
 VDW_A1       =    0.4289
 VDW_A2       =    4.4407
 k1-k3        =   16.0000    1.3333   -4.0000
 VDW_RADIUS   =   50.2022 A
 VDW_CNRADIUS =   21.1671 A
 Edisp (eV)   -0.20540

 E6    (eV) :    -0.1076
 E8    (eV) :    -0.0978
 % E8        : 47.62

  FORCE on cell =-STRESS in cart. coord.  units (eV):
  Direction    XX          YY          ZZ          XY          YZ          ZX
  Alpha Z    64.81648    64.81648    64.81648
  Ewald    -557.38715  -557.38715  -557.38715     0.00000    -0.00000     0.00000
  Hartree   339.74439   339.74439   339.74439     0.00000    -0.00000     0.00000
  E(xc)     -99.10681   -99.10681   -99.10681    -0.00000    -0.00000    -0.00000
  Local     -74.65170   -74.65170   -74.65170     0.00000     0.00000     0.00000
  n-local    66.73346    68.23489    69.06912     0.54677    -0.16864     1.48213
  augment    99.44097    99.44097    99.44097    -0.00000    -0.00000    -0.00000
  Kinetic   157.14174   159.75974   161.25473     1.08827    -0.09049     2.64805
  Fock        0.00000     0.00000     0.00000     0.00000     0.00000     0.00000
  vdW        -0.25120    -0.25120    -0.25120     0.00000    -0.00000    -0.00000
  Total       0.00288     0.00288     0.00288     0.00000     0.00000     0.00000
  in kB       0.07045     0.07045     0.07045     0.00000     0.00000     0.00000

 VOLUME and BASIS-vectors are now :
  energy-cutoff  :      600.00
  volume of cell :       65.42
      direct lattice vectors                 reciprocal lattice vectors
     4.522766520  0.000000000  0.000000000     0.221103609 -0.127654228 -0.090265170
     2.261383260  3.916830702 -0.000000000     0.000000000  0.255308456 -0.090265170
     2.261383260  1.305610234  3.692823400    -0.000000000  0.000000000  0.270795511

  length of vectors
     4.522766520  4.522766520  4.522766520     0.270795511  0.270795511  0.270795511

 FORCES acting on ions
    electron-ion (+dipol)            ewald-force                    non-local-force                 convergence-correction
   -.784E-13 0.386E-13 -.125E-12   0.767E-15 -.959E-15 0.893E-15   -.165E-22 0.827E-23 0.331E-23   -.386E-13 0.408E-13 0.812E-14
   -.784E-13 0.386E-13 -.125E-12   0.767E-15 -.959E-15 0.893E-15   -.165E-22 0.827E-23 0.331E-23   -.386E-13 0.408E-13 0.812E-14

 POSITION                                       TOTAL-FORCE (eV/Angst)
      0.00000      0.00000      0.00000         0.000000      0.000000      0.000000
    total drift:                               -0.000000      0.000000     -0.000000

  FREE ENERGIE OF THE ION-ELECTRON SYSTEM (eV)
  free  energy   TOTEN  =        -0.22530989 eV

  energy  without entropy=       -0.22678418  energy(sigma->0) =       -0.22580132

 Quasi-Newton relaxation of ions (Broydens 2nd method)
  g(Force)  = 0.000E+00   g(Stress)= 0.239E-06

 Reset! Starting new Quasi-Newton update for ions

 reached required accuracy - stopping structural energy minimisation