 vasp.5.4.4.18Apr17-6-g9f103f2a35 (build Jul 09 2018 16:43:14) complex

 executed on             LinuxIFC date 2018.11.29  21:58:27

 INCAR:
 POTCAR:    PAW_PBE He_GW 13May2007

 POTCAR:    PAW_PBE He_GW 13May2007
   VRHFIN =He: 1s

   TITEL  = PAW_PBE He_GW 13May2007
   POMASS =    4.000; ZVAL   =    2.000    mass and valenz
   ENMAX  =  405.780; ENMIN  =  304.335 eV

  PAW_PBE He_GW 13May2007               :

 POSCAR: He_FCC
  positions in direct lattice
  velocities in cartesian coordinates

 METAGGA = SCAN     LMAXTAU =  0    LMIXTAU =  F

 ion  position               nearest neighbor table
   1  0.000  0.000  0.000-

IMPORTANT INFORMATION: All symmetrisations will be switched off!
NOSYMM: (Re-)initialisation of all symmetry stuff for point group C_1.

 KPOINTS: k-points

Automatic generation of k-mesh.
Space group operators:
 irot       det(A)        alpha          n_x          n_y          n_z        tau_x        tau_y        tau_z
    1     1.000000     0.000000     1.000000     0.000000     0.000000     0.000000     0.000000     0.000000

 Subroutine IBZKPT returns following result:

 Found    216 irreducible k-points:

 Following reciprocal coordinates:
            Coordinates               Weight
  0.000000  0.000000  0.000000      1.000000
  0.166667 -0.000000  0.000000      1.000000
  0.333333 -0.000000  0.000000      1.000000
  0.500000 -0.000000  0.000000      1.000000
 -0.333333  0.000000 -0.000000      1.000000
 -0.166667  0.000000 -0.000000      1.000000
  0.000000  0.166667 -0.000000      1.000000
  0.166667  0.166667  0.000000      1.000000
  0.333333  0.166667  0.000000      1.000000
  0.500000  0.166667  0.000000      1.000000
 -0.333333  0.166667 -0.000000      1.000000
 -0.166667  0.166667 -0.000000      1.000000
  0.000000  0.333333  0.000000      1.000000
  0.166667  0.333333  0.000000      1.000000
  0.333333  0.333333  0.000000      1.000000
  0.500000  0.333333  0.000000      1.000000
 -0.333333  0.333333 -0.000000      1.000000
 -0.166667  0.333333  0.000000      1.000000
  0.000000  0.500000  0.000000      1.000000
  0.166667  0.500000  0.000000      1.000000
  0.333333  0.500000  0.000000      1.000000
  0.500000  0.500000  0.000000      1.000000
 -0.333333  0.500000 -0.000000      1.000000
 -0.166667  0.500000 -0.000000      1.000000
  0.000000 -0.333333  0.000000      1.000000
  0.166667 -0.333333 -0.000000      1.000000
  0.333333 -0.333333  0.000000      1.000000
  0.500000 -0.333333 -0.000000      1.000000
 -0.333333 -0.333333 -0.000000      1.000000
 -0.166667 -0.333333  0.000000      1.000000
  0.000000 -0.166667  0.000000      1.000000
  0.166667 -0.166667  0.000000      1.000000
  0.333333 -0.166667  0.000000      1.000000
  0.500000 -0.166667  0.000000      1.000000
 -0.333333 -0.166667 -0.000000      1.000000
 -0.166667 -0.166667 -0.000000      1.000000
  0.000000  0.000000  0.166667      1.000000
  0.166667 -0.000000  0.166667      1.000000
  0.333333 -0.000000  0.166667      1.000000
  0.500000 -0.000000  0.166667      1.000000
 -0.333333  0.000000  0.166667      1.000000
 -0.166667  0.000000  0.166667      1.000000
  0.000000  0.166667  0.166667      1.000000
  0.166667  0.166667  0.166667      1.000000
  0.333333  0.166667  0.166667      1.000000
  0.500000  0.166667  0.166667      1.000000
 -0.333333  0.166667  0.166667      1.000000
 -0.166667  0.166667  0.166667      1.000000
  0.000000  0.333333  0.166667      1.000000
  0.166667  0.333333  0.166667      1.000000
  0.333333  0.333333  0.166667      1.000000
  0.500000  0.333333  0.166667      1.000000
 -0.333333  0.333333  0.166667      1.000000
 -0.166667  0.333333  0.166667      1.000000
  0.000000  0.500000  0.166667      1.000000
  0.166667  0.500000  0.166667      1.000000
  0.333333  0.500000  0.166667      1.000000
  0.500000  0.500000  0.166667      1.000000
 -0.333333  0.500000  0.166667      1.000000
 -0.166667  0.500000  0.166667      1.000000
[...]
  0.500000  0.500000 -0.166667      1.000000
 -0.333333  0.500000 -0.166667      1.000000
 -0.166667  0.500000 -0.166667      1.000000
  0.000000 -0.333333 -0.166667      1.000000
  0.166667 -0.333333 -0.166667      1.000000
  0.333333 -0.333333 -0.166667      1.000000
  0.500000 -0.333333 -0.166667      1.000000
 -0.333333 -0.333333 -0.166667      1.000000
 -0.166667 -0.333333 -0.166667      1.000000
  0.000000 -0.166667 -0.166667      1.000000
  0.166667 -0.166667 -0.166667      1.000000
  0.333333 -0.166667 -0.166667      1.000000
  0.500000 -0.166667 -0.166667      1.000000
 -0.333333 -0.166667 -0.166667      1.000000
 -0.166667 -0.166667 -0.166667      1.000000

 Following cartesian coordinates:
            Coordinates               Weight
  0.000000  0.000000  0.000000      1.000000
  0.058580 -0.033821 -0.023915      1.000000
  0.117160 -0.067642 -0.047830      1.000000
  0.175740 -0.101463 -0.071745      1.000000
 -0.117160  0.067642  0.047830      1.000000
 -0.058580  0.033821  0.023915      1.000000
  0.000000  0.067642 -0.023915      1.000000
  0.058580  0.033821 -0.047830      1.000000
  0.117160  0.000000 -0.071745      1.000000
  0.175740 -0.033821 -0.095661      1.000000
 -0.117160  0.135285  0.023915      1.000000
 -0.058580  0.101463 -0.000000      1.000000
  0.000000  0.135285 -0.047830      1.000000
  0.058580  0.101463 -0.071745      1.000000
  0.117160  0.067642 -0.095661      1.000000
  0.175740  0.033821 -0.119576      1.000000
 -0.117160  0.202927 -0.000000      1.000000
 -0.058580  0.169106 -0.023915      1.000000
  0.000000  0.202927 -0.071745      1.000000
  0.058580  0.169106 -0.095661      1.000000
  0.117160  0.135285 -0.119576      1.000000
  0.175740  0.101463 -0.143491      1.000000
 -0.117160  0.270569 -0.023915      1.000000
 -0.058580  0.236748 -0.047830      1.000000
  0.000000 -0.135285  0.047830      1.000000
  0.058580 -0.169106  0.023915      1.000000
  0.117160 -0.202927  0.000000      1.000000
  0.175740 -0.236748 -0.023915      1.000000
 -0.117160 -0.067642  0.095661      1.000000
 -0.058580 -0.101463  0.071745      1.000000
  0.000000 -0.067642  0.023915      1.000000
  0.058580 -0.101463  0.000000      1.000000
  0.117160 -0.135285 -0.023915      1.000000
  0.175740 -0.169106 -0.047830      1.000000
 -0.117160 -0.000000  0.071745      1.000000
 -0.058580 -0.033821  0.047830      1.000000
  0.000000  0.000000  0.071745      1.000000
  0.058580 -0.033821  0.047830      1.000000
  0.117160 -0.067642  0.023915      1.000000
  0.175740 -0.101463  0.000000      1.000000
 -0.117160  0.067642  0.119576      1.000000
 -0.058580  0.033821  0.095661      1.000000
  0.000000  0.067642  0.047830      1.000000
  0.058580  0.033821  0.023915      1.000000
  0.117160  0.000000  0.000000      1.000000
  0.175740 -0.033821 -0.023915      1.000000
 -0.117160  0.135285  0.095661      1.000000
 -0.058580  0.101463  0.071745      1.000000
  0.000000  0.135285  0.023915      1.000000
  0.058580  0.101463 -0.000000      1.000000
  0.117160  0.067642 -0.023915      1.000000
  0.175740  0.033821 -0.047830      1.000000
 -0.117160  0.202927  0.071745      1.000000
 -0.058580  0.169106  0.047830      1.000000
  0.000000  0.202927 -0.000000      1.000000
  0.058580  0.169106 -0.023915      1.000000
  0.117160  0.135285 -0.047830      1.000000
  0.175740  0.101463 -0.071745      1.000000
 -0.117160  0.270569  0.047830      1.000000
 -0.058580  0.236748  0.023915      1.000000
[...]
  0.175740  0.101463 -0.215236      1.000000
 -0.117160  0.270569 -0.095661      1.000000
 -0.058580  0.236748 -0.119576      1.000000
  0.000000 -0.135285 -0.023915      1.000000
  0.058580 -0.169106 -0.047830      1.000000
  0.117160 -0.202927 -0.071745      1.000000
  0.175740 -0.236748 -0.095661      1.000000
 -0.117160 -0.067642  0.023915      1.000000
 -0.058580 -0.101463  0.000000      1.000000
  0.000000 -0.067642 -0.047830      1.000000
  0.058580 -0.101463 -0.071745      1.000000
  0.117160 -0.135285 -0.095661      1.000000
  0.175740 -0.169106 -0.119576      1.000000
 -0.117160 -0.000000 -0.000000      1.000000
 -0.058580 -0.033821 -0.023915      1.000000

 SYSTEM =  Og_FCC
 POSCAR =  He_FCC

 Startparameter for this run:
   NWRITE =      2    write-flag & timer
   PREC   = accura    normal or accurate (medium, high low for compatibility)
   ISTART =      1    job   : 0-new  1-cont  2-samecut
   ICHARG =      0    charge: 1-file 2-atom 10-const
   ISPIN  =      1    spin polarized calculation?
   LNONCOLLINEAR =      T non collinear calculations
   LSORBIT =      T    spin-orbit coupling
   INIWAV =      1    electr: 0-lowe 1-rand  2-diag
   LASPH  =      F    aspherical Exc in radial PAW
   METAGGA=      F    non-selfconsistent MetaGGA calc.

 Electronic Relaxation 1
   ENCUT  =  300.0 eV  22.05 Ry    4.70 a.u.   4.02  4.02  4.02*2*pi/ulx,y,z
   ENINI  =  300.0     initial cutoff
   ENAUG  = 1514.2 eV  augmentation charge cutoff
   NELM   =     50;   NELMIN=  2; NELMDL= -5     # of ELM steps
   EDIFF  = 0.1E-07   stopping-criterion for ELM
   LREAL  =      F    real-space projection
   NLSPLINE    = F    spline interpolate recip. space projectors
   LCOMPAT=      F    compatible to vasp.4.4
   GGA_COMPAT  = F    GGA compatible to vasp.4.4-vasp.4.6
   LMAXPAW     = -100 max onsite density
   LMAXMIX     =    2 max onsite mixed and CHGCAR
   VOSKOWN=      0    Vosko Wilk Nusair interpolation
   ROPT   =    0.00000
 Ionic relaxation
   EDIFFG = 0.1E-04   stopping-criterion for IOM
   NSW    =      1    number of steps for IOM
   NBLOCK =      1;   KBLOCK =      1    inner block; outer block
   IBRION =     -1    ionic relax: 0-MD 1-quasi-New 2-CG
   NFREE  =      5    steps in history (QN), initial steepest desc. (CG)
   ISIF   =      3    stress and relaxation
   IWAVPR =     10    prediction:  0-non 1-charg 2-wave 3-comb
   ISYM   =      0    0-nonsym 1-usesym 2-fastsym
   LCORR  =      T    Harris-Foulkes like correction to forces

   POTIM  = 0.1000    time-step for ionic-motion
   TEIN   =    0.0    initial temperature
   TEBEG  =    0.0;   TEEND  =   0.0 temperature during run
   SMASS  =  -3.00    Nose mass-parameter (am)
   estimated Nose-frequenzy (Omega)   =  0.10E-29 period in steps =****** mass=  -0.185E-27a.u.
   SCALEE = 1.0000    scale energy and forces
   NPACO  =    256;   APACO  = 16.0  distance and # of slots for P.C.
   PSTRESS=    0.0 pullay stress

  Mass of Ions in am
   POMASS =   4.00
  Ionic Valenz
   ZVAL   =   2.00
  Atomic Wigner-Seitz radii
  virtual crystal weights
   VCA    =   1.00
   NELECT =       2.0000    total number of electrons
   NUPDOWN=      -1.0000    fix difference up-down

 DOS related values:
   EMIN   =  10.00;   EMAX   =-10.00  energy-range for DOS
   EFERMI =   0.00
   ISMEAR =     0;   SIGMA  =   0.00  broadening in eV -4-tet -1-fermi 0-gaus

 Electronic relaxation 2 (details)
   IALGO  =     90    algorithm
   LDIAG  =      T    sub-space diagonalisation (order eigenvalues)
   LSUBROT=      F    optimize rotation matrix (better conditioning)
   TURBO    =      0    0=normal 1=particle mesh
   IRESTART =      0    0=no restart 2=restart with 2 vectors
   NREBOOT  =      0    no. of reboots
   NMIN     =      0    reboot dimension
[...]
  102.727636    0.981818    0.981818    0.981818    0.000001    0.000000    0.000000
  104.824118    0.982169    0.982168    0.982167    0.000001    0.000000    0.000001
  106.920601    0.982613    0.982613    0.982613    0.000000    0.000000    0.000000
  109.017083    0.986531    0.986530    0.986530    0.000001    0.000000    0.000000
  111.113565    0.985543    0.985543    0.985543   -0.000000   -0.000000   -0.000000
  113.210048    0.987516    0.987516    0.987516    0.000000    0.000000    0.000000
  115.306530    0.986966    0.986966    0.986966    0.000000    0.000000    0.000000
  117.403013    0.988454    0.988453    0.988453    0.000001    0.000000    0.000001
  119.499495    0.990428    0.990428    0.990428   -0.000000   -0.000000   -0.000000
  121.595977    0.984157    0.984160    0.984160   -0.000002   -0.000001   -0.000002
  123.692460    0.987435    0.987435    0.987435    0.000000    0.000000    0.000000
[...]
  178.201001    0.994305    0.994304    0.994304    0.000001    0.000000    0.000000
  180.297484    0.994465    0.994465    0.994465    0.000000    0.000000    0.000000
  182.393966    0.994617    0.994616    0.994616    0.000000    0.000000    0.000000
  184.490448    0.994761    0.994760    0.994760    0.000000    0.000000    0.000000
  186.586931    0.994898    0.994897    0.994897    0.000000    0.000000    0.000000
  188.683413    0.995028    0.995028    0.995028    0.000000    0.000000    0.000000
  190.779895    0.995153    0.995153    0.995153    0.000000    0.000000    0.000000
  192.876378    0.995273    0.995273    0.995273    0.000000    0.000000    0.000000
  194.972860    0.995387    0.995387    0.995387    0.000000    0.000000    0.000000
  197.069342    0.995497    0.995497    0.995497    0.000000    0.000000    0.000000
  199.165825    0.995603    0.995603    0.995603    0.000000    0.000000    0.000000
  201.262307    0.995705    0.995705    0.995705    0.000000    0.000000    0.000000
  203.358790    0.995803    0.995803    0.995803    0.000000    0.000000    0.000000
  205.455272    0.995897    0.995897    0.995897    0.000000    0.000000    0.000000
  207.551754    0.995988    0.995988    0.995988    0.000000    0.000000    0.000000

  frequency dependent IMAGINARY DIELECTRIC FUNCTION (independent particle, no local field effects) current-current (2nd set in vasprun.xml)
     E(ev)      X         Y         Z        XY        YZ        ZX
    0.000000    0.000000    0.000000    0.000000    0.000000    0.000000    0.000000
    2.096482    0.000000    0.000000    0.000000    0.000000    0.000000    0.000000
    4.192965    0.000000    0.000000    0.000000    0.000000    0.000000    0.000000
    6.289447    0.000000    0.000000    0.000000    0.000000    0.000000    0.000000
    8.385929    0.000000    0.000000    0.000000    0.000000    0.000000    0.000000
   10.482412    0.000000    0.000000    0.000000    0.000000    0.000000    0.000000
   12.578894    0.000000    0.000000    0.000000    0.000000    0.000000    0.000000
   14.675377    0.000000    0.000000    0.000000    0.000000    0.000000    0.000000
   16.771859    0.000000    0.000000    0.000000    0.000000    0.000000    0.000000
   18.868341    0.000000    0.000000    0.000000    0.000000    0.000000    0.000000
   20.964824    0.204472    0.204465    0.204463    0.000006    0.000002    0.000004
   23.061306    0.000000    0.000000    0.000000    0.000000    0.000000    0.000000
   25.157788    0.000000    0.000000    0.000000    0.000000    0.000000    0.000000
   27.254271    0.000000    0.000000    0.000000    0.000000    0.000000    0.000000
   29.350753    0.513429    0.513512    0.513533   -0.000072   -0.000029   -0.000051
   31.447235    0.000000    0.000000    0.000000    0.000000    0.000000    0.000000
   33.543718    0.124587    0.124583    0.124582    0.000003    0.000001    0.000002
   35.640200    0.463599    0.463603    0.463604   -0.000003   -0.000001   -0.000002
   37.736683    0.000000    0.000000    0.000000    0.000000    0.000000    0.000000
   39.833165    0.145929    0.145635    0.145561    0.000255    0.000104    0.000180
   41.929647    0.040201    0.040163    0.040153    0.000033    0.000013    0.000023
   44.026130    0.063617    0.063626    0.063628   -0.000008   -0.000003   -0.000005
   46.122612    0.000000    0.000000    0.000000    0.000000    0.000000    0.000000
   48.219094    0.082019    0.082042    0.082048   -0.000020   -0.000008   -0.000014
   50.315577    0.085188    0.085182    0.085180    0.000006    0.000002    0.000004
   52.412059    0.075239    0.075234    0.075232    0.000005    0.000002    0.000004
   54.508542    0.016261    0.016259    0.016259    0.000001    0.000001    0.000001
   56.605024    0.027709    0.027753    0.027764   -0.000038   -0.000016   -0.000027
   58.701506    0.073863    0.073910    0.073922   -0.000040   -0.000017   -0.000029
   60.797989    0.055485    0.055494    0.055496   -0.000008   -0.000003   -0.000005
   62.894471    0.000000    0.000000    0.000000    0.000000    0.000000    0.000000
   64.990953    0.053354    0.053338    0.053334    0.000014    0.000006    0.000010
   67.087436    0.000000    0.000000    0.000000    0.000000    0.000000    0.000000
   69.183918    0.010404    0.010404    0.010404    0.000000    0.000000    0.000000
   71.280400    0.000000    0.000000    0.000000   -0.000000   -0.000000   -0.000000
   73.376883    0.000000    0.000000    0.000000    0.000000    0.000000    0.000000
   75.473365    0.001463    0.001463    0.001464   -0.000000   -0.000000   -0.000000
   77.569848    0.036129    0.036128    0.036128    0.000001    0.000000    0.000000
   79.666330    0.000000    0.000000    0.000000    0.000000    0.000000    0.000000
   81.762812    0.017350    0.017356    0.017358   -0.000005   -0.000002   -0.000004
   83.859295    0.003009    0.003011    0.003011   -0.000001   -0.000000   -0.000001
   85.955777    0.004889    0.004889    0.004889   -0.000000   -0.000000   -0.000000
   88.052259    0.018819    0.018821    0.018821   -0.000002   -0.000001   -0.000001
   90.148742    0.024539    0.024540    0.024540   -0.000001   -0.000000   -0.000001
   92.245224    0.000608    0.000609    0.000609   -0.000001   -0.000000   -0.000001
   94.341706    0.000000    0.000000    0.000000    0.000000    0.000000    0.000000
   96.438189    0.003017    0.003018    0.003018   -0.000001   -0.000000   -0.000001
   98.534671    0.004188    0.004190    0.004191   -0.000002   -0.000001   -0.000001
  100.631154    0.008168    0.008166    0.008165    0.000002    0.000001    0.000001
  102.727636    0.000000    0.000000    0.000000    0.000000    0.000000    0.000000
  104.824118    0.000000    0.000000    0.000000   -0.000000    0.000000   -0.000000
  106.920601    0.004822    0.004819    0.004818    0.000002    0.000001    0.000002
  109.017083    0.000000    0.000000    0.000000    0.000000    0.000000    0.000000
  111.113565    0.000000    0.000000    0.000000    0.000000    0.000000    0.000000
  113.210048    0.000000    0.000000    0.000000    0.000000    0.000000    0.000000
  115.306530    0.007818    0.007822    0.007823   -0.000003   -0.000001   -0.000002
  117.403013    0.005314    0.005314    0.005314    0.000000    0.000000    0.000000
  119.499495    0.000000    0.000000    0.000000    0.000000    0.000000    0.000000
  121.595977    0.003050    0.003051    0.003051   -0.000001   -0.000000   -0.000001
  123.692460    0.000000    0.000000    0.000000    0.000000    0.000000    0.000000
[...]
  178.201001    0.000000    0.000000    0.000000    0.000000    0.000000    0.000000
  180.297484    0.000000    0.000000    0.000000    0.000000    0.000000    0.000000
  182.393966    0.000000    0.000000    0.000000    0.000000    0.000000    0.000000
  184.490448    0.000000    0.000000    0.000000    0.000000    0.000000    0.000000
  186.586931    0.000000    0.000000    0.000000    0.000000    0.000000    0.000000
  188.683413    0.000000    0.000000    0.000000    0.000000    0.000000    0.000000
  190.779895    0.000000    0.000000    0.000000    0.000000    0.000000    0.000000
  192.876378    0.000000    0.000000    0.000000    0.000000    0.000000    0.000000
  194.972860    0.000000    0.000000    0.000000    0.000000    0.000000    0.000000
  197.069342    0.000000    0.000000    0.000000    0.000000    0.000000    0.000000
  199.165825    0.000000    0.000000    0.000000    0.000000    0.000000    0.000000
  201.262307    0.000000    0.000000    0.000000    0.000000    0.000000    0.000000
  203.358790    0.000000    0.000000    0.000000    0.000000    0.000000    0.000000
  205.455272    0.000000    0.000000    0.000000    0.000000    0.000000    0.000000
  207.551754    0.000000    0.000000    0.000000    0.000000    0.000000    0.000000

  frequency dependent      REAL DIELECTRIC FUNCTION (independent particle, no local field effects) current-current (2nd set in vasprun.xml)
     E(ev)        X           Y           Z          XY          YZ          ZX
    0.000000    1.165251    1.165251    1.165251    0.000000    0.000000    0.000000
    2.096482    1.166456    1.166456    1.166456    0.000000    0.000000    0.000000
    4.192965    1.170101    1.170100    1.170101    0.000001    0.000000    0.000000
    6.289447    1.176627    1.176626    1.176626    0.000001    0.000000    0.000000
    8.385929    1.186865    1.186864    1.186864    0.000001    0.000000    0.000001
   10.482412    1.202410    1.202409    1.202409    0.000001    0.000000    0.000001
   12.578894    1.226485    1.226484    1.226484    0.000001    0.000001    0.000001
   14.675377    1.266587    1.266585    1.266585    0.000002    0.000001    0.000001
   16.771859    1.345482    1.345478    1.345477    0.000004    0.000001    0.000003
   18.868341    1.595537    1.595526    1.595524    0.000009    0.000004    0.000006
   20.964824    0.664276    0.664285    0.664287   -0.000008   -0.000003   -0.000006
   23.061306    0.850225    0.850272    0.850284   -0.000041   -0.000017   -0.000029
   25.157788    1.008704    1.008772    1.008789   -0.000059   -0.000024   -0.000042
   27.254271    0.811842    0.811852    0.811855   -0.000008   -0.000003   -0.000006
   29.350753    1.136721    1.136726    1.136727   -0.000004   -0.000002   -0.000003
   31.447235    0.925791    0.925778    0.925775    0.000011    0.000004    0.000008
   33.543718    0.834300    0.834297    0.834296    0.000002    0.000001    0.000002
   35.640200    0.786932    0.786919    0.786916    0.000011    0.000005    0.000008
   37.736683    0.905454    0.905445    0.905442    0.000008    0.000003    0.000006
   39.833165    0.790279    0.790191    0.790169    0.000076    0.000031    0.000054
   41.929647    0.895472    0.895478    0.895479   -0.000005   -0.000002   -0.000004
   44.026130    0.930977    0.930975    0.930974    0.000002    0.000001    0.000001
   46.122612    0.891208    0.891205    0.891204    0.000003    0.000001    0.000002
   48.219094    0.918073    0.918068    0.918067    0.000004    0.000002    0.000003
   50.315577    0.918508    0.918507    0.918507    0.000001    0.000000    0.000000
   52.412059    0.930213    0.930205    0.930203    0.000007    0.000003    0.000005
   54.508542    0.947365    0.947364    0.947363    0.000001    0.000000    0.000001
   56.605024    0.924357    0.924360    0.924361   -0.000003   -0.000001   -0.000002
   58.701506    0.915853    0.915857    0.915858   -0.000003   -0.000001   -0.000002
   60.797989    0.962223    0.962224    0.962225   -0.000001   -0.000000   -0.000001
   62.894471    0.946643    0.946646    0.946647   -0.000003   -0.000001   -0.000002
   64.990953    0.949956    0.949955    0.949955    0.000000    0.000000    0.000000
   67.087436    0.975096    0.975096    0.975096   -0.000000   -0.000000   -0.000000
   69.183918    0.970600    0.970602    0.970602   -0.000001   -0.000000   -0.000001
   71.280400    0.947315    0.947318    0.947319   -0.000003   -0.000001   -0.000002
   73.376883    0.965703    0.965703    0.965703    0.000000    0.000000    0.000000
   75.473365    0.964978    0.964977    0.964977    0.000001    0.000000    0.000000
   77.569848    0.970560    0.970562    0.970562   -0.000001   -0.000001   -0.000001
   79.666330    0.982861    0.982859    0.982858    0.000002    0.000001    0.000001
   81.762812    0.969567    0.969570    0.969571   -0.000003   -0.000001   -0.000002
   83.859295    0.968748    0.968751    0.968752   -0.000003   -0.000001   -0.000002
   85.955777    0.975390    0.975391    0.975391   -0.000001   -0.000000   -0.000000
   88.052259    0.974627    0.974630    0.974631   -0.000002   -0.000001   -0.000002
   90.148742    0.981755    0.981778    0.981784   -0.000020   -0.000008   -0.000014
   92.245224    0.981494    0.981501    0.981503   -0.000007   -0.000003   -0.000005
   94.341706    0.979154    0.979155    0.979156   -0.000001   -0.000000   -0.000001
   96.438189    0.979825    0.979825    0.979826   -0.000000   -0.000000   -0.000000
   98.534671    0.982068    0.982069    0.982070   -0.000001   -0.000000   -0.000001
  100.631154    0.984750    0.984750    0.984750    0.000000    0.000000    0.000000
  102.727636    0.981798    0.981798    0.981798    0.000001    0.000000    0.000000
  104.824118    0.982153    0.982152    0.982152    0.000001    0.000000    0.000001
  106.920601    0.982590    0.982590    0.982590    0.000000    0.000000    0.000000
  109.017083    0.986512    0.986512    0.986511    0.000001    0.000000    0.000000
  111.113565    0.985528    0.985528    0.985528   -0.000000   -0.000000   -0.000000
  113.210048    0.987503    0.987503    0.987503    0.000000    0.000000    0.000000
  115.306530    0.986944    0.986944    0.986944    0.000000    0.000000    0.000000
  117.403013    0.988433    0.988433    0.988432    0.000001    0.000000    0.000001
  119.499495    0.990414    0.990414    0.990414   -0.000000   -0.000000   -0.000000
  121.595977    0.984143    0.984146    0.984146   -0.000002   -0.000001   -0.000001
  123.692460    0.987425    0.987425    0.987425    0.000000    0.000000    0.000000
[...]
  178.201001    0.994301    0.994300    0.994300    0.000001    0.000000    0.000000
  180.297484    0.994461    0.994461    0.994461    0.000000    0.000000    0.000000
  182.393966    0.994613    0.994613    0.994613    0.000000    0.000000    0.000000
  184.490448    0.994757    0.994757    0.994757    0.000000    0.000000    0.000000
  186.586931    0.994894    0.994894    0.994894    0.000000    0.000000    0.000000
  188.683413    0.995025    0.995024    0.995024    0.000000    0.000000    0.000000
  190.779895    0.995150    0.995149    0.995149    0.000000    0.000000    0.000000
  192.876378    0.995269    0.995269    0.995269    0.000000    0.000000    0.000000
  194.972860    0.995384    0.995384    0.995384    0.000000    0.000000    0.000000
  197.069342    0.995494    0.995494    0.995494    0.000000    0.000000    0.000000
  199.165825    0.995600    0.995600    0.995600    0.000000    0.000000    0.000000
  201.262307    0.995702    0.995702    0.995702    0.000000    0.000000    0.000000
  203.358790    0.995800    0.995800    0.995800    0.000000    0.000000    0.000000
  205.455272    0.995894    0.995894    0.995894    0.000000    0.000000    0.000000
  207.551754    0.995985    0.995985    0.995985    0.000000    0.000000    0.000000

 The outermost node in the dielectric function lies at epsilon=  -1.0

 Spin-Orbit-Coupling matrix elements

 Ion:    1  E_soc:     -0.0000000
 l=   1
     0.0000000    -0.0000000    -0.0000000
    -0.0000000     0.0000000    -0.0000000
    -0.0000000    -0.0000000     0.0000000
 l=   2
     0.0000000    -0.0000000     0.0000000    -0.0000000    -0.0000000
    -0.0000000     0.0000000    -0.0000000    -0.0000000    -0.0000000
     0.0000000    -0.0000000     0.0000000    -0.0000000     0.0000000
    -0.0000000    -0.0000000    -0.0000000     0.0000000    -0.0000000
    -0.0000000    -0.0000000     0.0000000    -0.0000000     0.0000000
 l=   3
     0.0000000     0.0000000     0.0000000     0.0000000     0.0000000     0.0000000     0.0000000
     0.0000000     0.0000000     0.0000000     0.0000000     0.0000000     0.0000000     0.0000000
     0.0000000     0.0000000     0.0000000     0.0000000     0.0000000     0.0000000     0.0000000
     0.0000000     0.0000000     0.0000000     0.0000000     0.0000000     0.0000000     0.0000000
     0.0000000     0.0000000     0.0000000     0.0000000     0.0000000     0.0000000     0.0000000
     0.0000000     0.0000000     0.0000000     0.0000000     0.0000000     0.0000000     0.0000000
     0.0000000     0.0000000     0.0000000     0.0000000     0.0000000     0.0000000     0.0000000