 vasp.5.4.4.18Apr17-6-g9f103f2a35 (build Jul 09 2018 16:43:14) complex

 executed on             LinuxIFC date 2018.11.22  03:43:01

 INCAR:
 POTCAR:    PAW_PBE Xe_GW 08Jan2009

 POTCAR:    PAW_PBE Xe_GW 08Jan2009
   VRHFIN =Xe: s2p6

   TITEL  = PAW_PBE Xe_GW 08Jan2009
   POMASS =  131.294; ZVAL   =    8.000    mass and valenz
   ENMAX  =  179.547; ENMIN  =  134.660 eV

  PAW_PBE Xe_GW 08Jan2009               :

 POSCAR: Xe_FCC
  positions in direct lattice
  velocities in cartesian coordinates
 exchange correlation table for  LEXCH =        8
   RHO(1)=    0.500       N(1)  =     2000
   RHO(2)=  100.500       N(2)  =     4000

 ion  position               nearest neighbor table
   1  0.000  0.000  0.000-

IMPORTANT INFORMATION: All symmetrisations will be switched off!
NOSYMM: (Re-)initialisation of all symmetry stuff for point group C_1.

 KPOINTS: k-points

Automatic generation of k-mesh.
Space group operators:
 irot       det(A)        alpha          n_x          n_y          n_z        tau_x        tau_y        tau_z
    1     1.000000     0.000001     1.000000     0.000000     0.000000     0.000000     0.000000     0.000000

 Subroutine IBZKPT returns following result:

 Found    112 irreducible k-points:

 Following reciprocal coordinates:
            Coordinates               Weight
  0.000000  0.000000  0.000000      1.000000
  0.166667  0.000000  0.000000      2.000000
  0.333333 -0.000000  0.000000      2.000000
  0.500000  0.000000  0.000000      1.000000
 -0.000000  0.166667  0.000000      2.000000
  0.166667  0.166667  0.000000      2.000000
  0.333333  0.166667  0.000000      2.000000
  0.500000  0.166667  0.000000      2.000000
 -0.333333  0.166667 -0.000000      2.000000
 -0.166667  0.166667  0.000000      2.000000
 -0.000000  0.333333  0.000000      2.000000
  0.166667  0.333333  0.000000      2.000000
  0.333333  0.333333  0.000000      2.000000
  0.500000  0.333333  0.000000      2.000000
 -0.333333  0.333333 -0.000000      2.000000
 -0.166667  0.333333  0.000000      2.000000
  0.000000  0.500000  0.000000      1.000000
  0.166667  0.500000  0.000000      2.000000
  0.333333  0.500000  0.000000      2.000000
  0.500000  0.500000  0.000000      1.000000
 -0.000000 -0.000000  0.166667      2.000000
  0.166667  0.000000  0.166667      2.000000
  0.333333 -0.000000  0.166667      2.000000
  0.500000  0.000000  0.166667      2.000000
 -0.333333 -0.000000  0.166667      2.000000
 -0.166667  0.000000  0.166667      2.000000
 -0.000000  0.166667  0.166667      2.000000
  0.166667  0.166667  0.166667      2.000000
  0.333333  0.166667  0.166667      2.000000
  0.500000  0.166667  0.166667      2.000000
 -0.333333  0.166667  0.166667      2.000000
 -0.166667  0.166667  0.166667      2.000000
 -0.000000  0.333333  0.166667      2.000000
  0.166667  0.333333  0.166667      2.000000
  0.333333  0.333333  0.166667      2.000000
  0.500000  0.333333  0.166667      2.000000
 -0.333333  0.333333  0.166667      2.000000
 -0.166667  0.333333  0.166667      2.000000
 -0.000000  0.500000  0.166667      2.000000
  0.166667  0.500000  0.166667      2.000000
  0.333333  0.500000  0.166667      2.000000
  0.500000  0.500000  0.166667      2.000000
 -0.333333  0.500000  0.166667      2.000000
 -0.166667  0.500000  0.166667      2.000000
 -0.000000 -0.333333  0.166667      2.000000
  0.166667 -0.333333  0.166667      2.000000
  0.333333 -0.333333  0.166667      2.000000
  0.500000 -0.333333  0.166667      2.000000
 -0.333333 -0.333333  0.166667      2.000000
 -0.166667 -0.333333  0.166667      2.000000
  0.000000 -0.166667  0.166667      2.000000
  0.166667 -0.166667  0.166667      2.000000
  0.333333 -0.166667  0.166667      2.000000
  0.500000 -0.166667  0.166667      2.000000
 -0.333333 -0.166667  0.166667      2.000000
 -0.166667 -0.166667  0.166667      2.000000
 -0.000000  0.000000  0.333333      2.000000
  0.166667 -0.000000  0.333333      2.000000
  0.333333  0.000000  0.333333      2.000000
  0.500000 -0.000000  0.333333      2.000000
[...]
  0.166667  0.166667  0.500000      2.000000
  0.333333  0.166667  0.500000      2.000000
  0.500000  0.166667  0.500000      2.000000
 -0.333333  0.166667  0.500000      2.000000
 -0.166667  0.166667  0.500000      2.000000
  0.000000  0.333333  0.500000      2.000000
  0.166667  0.333333  0.500000      2.000000
  0.333333  0.333333  0.500000      2.000000
  0.500000  0.333333  0.500000      2.000000
 -0.333333  0.333333  0.500000      2.000000
 -0.166667  0.333333  0.500000      2.000000
  0.000000  0.500000  0.500000      1.000000
  0.166667  0.500000  0.500000      2.000000
  0.333333  0.500000  0.500000      2.000000
  0.500000  0.500000  0.500000      1.000000

 Following cartesian coordinates:
            Coordinates               Weight
  0.000000  0.000000  0.000000      1.000000
  0.037604 -0.021710 -0.015352      2.000000
  0.075207 -0.043421 -0.030703      2.000000
  0.112811 -0.065131 -0.046055      1.000000
  0.000000  0.043421 -0.015352      2.000000
  0.037604  0.021710 -0.030703      2.000000
  0.075207  0.000000 -0.046055      2.000000
  0.112811 -0.021710 -0.061406      2.000000
 -0.075207  0.086842  0.015352      2.000000
 -0.037604  0.065131  0.000000      2.000000
  0.000000  0.086842 -0.030703      2.000000
  0.037604  0.065131 -0.046055      2.000000
  0.075207  0.043421 -0.061406      2.000000
  0.112811  0.021710 -0.076758      2.000000
 -0.075207  0.130263  0.000000      2.000000
 -0.037604  0.108552 -0.015352      2.000000
  0.000000  0.130263 -0.046055      1.000000
  0.037604  0.108552 -0.061406      2.000000
  0.075207  0.086842 -0.076758      2.000000
  0.112811  0.065131 -0.092110      1.000000
 -0.000000  0.000000  0.046055      2.000000
  0.037604 -0.021710  0.030703      2.000000
  0.075207 -0.043421  0.015352      2.000000
  0.112811 -0.065131 -0.000000      2.000000
 -0.075207  0.043421  0.076758      2.000000
 -0.037604  0.021710  0.061406      2.000000
 -0.000000  0.043421  0.030703      2.000000
  0.037604  0.021710  0.015352      2.000000
  0.075207  0.000000  0.000000      2.000000
  0.112811 -0.021710 -0.015352      2.000000
 -0.075207  0.086842  0.061406      2.000000
 -0.037604  0.065131  0.046055      2.000000
 -0.000000  0.086842  0.015352      2.000000
  0.037604  0.065131  0.000000      2.000000
  0.075207  0.043421 -0.015352      2.000000
  0.112811  0.021710 -0.030703      2.000000
 -0.075207  0.130263  0.046055      2.000000
 -0.037604  0.108552  0.030703      2.000000
 -0.000000  0.130263  0.000000      2.000000
  0.037604  0.108552 -0.015352      2.000000
  0.075207  0.086842 -0.030703      2.000000
  0.112811  0.065131 -0.046055      2.000000
 -0.075207  0.173684  0.030703      2.000000
 -0.037604  0.151973  0.015352      2.000000
 -0.000000 -0.086842  0.076758      2.000000
  0.037604 -0.108552  0.061406      2.000000
  0.075207 -0.130263  0.046055      2.000000
  0.112811 -0.151973  0.030703      2.000000
 -0.075207 -0.043421  0.107461      2.000000
 -0.037604 -0.065131  0.092110      2.000000
 -0.000000 -0.043421  0.061406      2.000000
  0.037604 -0.065131  0.046055      2.000000
  0.075207 -0.086842  0.030703      2.000000
  0.112811 -0.108552  0.015352      2.000000
 -0.075207  0.000000  0.092110      2.000000
 -0.037604 -0.021710  0.076758      2.000000
 -0.000000  0.000000  0.092110      2.000000
  0.037604 -0.021710  0.076758      2.000000
  0.075207 -0.043421  0.061406      2.000000
  0.112811 -0.065131  0.046055      2.000000
[...]
  0.037604  0.021710  0.107461      2.000000
  0.075207  0.000000  0.092110      2.000000
  0.112811 -0.021710  0.076758      2.000000
 -0.075207  0.086842  0.153516      2.000000
 -0.037604  0.065131  0.138164      2.000000
 -0.000000  0.086842  0.107461      2.000000
  0.037604  0.065131  0.092110      2.000000
  0.075207  0.043421  0.076758      2.000000
  0.112811  0.021710  0.061406      2.000000
 -0.075207  0.130263  0.138164      2.000000
 -0.037604  0.108552  0.122813      2.000000
 -0.000000  0.130263  0.092110      1.000000
  0.037604  0.108552  0.076758      2.000000
  0.075207  0.086842  0.061406      2.000000
  0.112811  0.065131  0.046055      1.000000

 SYSTEM =  Og_FCC
 POSCAR =  Xe_FCC

 Startparameter for this run:
   NWRITE =      2    write-flag & timer
   PREC   = accura    normal or accurate (medium, high low for compatibility)
   ISTART =      1    job   : 0-new  1-cont  2-samecut
   ICHARG =      0    charge: 1-file 2-atom 10-const
   ISPIN  =      1    spin polarized calculation?
   LNONCOLLINEAR =      F non collinear calculations
   LSORBIT =      F    spin-orbit coupling
   INIWAV =      1    electr: 0-lowe 1-rand  2-diag
   LASPH  =      F    aspherical Exc in radial PAW
   METAGGA=      F    non-selfconsistent MetaGGA calc.

 Electronic Relaxation 1
   ENCUT  =  300.0 eV  22.05 Ry    4.70 a.u.   6.26  6.26  6.26*2*pi/ulx,y,z
   ENINI  =  300.0     initial cutoff
   ENAUG  =  605.9 eV  augmentation charge cutoff
   NELM   =     50;   NELMIN=  2; NELMDL= -5     # of ELM steps
   EDIFF  = 0.1E-07   stopping-criterion for ELM
   LREAL  =      F    real-space projection
   NLSPLINE    = F    spline interpolate recip. space projectors
   LCOMPAT=      F    compatible to vasp.4.4
   GGA_COMPAT  = F    GGA compatible to vasp.4.4-vasp.4.6
   LMAXPAW     = -100 max onsite density
   LMAXMIX     =    2 max onsite mixed and CHGCAR
   VOSKOWN=      0    Vosko Wilk Nusair interpolation
   ROPT   =    0.00000
 Ionic relaxation
   EDIFFG = 0.1E-04   stopping-criterion for IOM
   NSW    =      1    number of steps for IOM
   NBLOCK =      1;   KBLOCK =      1    inner block; outer block
   IBRION =     -1    ionic relax: 0-MD 1-quasi-New 2-CG
   NFREE  =      5    steps in history (QN), initial steepest desc. (CG)
   ISIF   =      3    stress and relaxation
   IWAVPR =     10    prediction:  0-non 1-charg 2-wave 3-comb
   ISYM   =      0    0-nonsym 1-usesym 2-fastsym
   LCORR  =      T    Harris-Foulkes like correction to forces

   POTIM  = 0.1000    time-step for ionic-motion
   TEIN   =    0.0    initial temperature
   TEBEG  =    0.0;   TEEND  =   0.0 temperature during run
   SMASS  =  -3.00    Nose mass-parameter (am)
   estimated Nose-frequenzy (Omega)   =  0.10E-29 period in steps =****** mass=  -0.449E-27a.u.
   SCALEE = 1.0000    scale energy and forces
   NPACO  =    256;   APACO  = 16.0  distance and # of slots for P.C.
   PSTRESS=    0.0 pullay stress

  Mass of Ions in am
   POMASS = 131.29
  Ionic Valenz
   ZVAL   =   8.00
  Atomic Wigner-Seitz radii
  virtual crystal weights
   VCA    =   1.00
   NELECT =       8.0000    total number of electrons
   NUPDOWN=      -1.0000    fix difference up-down

 DOS related values:
   EMIN   =  10.00;   EMAX   =-10.00  energy-range for DOS
   EFERMI =   0.00
   ISMEAR =     0;   SIGMA  =   0.00  broadening in eV -4-tet -1-fermi 0-gaus

 Electronic relaxation 2 (details)
   IALGO  =     38    algorithm
   LDIAG  =      T    sub-space diagonalisation (order eigenvalues)
   LSUBROT=      F    optimize rotation matrix (better conditioning)
   TURBO    =      0    0=normal 1=particle mesh
   IRESTART =      0    0=no restart 2=restart with 2 vectors
   NREBOOT  =      0    no. of reboots
[...]
   10.976056   -0.879234   -0.852478   -0.840685    0.001532   -0.000721    0.019383
   11.298881   -0.641396   -0.590336   -0.569447    0.009541    0.001189    0.033229
   11.621706   -1.965499   -1.958876   -1.929310    0.020304    0.020504    0.023726
   11.944532   -1.705943   -1.736862   -1.768641    0.008888   -0.001831   -0.041452
   12.267357   -1.577275   -1.590084   -1.607219    0.005859    0.000493   -0.021324
   12.590182   -1.280973   -1.285646   -1.298976    0.005028   -0.000051   -0.014356
   12.913007   -0.777583   -0.775994   -0.788461    0.005473   -0.000294   -0.010966
   13.235832   -1.202981   -1.193204   -1.207329    0.007484   -0.000799   -0.009153
   13.558657   -0.706216   -0.676158   -0.698785    0.014935   -0.003682   -0.007942
   13.881483   -0.479377   -0.533321   -0.512821   -0.013689   -0.008993    0.004494
   14.204308   -0.283655   -0.310073   -0.302449   -0.006991   -0.000572   -0.002248
   14.527133   -0.142319   -0.159063   -0.155593   -0.003999   -0.000048   -0.002866
   14.849958   -0.031508   -0.043965   -0.042094   -0.002726    0.000053   -0.002840
   15.172783    0.059162    0.049166    0.050251   -0.002044    0.000080   -0.002677
   15.495608    0.135542    0.127165    0.127809   -0.001617    0.000086   -0.002498
   15.818434    0.200951    0.193732    0.194108   -0.001328    0.000085   -0.002323
   16.141259    0.257752    0.251408    0.251613   -0.001121    0.000081   -0.002161
   16.464084    0.307626    0.301971    0.302060   -0.000966    0.000077   -0.002013
   16.786909    0.351816    0.346718    0.346729   -0.000846    0.000072   -0.001880
   17.109734    0.391272    0.386636    0.386592   -0.000750    0.000068   -0.001760
   17.432559    0.426736    0.422489    0.422407   -0.000672    0.000064   -0.001651
   17.755385    0.458802    0.454888    0.454779   -0.000608    0.000061   -0.001553
   18.078210    0.487956    0.484329    0.484201   -0.000553    0.000057   -0.001464
   18.401035    0.514609    0.511233    0.511092   -0.000507    0.000054   -0.001383
   18.723860    0.539144    0.535990    0.535840   -0.000467    0.000051   -0.001309
   19.046685    0.562036    0.559080    0.558923   -0.000432    0.000049   -0.001242
[...]
   27.440140    0.825164    0.824165    0.824061   -0.000128    0.000018   -0.000467
   27.762965    0.829861    0.828892    0.828790   -0.000124    0.000017   -0.000454
   28.085790    0.834361    0.833420    0.833320   -0.000120    0.000017   -0.000442
   28.408615    0.838676    0.837762    0.837664   -0.000116    0.000016   -0.000430
   28.731441    0.842816    0.841927    0.841832   -0.000113    0.000016   -0.000418
   29.054266    0.846792    0.845927    0.845833   -0.000110    0.000016   -0.000407
   29.377091    0.850611    0.849770    0.849678   -0.000106    0.000015   -0.000397
   29.699916    0.854284    0.853465    0.853375   -0.000103    0.000015   -0.000387
   30.022741    0.857816    0.857019    0.856931   -0.000101    0.000014   -0.000377
   30.345567    0.861217    0.860440    0.860354   -0.000098    0.000014   -0.000368
   30.668392    0.864492    0.863735    0.863651   -0.000095    0.000014   -0.000359
   30.991217    0.867648    0.866910    0.866827   -0.000093    0.000013   -0.000350
   31.314042    0.870691    0.869971    0.869890   -0.000090    0.000013   -0.000342
   31.636867    0.873626    0.872924    0.872844   -0.000088    0.000013   -0.000334
   31.959692    0.876459    0.875773    0.875695   -0.000086    0.000013   -0.000326

  frequency dependent IMAGINARY DIELECTRIC FUNCTION (independent particle, no local field effects) current-current (2nd set in vasprun.xml)
     E(ev)      X         Y         Z        XY        YZ        ZX
    0.000000    7.415636    7.439197    7.444531   -0.324188   -0.005879    0.074527
    0.322825    0.743330    0.745689    0.746224   -0.032443   -0.000591    0.007461
    0.645650    0.374362    0.375547    0.375815   -0.016258   -0.000301    0.003744
    0.968476    0.252620    0.253415    0.253596   -0.010880   -0.000206    0.002510
    1.291301    0.192740    0.193342    0.193480   -0.008203   -0.000161    0.001898
    1.614126    0.157672    0.158160    0.158272   -0.006608   -0.000135    0.001535
    1.936951    0.135087    0.135500    0.135596   -0.005553   -0.000120    0.001296
    2.259776    0.119726    0.120086    0.120170   -0.004808   -0.000110    0.001128
    2.582601    0.108984    0.109306    0.109382   -0.004257   -0.000104    0.001005
    2.905427    0.101446    0.101739    0.101809   -0.003836   -0.000100    0.000912
    3.228252    0.096302    0.096574    0.096639   -0.003506   -0.000098    0.000841
    3.551077    0.093087    0.093343    0.093404   -0.003242   -0.000098    0.000785
    3.873902    0.091562    0.091805    0.091864   -0.003030   -0.000099    0.000741
    4.196727    0.091661    0.091893    0.091951   -0.002857   -0.000102    0.000707
    4.519552    0.093494    0.093719    0.093776   -0.002717   -0.000105    0.000681
    4.842378    0.097412    0.097632    0.097689   -0.002602   -0.000110    0.000662
    5.165203    0.104220    0.104438    0.104495   -0.002511   -0.000116    0.000649
    5.488028    0.115941    0.116158    0.116216   -0.002438   -0.000124    0.000641
    5.810853    0.140315    0.140534    0.140594   -0.002384   -0.000132    0.000639
    6.133678    0.281699    0.281921    0.281983   -0.002346   -0.000143    0.000642
    6.456504    0.252350    0.252577    0.252642   -0.002323   -0.000156    0.000651
    6.779329    0.622401    0.622638    0.622708   -0.002317   -0.000172    0.000664
    7.102154    0.799874    0.800119    0.800194   -0.002324   -0.000189    0.000688
    7.424979    0.743341    0.743602    0.743684   -0.002351   -0.000212    0.000718
    7.747804    2.094324    2.094604    2.094695   -0.002397   -0.000240    0.000758
    8.070629    2.567249    2.567554    2.567657   -0.002466   -0.000275    0.000811
    8.393455    3.931868    3.932206    3.932325   -0.002564   -0.000319    0.000880
    8.716280    3.866417    3.866797    3.866938   -0.002694   -0.000375    0.000974
    9.039105    2.921410    2.921851    2.922022   -0.002874   -0.000451    0.001100
    9.361930    3.394310    3.394837    3.395052   -0.003120   -0.000555    0.001276
    9.684755    5.792144    5.792800    5.793082   -0.003464   -0.000704    0.001532
   10.007580    4.730794    4.731660    4.732052   -0.003967   -0.000933    0.001926
   10.330406    3.035493    3.036735    3.037327   -0.004750   -0.001316    0.002590
   10.653231    3.540109    3.542153    3.543166   -0.006110   -0.002058    0.003872
   10.976056    3.669060    3.673423    3.675606   -0.008997   -0.003941    0.007015
   11.298881    2.865098    2.883936    2.892395   -0.016586   -0.012242    0.020470
   11.621706    3.041874    3.138798    3.222534   -0.010843    0.024358    0.110286
   11.944532    1.314998    1.326212    1.335439    0.009345    0.005350    0.007884
   12.267357    1.885827    1.889110    1.890015    0.004408    0.003258   -0.000290
   12.590182    0.696744    0.698737    0.699148    0.003455    0.003378   -0.001495
   12.913007    0.681400    0.683482    0.683211    0.002558    0.003535   -0.002062
   13.235832    0.464056    0.467849    0.466425    0.002269    0.004454   -0.002933
   13.558657    0.098229    0.115017    0.106943    0.005401    0.007739   -0.006177
   13.881483    0.072761    0.122632    0.097938    0.022527   -0.009802    0.000642
   14.204308    0.032945    0.038019    0.035644    0.004395   -0.003712    0.001535
   14.527133    0.022713    0.024380    0.023667    0.002420   -0.001926    0.000839
   14.849958    0.017047    0.017859    0.017546    0.001737   -0.001217    0.000515
   15.172783    0.013366    0.013842    0.013678    0.001379   -0.000851    0.000339
   15.495608    0.010687    0.010998    0.010902    0.001145   -0.000632    0.000238
   15.818434    0.008744    0.008962    0.008901    0.000981   -0.000489    0.000171
   16.141259    0.007266    0.007426    0.007386    0.000855   -0.000391    0.000126
   16.464084    0.006113    0.006236    0.006208    0.000756   -0.000320    0.000094
   16.786909    0.005198    0.005294    0.005274    0.000676   -0.000267    0.000071
   17.109734    0.004461    0.004537    0.004523    0.000608   -0.000226    0.000054
   17.432559    0.003860    0.003923    0.003912    0.000551   -0.000194    0.000041
   17.755385    0.003367    0.003419    0.003411    0.000503   -0.000168    0.000031
   18.078210    0.002962    0.003006    0.002999    0.000460   -0.000147    0.000024
   18.401035    0.002636    0.002672    0.002667    0.000423   -0.000129    0.000018
   18.723860    0.002403    0.002434    0.002430    0.000390   -0.000115    0.000013
   19.046685    0.002659    0.002686    0.002683    0.000361   -0.000103    0.000009
[...]
   27.440140    0.000213    0.000215    0.000214    0.000089   -0.000017   -0.000004
   27.762965    0.000198    0.000200    0.000200    0.000086   -0.000016   -0.000004
   28.085790    0.000185    0.000187    0.000187    0.000082   -0.000015   -0.000004
   28.408615    0.000173    0.000175    0.000175    0.000079   -0.000015   -0.000004
   28.731441    0.000162    0.000164    0.000164    0.000076   -0.000014   -0.000004
   29.054266    0.000152    0.000154    0.000154    0.000073   -0.000013   -0.000004
   29.377091    0.000143    0.000144    0.000144    0.000070   -0.000013   -0.000004
   29.699916    0.000134    0.000136    0.000136    0.000068   -0.000012   -0.000004
   30.022741    0.000126    0.000128    0.000128    0.000065   -0.000012   -0.000004
   30.345567    0.000119    0.000120    0.000120    0.000063   -0.000011   -0.000004
   30.668392    0.000112    0.000113    0.000113    0.000061   -0.000011   -0.000004
   30.991217    0.000106    0.000107    0.000107    0.000059   -0.000010   -0.000003
   31.314042    0.000100    0.000101    0.000101    0.000057   -0.000010   -0.000003
   31.636867    0.000094    0.000095    0.000095    0.000055   -0.000010   -0.000003
   31.959692    0.000089    0.000090    0.000090    0.000053   -0.000009   -0.000003

  frequency dependent      REAL DIELECTRIC FUNCTION (independent particle, no local field effects) current-current (2nd set in vasprun.xml)
     E(ev)        X           Y           Z          XY          YZ          ZX
    0.000000    2.196411    2.200213    2.201074    0.000340   -0.000080    0.002189
    0.322825    2.197834    2.201638    2.202500    0.000340   -0.000080    0.002191
    0.645650    2.202168    2.205980    2.206844    0.000340   -0.000080    0.002196
    0.968476    2.209468    2.213293    2.214161    0.000341   -0.000080    0.002205
    1.291301    2.219852    2.223697    2.224571    0.000342   -0.000081    0.002217
    1.614126    2.233496    2.237364    2.238246    0.000344   -0.000081    0.002233
    1.936951    2.250634    2.254533    2.255424    0.000346   -0.000082    0.002252
    2.259776    2.271580    2.275516    2.276418    0.000348   -0.000083    0.002276
    2.582601    2.296739    2.300717    2.301633    0.000350   -0.000084    0.002304
    2.905427    2.326631    2.330659    2.331590    0.000353   -0.000085    0.002337
    3.228252    2.361930    2.366015    2.366964    0.000357   -0.000086    0.002374
    3.551077    2.403512    2.407662    2.408633    0.000361   -0.000088    0.002417
    3.873902    2.452536    2.456759    2.457754    0.000365   -0.000089    0.002466
    4.196727    2.510564    2.514871    2.515893    0.000370   -0.000091    0.002521
    4.519552    2.579774    2.584174    2.585227    0.000375   -0.000093    0.002583
    4.842378    2.663334    2.667839    2.668927    0.000381   -0.000096    0.002654
    5.165203    2.766180    2.770804    2.771933    0.000387   -0.000099    0.002734
    5.488028    2.896979    2.901737    2.902912    0.000394   -0.000102    0.002824
    5.810853    3.075072    3.079981    3.081208    0.000402   -0.000106    0.002927
    6.133678    3.349440    3.354519    3.355806    0.000411   -0.000110    0.003043
    6.456504    3.461808    3.467081    3.468438    0.000420   -0.000115    0.003177
    6.779329    4.141483    4.146977    4.148414    0.000430   -0.000120    0.003330
    7.102154    3.779715    3.785462    3.786994    0.000442   -0.000126    0.003508
    7.424979    4.024716    4.030756    4.032399    0.000455   -0.000134    0.003715
    7.747804    5.578309    5.584690    5.586467    0.000469   -0.000142    0.003959
    8.070629    4.960021    4.966805    4.968742    0.000485   -0.000153    0.004250
    8.393455    3.667882    3.675147    3.677281    0.000502   -0.000165    0.004601
    8.716280    2.470939    2.478786    2.481166    0.000522   -0.000181    0.005032
    9.039105    2.492565    2.501133    2.503827    0.000546   -0.000200    0.005573
    9.361930    2.654740    2.664224    2.667331    0.000574   -0.000226    0.006268
    9.684755    0.870894    0.881584    0.885252    0.000609   -0.000260    0.007195
   10.007580   -1.002941   -0.990589   -0.986121    0.000659   -0.000309    0.008484
   10.330406    1.219341    1.234142    1.239829    0.000746   -0.000383    0.010397
   10.653231   -0.348897   -0.330081   -0.322347    0.000946   -0.000501    0.013500
   10.976056   -0.946951   -0.920233   -0.908453    0.001684   -0.000645    0.019299
   11.298881   -0.691388   -0.640579   -0.619796    0.009830    0.001416    0.032941
   11.621706   -2.018704   -2.013727   -1.985525    0.020522    0.020109    0.021897
   11.944532   -1.729133   -1.760313   -1.792300    0.008745   -0.001929   -0.041667
   12.267357   -1.608198   -1.621100   -1.638280    0.005786    0.000433   -0.021361
   12.590182   -1.291653   -1.296385   -1.309741    0.004969   -0.000109   -0.014359
   12.913007   -0.788072   -0.786537   -0.799012    0.005429   -0.000352   -0.010953
   13.235832   -1.210741   -1.201039   -1.215152    0.007444   -0.000869   -0.009124
   13.558657   -0.708091   -0.678301   -0.700813    0.014848   -0.003797   -0.007863
   13.881483   -0.480688   -0.535347   -0.514506   -0.014014   -0.008851    0.004472
   14.204308   -0.284309   -0.310801   -0.303153   -0.007055   -0.000521   -0.002278
   14.527133   -0.142776   -0.159547   -0.156074   -0.004035   -0.000023   -0.002885
   14.849958   -0.031850   -0.044323   -0.042453   -0.002753    0.000068   -0.002854
   15.172783    0.058897    0.048890    0.049972   -0.002065    0.000090   -0.002687
   15.495608    0.135333    0.126947    0.127588   -0.001634    0.000093   -0.002507
   15.818434    0.200782    0.193557    0.193929   -0.001344    0.000090   -0.002330
   16.141259    0.257615    0.251266    0.251467   -0.001135    0.000085   -0.002167
   16.464084    0.307514    0.301854    0.301941   -0.000978    0.000080   -0.002018
   16.786909    0.351724    0.346622    0.346630   -0.000857    0.000075   -0.001884
   17.109734    0.391196    0.386556    0.386510   -0.000760    0.000070   -0.001764
   17.432559    0.426673    0.422423    0.422338   -0.000681    0.000066   -0.001655
   17.755385    0.458750    0.454832    0.454721   -0.000616    0.000062   -0.001556
   18.078210    0.487913    0.484283    0.484153   -0.000561    0.000058   -0.001467
   18.401035    0.514573    0.511195    0.511051   -0.000514    0.000055   -0.001386
   18.723860    0.539113    0.535958    0.535805   -0.000474    0.000052   -0.001312
   19.046685    0.562006    0.559048    0.558889   -0.000438    0.000049   -0.001244
[...]
   27.440140    0.825172    0.824173    0.824068   -0.000130    0.000018   -0.000468
   27.762965    0.829869    0.828900    0.828797   -0.000126    0.000017   -0.000455
   28.085790    0.834370    0.833428    0.833327   -0.000122    0.000017   -0.000442
   28.408615    0.838684    0.837770    0.837671   -0.000118    0.000016   -0.000430
   28.731441    0.842825    0.841935    0.841839   -0.000115    0.000016   -0.000419
   29.054266    0.846800    0.845935    0.845841   -0.000111    0.000016   -0.000408
   29.377091    0.850620    0.849778    0.849686   -0.000108    0.000015   -0.000397
   29.699916    0.854292    0.853473    0.853383   -0.000105    0.000015   -0.000387
   30.022741    0.857825    0.857027    0.856939   -0.000102    0.000014   -0.000378
   30.345567    0.861226    0.860448    0.860362   -0.000099    0.000014   -0.000368
   30.668392    0.864501    0.863743    0.863658   -0.000097    0.000014   -0.000359
   30.991217    0.867657    0.866918    0.866835   -0.000094    0.000013   -0.000351
   31.314042    0.870700    0.869979    0.869898   -0.000092    0.000013   -0.000342
   31.636867    0.873635    0.872932    0.872852   -0.000089    0.000013   -0.000334
   31.959692    0.876467    0.875781    0.875703   -0.000087    0.000012   -0.000327

 The outermost node in the dielectric function lies at epsilon=  15.0