 vasp.5.4.4.18Apr17-6-g9f103f2a35 (build Nov 03 2018 10:20:46) complex

 executed on             LinuxIFC date 2019.01.01  12:51:28

 INCAR:
 POTCAR:    PAW_PBE Rn_sv_GW 14Apr2014

 POTCAR:    PAW_PBE Rn_sv_GW 14Apr2014
   VRHFIN =Rn:

   TITEL  = PAW_PBE Rn_sv_GW 14Apr2014
   POMASS =   22.017; ZVAL   =   26.000    mass and valenz
   ENMAX  =  331.173; ENMIN  =  248.380 eV

  PAW_PBE Rn_sv_GW 14Apr2014            :

 POSCAR: Rn_FCC
  positions in direct lattice
  velocities in cartesian coordinates
 exchange correlation table for  LEXCH =        8
   RHO(1)=    0.500       N(1)  =     2000
   RHO(2)=  100.500       N(2)  =     4000

 ion  position               nearest neighbor table
   1  0.000  0.000  0.000-

IMPORTANT INFORMATION: All symmetrisations will be switched off!
NOSYMM: (Re-)initialisation of all symmetry stuff for point group C_1.

 KPOINTS: k-points

Automatic generation of k-mesh.
Space group operators:
 irot       det(A)        alpha          n_x          n_y          n_z        tau_x        tau_y        tau_z
    1     1.000000     0.000000     1.000000     0.000000     0.000000     0.000000     0.000000     0.000000

 Subroutine IBZKPT returns following result:

 Found    216 irreducible k-points:

 Following reciprocal coordinates:
            Coordinates               Weight
  0.000000  0.000000  0.000000      1.000000
  0.166667  0.000000  0.000000      1.000000
  0.333333  0.000000  0.000000      1.000000
  0.500000  0.000000  0.000000      1.000000
 -0.333333 -0.000000 -0.000000      1.000000
 -0.166667 -0.000000 -0.000000      1.000000
  0.000000  0.166667 -0.000000      1.000000
  0.166667  0.166667  0.000000      1.000000
  0.333333  0.166667  0.000000      1.000000
  0.500000  0.166667  0.000000      1.000000
 -0.333333  0.166667 -0.000000      1.000000
 -0.166667  0.166667 -0.000000      1.000000
  0.000000  0.333333  0.000000      1.000000
  0.166667  0.333333  0.000000      1.000000
  0.333333  0.333333  0.000000      1.000000
  0.500000  0.333333  0.000000      1.000000
 -0.333333  0.333333 -0.000000      1.000000
 -0.166667  0.333333 -0.000000      1.000000
  0.000000  0.500000  0.000000      1.000000
  0.166667  0.500000  0.000000      1.000000
  0.333333  0.500000  0.000000      1.000000
  0.500000  0.500000  0.000000      1.000000
 -0.333333  0.500000 -0.000000      1.000000
 -0.166667  0.500000 -0.000000      1.000000
  0.000000 -0.333333  0.000000      1.000000
  0.166667 -0.333333  0.000000      1.000000
  0.333333 -0.333333  0.000000      1.000000
  0.500000 -0.333333  0.000000      1.000000
 -0.333333 -0.333333 -0.000000      1.000000
 -0.166667 -0.333333 -0.000000      1.000000
  0.000000 -0.166667  0.000000      1.000000
  0.166667 -0.166667  0.000000      1.000000
  0.333333 -0.166667  0.000000      1.000000
  0.500000 -0.166667  0.000000      1.000000
 -0.333333 -0.166667 -0.000000      1.000000
 -0.166667 -0.166667 -0.000000      1.000000
  0.000000 -0.000000  0.166667      1.000000
  0.166667  0.000000  0.166667      1.000000
  0.333333  0.000000  0.166667      1.000000
  0.500000  0.000000  0.166667      1.000000
 -0.333333 -0.000000  0.166667      1.000000
 -0.166667 -0.000000  0.166667      1.000000
  0.000000  0.166667  0.166667      1.000000
  0.166667  0.166667  0.166667      1.000000
  0.333333  0.166667  0.166667      1.000000
  0.500000  0.166667  0.166667      1.000000
 -0.333333  0.166667  0.166667      1.000000
 -0.166667  0.166667  0.166667      1.000000
  0.000000  0.333333  0.166667      1.000000
  0.166667  0.333333  0.166667      1.000000
  0.333333  0.333333  0.166667      1.000000
  0.500000  0.333333  0.166667      1.000000
 -0.333333  0.333333  0.166667      1.000000
 -0.166667  0.333333  0.166667      1.000000
  0.000000  0.500000  0.166667      1.000000
  0.166667  0.500000  0.166667      1.000000
  0.333333  0.500000  0.166667      1.000000
  0.500000  0.500000  0.166667      1.000000
 -0.333333  0.500000  0.166667      1.000000
 -0.166667  0.500000  0.166667      1.000000
[...]
  0.500000  0.500000 -0.166667      1.000000
 -0.333333  0.500000 -0.166667      1.000000
 -0.166667  0.500000 -0.166667      1.000000
 -0.000000 -0.333333 -0.166667      1.000000
  0.166667 -0.333333 -0.166667      1.000000
  0.333333 -0.333333 -0.166667      1.000000
  0.500000 -0.333333 -0.166667      1.000000
 -0.333333 -0.333333 -0.166667      1.000000
 -0.166667 -0.333333 -0.166667      1.000000
 -0.000000 -0.166667 -0.166667      1.000000
  0.166667 -0.166667 -0.166667      1.000000
  0.333333 -0.166667 -0.166667      1.000000
  0.500000 -0.166667 -0.166667      1.000000
 -0.333333 -0.166667 -0.166667      1.000000
 -0.166667 -0.166667 -0.166667      1.000000

 Following cartesian coordinates:
            Coordinates               Weight
  0.000000  0.000000  0.000000      1.000000
  0.036869 -0.021286 -0.015052      1.000000
  0.073737 -0.042572 -0.030103      1.000000
  0.110606 -0.063858 -0.045155      1.000000
 -0.073737  0.042572  0.030103      1.000000
 -0.036869  0.021286  0.015052      1.000000
  0.000000  0.042572 -0.015052      1.000000
  0.036869  0.021286 -0.030103      1.000000
  0.073737  0.000000 -0.045155      1.000000
  0.110606 -0.021286 -0.060206      1.000000
 -0.073737  0.085144  0.015052      1.000000
 -0.036869  0.063858  0.000000      1.000000
  0.000000  0.085144 -0.030103      1.000000
  0.036869  0.063858 -0.045155      1.000000
  0.073737  0.042572 -0.060206      1.000000
  0.110606  0.021286 -0.075258      1.000000
 -0.073737  0.127716  0.000000      1.000000
 -0.036869  0.106430 -0.015052      1.000000
  0.000000  0.127716 -0.045155      1.000000
  0.036869  0.106430 -0.060206      1.000000
  0.073737  0.085144 -0.075258      1.000000
  0.110606  0.063858 -0.090309      1.000000
 -0.073737  0.170289 -0.015052      1.000000
 -0.036869  0.149002 -0.030103      1.000000
 -0.000000 -0.085144  0.030103      1.000000
  0.036869 -0.106430  0.015052      1.000000
  0.073737 -0.127716 -0.000000      1.000000
  0.110606 -0.149002 -0.015052      1.000000
 -0.073737 -0.042572  0.060206      1.000000
 -0.036869 -0.063858  0.045155      1.000000
 -0.000000 -0.042572  0.015052      1.000000
  0.036869 -0.063858 -0.000000      1.000000
  0.073737 -0.085144 -0.015052      1.000000
  0.110606 -0.106430 -0.030103      1.000000
 -0.073737 -0.000000  0.045155      1.000000
 -0.036869 -0.021286  0.030103      1.000000
 -0.000000  0.000000  0.045155      1.000000
  0.036869 -0.021286  0.030103      1.000000
  0.073737 -0.042572  0.015052      1.000000
  0.110606 -0.063858 -0.000000      1.000000
 -0.073737  0.042572  0.075258      1.000000
 -0.036869  0.021286  0.060206      1.000000
 -0.000000  0.042572  0.030103      1.000000
  0.036869  0.021286  0.015052      1.000000
  0.073737  0.000000  0.000000      1.000000
  0.110606 -0.021286 -0.015052      1.000000
 -0.073737  0.085144  0.060206      1.000000
 -0.036869  0.063858  0.045155      1.000000
 -0.000000  0.085144  0.015052      1.000000
  0.036869  0.063858  0.000000      1.000000
  0.073737  0.042572 -0.015052      1.000000
  0.110606  0.021286 -0.030103      1.000000
 -0.073737  0.127716  0.045155      1.000000
 -0.036869  0.106430  0.030103      1.000000
 -0.000000  0.127716  0.000000      1.000000
  0.036869  0.106430 -0.015052      1.000000
  0.073737  0.085144 -0.030103      1.000000
  0.110606  0.063858 -0.045155      1.000000
 -0.073737  0.170289  0.030103      1.000000
 -0.036869  0.149002  0.015052      1.000000
[...]
  0.110606  0.063858 -0.135464      1.000000
 -0.073737  0.170289 -0.060206      1.000000
 -0.036869  0.149002 -0.075258      1.000000
  0.000000 -0.085144 -0.015052      1.000000
  0.036869 -0.106430 -0.030103      1.000000
  0.073737 -0.127716 -0.045155      1.000000
  0.110606 -0.149002 -0.060206      1.000000
 -0.073737 -0.042572  0.015052      1.000000
 -0.036869 -0.063858 -0.000000      1.000000
  0.000000 -0.042572 -0.030103      1.000000
  0.036869 -0.063858 -0.045155      1.000000
  0.073737 -0.085144 -0.060206      1.000000
  0.110606 -0.106430 -0.075258      1.000000
 -0.073737 -0.000000 -0.000000      1.000000
 -0.036869 -0.021286 -0.015052      1.000000

 SYSTEM =  Og_FCC
 POSCAR =  Rn_FCC

 Startparameter for this run:
   NWRITE =      2    write-flag & timer
   PREC   = accura    normal or accurate (medium, high low for compatibility)
   ISTART =      1    job   : 0-new  1-cont  2-samecut
   ICHARG =      0    charge: 1-file 2-atom 10-const
   ISPIN  =      1    spin polarized calculation?
   LNONCOLLINEAR =      T non collinear calculations
   LSORBIT =      T    spin-orbit coupling
   INIWAV =      1    electr: 0-lowe 1-rand  2-diag
   LASPH  =      F    aspherical Exc in radial PAW
   METAGGA=      F    non-selfconsistent MetaGGA calc.

 Electronic Relaxation 1
   ENCUT  =  300.0 eV  22.05 Ry    4.70 a.u.   6.23  6.23  6.23*2*pi/ulx,y,z
   ENINI  =  300.0     initial cutoff
   ENAUG  =  813.3 eV  augmentation charge cutoff
   NELM   =     50;   NELMIN=  2; NELMDL= -5     # of ELM steps
   EDIFF  = 0.1E-07   stopping-criterion for ELM
   LREAL  =      F    real-space projection
   NLSPLINE    = F    spline interpolate recip. space projectors
   LCOMPAT=      F    compatible to vasp.4.4
   GGA_COMPAT  = F    GGA compatible to vasp.4.4-vasp.4.6
   LMAXPAW     = -100 max onsite density
   LMAXMIX     =    2 max onsite mixed and CHGCAR
   VOSKOWN=      0    Vosko Wilk Nusair interpolation
   ROPT   =    0.00000
 Ionic relaxation
   EDIFFG = 0.1E-04   stopping-criterion for IOM
   NSW    =      1    number of steps for IOM
   NBLOCK =      1;   KBLOCK =      1    inner block; outer block
   IBRION =     -1    ionic relax: 0-MD 1-quasi-New 2-CG
   NFREE  =      5    steps in history (QN), initial steepest desc. (CG)
   ISIF   =      3    stress and relaxation
   IWAVPR =     10    prediction:  0-non 1-charg 2-wave 3-comb
   ISYM   =      0    0-nonsym 1-usesym 2-fastsym
   LCORR  =      T    Harris-Foulkes like correction to forces

   POTIM  = 0.1000    time-step for ionic-motion
   TEIN   =    0.0    initial temperature
   TEBEG  =    0.0;   TEEND  =   0.0 temperature during run
   SMASS  =  -3.00    Nose mass-parameter (am)
   estimated Nose-frequenzy (Omega)   =  0.10E-29 period in steps =****** mass=  -0.445E-27a.u.
   SCALEE = 1.0000    scale energy and forces
   NPACO  =    256;   APACO  = 16.0  distance and # of slots for P.C.
   PSTRESS=    0.0 pullay stress

  Mass of Ions in am
   POMASS =  22.02
  Ionic Valenz
   ZVAL   =  26.00
  Atomic Wigner-Seitz radii
  virtual crystal weights
   VCA    =   1.00
   NELECT =      26.0000    total number of electrons
   NUPDOWN=      -1.0000    fix difference up-down

 DOS related values:
   EMIN   =  10.00;   EMAX   =-10.00  energy-range for DOS
   EFERMI =   0.00
   ISMEAR =     0;   SIGMA  =   0.02  broadening in eV -4-tet -1-fermi 0-gaus

 Electronic relaxation 2 (details)
   IALGO  =     90    algorithm
   LDIAG  =      T    sub-space diagonalisation (order eigenvalues)
   LSUBROT=      F    optimize rotation matrix (better conditioning)
   TURBO    =      0    0=normal 1=particle mesh
   IRESTART =      0    0=no restart 2=restart with 2 vectors
[...]
  165.757703    0.977204    0.977204    0.977203    0.000000   -0.000000    0.000000
  169.140514    0.978482    0.978482    0.978481    0.000000   -0.000000    0.000000
  172.523324    0.978982    0.978982    0.978982    0.000000   -0.000000    0.000000
  175.906134    0.979667    0.979667    0.979667    0.000000   -0.000000    0.000000
  179.288944    0.981065    0.981065    0.981065    0.000000   -0.000000    0.000000
  182.671755    0.981291    0.981291    0.981290    0.000000   -0.000000    0.000000
  186.054565    0.982063    0.982063    0.982063    0.000000   -0.000000    0.000000
  189.437375    0.982836    0.982836    0.982836    0.000000   -0.000000    0.000000
  192.820186    0.983178    0.983178    0.983178    0.000000   -0.000000    0.000000
  196.202996    0.983838    0.983838    0.983838    0.000000   -0.000000    0.000000
  199.585806    0.984495    0.984495    0.984495    0.000000   -0.000000    0.000000
[...]
  287.538873    0.993124    0.993124    0.993124    0.000000   -0.000000    0.000000
  290.921683    0.993297    0.993297    0.993297    0.000000   -0.000000    0.000000
  294.304494    0.993462    0.993462    0.993462    0.000000   -0.000000    0.000000
  297.687304    0.993620    0.993620    0.993620    0.000000   -0.000000    0.000000
  301.070114    0.993772    0.993772    0.993772    0.000000   -0.000000    0.000000
  304.452925    0.993918    0.993918    0.993918    0.000000   -0.000000    0.000000
  307.835735    0.994059    0.994059    0.994058    0.000000   -0.000000    0.000000
  311.218545    0.994194    0.994194    0.994194    0.000000   -0.000000    0.000000
  314.601355    0.994325    0.994325    0.994325    0.000000   -0.000000    0.000000
  317.984166    0.994451    0.994451    0.994451    0.000000   -0.000000    0.000000
  321.366976    0.994573    0.994573    0.994573    0.000000   -0.000000    0.000000
  324.749786    0.994691    0.994691    0.994691    0.000000   -0.000000    0.000000
  328.132596    0.994805    0.994805    0.994805    0.000000   -0.000000    0.000000
  331.515407    0.994915    0.994915    0.994915    0.000000   -0.000000    0.000000
  334.898217    0.995022    0.995022    0.995022    0.000000   -0.000000    0.000000

  frequency dependent IMAGINARY DIELECTRIC FUNCTION (independent particle, no local field effects) current-current (2nd set in vasprun.xml)
     E(ev)      X         Y         Z        XY        YZ        ZX
    0.000000    0.000000    0.000000    0.000000    0.000000    0.000000    0.000000
    3.382810    0.000000    0.000000    0.000000    0.000000    0.000000    0.000000
    6.765621    7.755125    7.755123    7.755121    0.000001   -0.000000    0.000001
   10.148431    3.223459    3.223459    3.223462   -0.000000    0.000000   -0.000001
   13.531241    1.576497    1.576497    1.576497   -0.000000    0.000000   -0.000000
   16.914051    0.225938    0.225938    0.225938   -0.000000    0.000000   -0.000000
   20.296862    0.278513    0.278513    0.278513   -0.000000   -0.000000   -0.000000
   23.679672    0.100044    0.100044    0.100044    0.000000    0.000000    0.000000
   27.062482    0.074607    0.074608    0.074608   -0.000000    0.000000   -0.000000
   30.445292    0.104636    0.104636    0.104636   -0.000000    0.000000   -0.000000
   33.828103    0.041726    0.041726    0.041726   -0.000000    0.000000   -0.000000
   37.210913    0.023716    0.023716    0.023716    0.000000   -0.000000   -0.000000
   40.593723    0.008906    0.008906    0.008906    0.000000    0.000000   -0.000000
   43.976534    0.006802    0.006802    0.006802    0.000000    0.000000    0.000000
   47.359344    0.013511    0.013511    0.013511   -0.000000   -0.000000   -0.000000
   50.742154    0.059759    0.059760    0.059760   -0.000000   -0.000000   -0.000000
   54.124964    0.164605    0.164605    0.164605    0.000000    0.000000    0.000000
   57.507775    0.049101    0.049101    0.049101   -0.000000   -0.000000   -0.000000
   60.890585    0.358019    0.358019    0.358019    0.000000    0.000000    0.000000
   64.273395    0.326528    0.326528    0.326529   -0.000000   -0.000000   -0.000000
   67.656205    0.280133    0.280134    0.280134   -0.000001   -0.000000   -0.000000
   71.039016    0.117379    0.117379    0.117379   -0.000000   -0.000000   -0.000000
   74.421826    0.084676    0.084675    0.084676    0.000000    0.000000    0.000000
   77.804636    0.066529    0.066529    0.066529   -0.000000   -0.000000   -0.000000
   81.187447    0.054038    0.054038    0.054038   -0.000000   -0.000000   -0.000000
   84.570257    0.069936    0.069936    0.069936   -0.000000    0.000000   -0.000000
   87.953067    0.024637    0.024637    0.024637    0.000000    0.000000    0.000000
   91.335877    0.032159    0.032159    0.032159    0.000000    0.000000    0.000000
   94.718688    0.014543    0.014543    0.014543   -0.000000   -0.000000    0.000000
   98.101498    0.023627    0.023627    0.023627    0.000000    0.000000   -0.000000
  101.484308    0.030473    0.030473    0.030473   -0.000000   -0.000000   -0.000000
  104.867118    0.038197    0.038197    0.038197   -0.000000   -0.000000   -0.000000
  108.249929    0.018978    0.018978    0.018978   -0.000000    0.000000   -0.000000
  111.632739    0.005873    0.005873    0.005873    0.000000    0.000000    0.000000
  115.015549    0.015349    0.015349    0.015349   -0.000000   -0.000000   -0.000000
  118.398360    0.014784    0.014784    0.014784    0.000000    0.000000    0.000000
  121.781170    0.010785    0.010785    0.010785    0.000000    0.000000    0.000000
  125.163980    0.004072    0.004072    0.004072   -0.000000   -0.000000   -0.000000
  128.546790    0.002266    0.002266    0.002266    0.000000    0.000000    0.000000
  131.929601    0.001103    0.001103    0.001103    0.000000    0.000000    0.000000
  135.312411    0.000300    0.000300    0.000300    0.000000    0.000000    0.000000
  138.695221    0.000827    0.000827    0.000827   -0.000000   -0.000000   -0.000000
  142.078031    0.001318    0.001318    0.001318   -0.000000   -0.000000   -0.000000
  145.460842    0.000035    0.000035    0.000035    0.000000    0.000000    0.000000
  148.843652    0.001181    0.001181    0.001181    0.000000    0.000000    0.000000
  152.226462    0.000870    0.000870    0.000870    0.000000    0.000000    0.000000
  155.609273    0.000903    0.000903    0.000903    0.000000    0.000000    0.000000
  158.992083    0.002644    0.002644    0.002644   -0.000000   -0.000000   -0.000000
  162.374893    0.001431    0.001431    0.001431   -0.000000   -0.000000   -0.000000
  165.757703    0.001515    0.001515    0.001515   -0.000000   -0.000000   -0.000000
  169.140514    0.001705    0.001705    0.001705    0.000000    0.000000    0.000000
  172.523324    0.000618    0.000618    0.000618   -0.000000   -0.000000   -0.000000
  175.906134    0.000931    0.000931    0.000931    0.000000    0.000000    0.000000
  179.288944    0.001035    0.001035    0.001035    0.000000    0.000000    0.000000
  182.671755    0.001003    0.001003    0.001003   -0.000000    0.000000   -0.000000
  186.054565    0.000818    0.000818    0.000818   -0.000000   -0.000000   -0.000000
  189.437375    0.000688    0.000688    0.000688   -0.000000   -0.000000   -0.000000
  192.820186    0.001341    0.001341    0.001341    0.000000    0.000000    0.000000
  196.202996    0.000850    0.000850    0.000850    0.000000    0.000000    0.000000
  199.585806    0.000207    0.000207    0.000207   -0.000000   -0.000000    0.000000
[...]
  287.538873    0.000000    0.000000    0.000000    0.000000    0.000000    0.000000
  290.921683    0.000000    0.000000    0.000000    0.000000    0.000000    0.000000
  294.304494    0.000000    0.000000    0.000000    0.000000    0.000000    0.000000
  297.687304    0.000000    0.000000    0.000000    0.000000    0.000000    0.000000
  301.070114    0.000000    0.000000    0.000000    0.000000    0.000000    0.000000
  304.452925    0.000000    0.000000    0.000000    0.000000    0.000000    0.000000
  307.835735    0.000000    0.000000    0.000000    0.000000    0.000000    0.000000
  311.218545    0.000000    0.000000    0.000000    0.000000    0.000000    0.000000
  314.601355    0.000000    0.000000    0.000000    0.000000    0.000000    0.000000
  317.984166    0.000000    0.000000    0.000000    0.000000    0.000000    0.000000
  321.366976    0.000000    0.000000    0.000000    0.000000    0.000000    0.000000
  324.749786    0.000000    0.000000    0.000000    0.000000    0.000000    0.000000
  328.132596    0.000000    0.000000    0.000000    0.000000    0.000000    0.000000
  331.515407    0.000000    0.000000    0.000000    0.000000    0.000000    0.000000
  334.898217    0.000000    0.000000    0.000000    0.000000    0.000000    0.000000

  frequency dependent      REAL DIELECTRIC FUNCTION (independent particle, no local field effects) current-current (2nd set in vasprun.xml)
     E(ev)        X           Y           Z          XY          YZ          ZX
    0.000000    3.235867    3.235334    3.235334   -0.000000   -0.000000    0.000000
    3.382810    3.917252    3.917247    3.917247    0.000000   -0.000000    0.000000
    6.765621    3.827608    3.827607    3.827606    0.000001   -0.000000    0.000001
   10.148431   -0.134116   -0.134117   -0.134116   -0.000000    0.000000   -0.000000
   13.531241   -0.419534   -0.419534   -0.419534   -0.000000    0.000000   -0.000000
   16.914051    0.185364    0.185364    0.185364   -0.000000   -0.000000   -0.000000
   20.296862    0.414114    0.414114    0.414114   -0.000000   -0.000000   -0.000000
   23.679672    0.593536    0.593536    0.593537   -0.000000   -0.000000   -0.000000
   27.062482    0.752911    0.752911    0.752911   -0.000000    0.000000   -0.000000
   30.445292    0.795263    0.795262    0.795263   -0.000000   -0.000000   -0.000000
   33.828103    0.856731    0.856731    0.856732   -0.000000    0.000000   -0.000000
   37.210913    0.916721    0.916721    0.916722   -0.000000   -0.000000   -0.000000
   40.593723    0.966099    0.966099    0.966100   -0.000000   -0.000000   -0.000000
   43.976534    1.016915    1.016915    1.016915   -0.000000   -0.000000   -0.000000
   47.359344    1.069514    1.069513    1.069514   -0.000000    0.000000   -0.000000
   50.742154    1.118140    1.118139    1.118140   -0.000000    0.000000   -0.000000
   54.124964    1.158051    1.158051    1.158051   -0.000000    0.000000   -0.000000
   57.507775    1.000743    1.000744    1.000744   -0.000000   -0.000000   -0.000000
   60.890585    0.976789    0.976789    0.976789    0.000000    0.000000    0.000000
   64.273395    0.890981    0.890981    0.890982   -0.000000   -0.000000   -0.000000
   67.656205    0.880310    0.880310    0.880310   -0.000000    0.000000   -0.000000
   71.039016    0.913322    0.913322    0.913322   -0.000000    0.000000   -0.000000
   74.421826    0.871448    0.871448    0.871449   -0.000000   -0.000000   -0.000000
   77.804636    0.862555    0.862555    0.862555   -0.000000   -0.000000   -0.000000
   81.187447    0.878974    0.878974    0.878974   -0.000000   -0.000000   -0.000000
   84.570257    0.910104    0.910104    0.910105   -0.000000   -0.000000   -0.000000
   87.953067    0.894726    0.894726    0.894726   -0.000000   -0.000000   -0.000000
   91.335877    0.904631    0.904631    0.904632   -0.000000   -0.000000   -0.000000
   94.718688    0.909313    0.909313    0.909314   -0.000000   -0.000000   -0.000000
   98.101498    0.921785    0.921785    0.921786   -0.000000    0.000000   -0.000000
  101.484308    0.919875    0.919875    0.919876   -0.000000    0.000000   -0.000000
  104.867118    0.931538    0.931537    0.931538   -0.000001    0.000000   -0.000000
  108.249929    0.932128    0.932128    0.932129   -0.000001   -0.000000   -0.000001
  111.632739    0.944426    0.944426    0.944428   -0.000001   -0.000000   -0.000001
  115.015549    0.945134    0.945134    0.945137   -0.000001   -0.000000   -0.000001
  118.398360    0.947728    0.947728    0.947733   -0.000003   -0.000000   -0.000002
  121.781170    0.948413    0.948415    0.948396    0.000012    0.000001    0.000007
  125.163980    0.950825    0.950827    0.950828   -0.000000    0.000002   -0.000002
  128.546790    0.951255    0.951255    0.951252    0.000001   -0.000000    0.000001
  131.929601    0.956489    0.956489    0.956487    0.000001   -0.000000    0.000001
  135.312411    0.960941    0.960941    0.960940    0.000001   -0.000000    0.000000
  138.695221    0.965615    0.965615    0.965614    0.000001   -0.000000    0.000000
  142.078031    0.967809    0.967809    0.967809    0.000000   -0.000000    0.000000
  145.460842    0.969521    0.969521    0.969521    0.000000   -0.000000    0.000000
  148.843652    0.970133    0.970133    0.970133    0.000000   -0.000000    0.000000
  152.226462    0.972634    0.972634    0.972633    0.000000   -0.000000    0.000000
  155.609273    0.974190    0.974190    0.974190    0.000000   -0.000000    0.000000
  158.992083    0.975218    0.975218    0.975217    0.000000   -0.000000    0.000000
  162.374893    0.975617    0.975617    0.975617    0.000000   -0.000000    0.000000
  165.757703    0.977201    0.977201    0.977201    0.000000   -0.000000    0.000000
  169.140514    0.978478    0.978478    0.978478    0.000000   -0.000000    0.000000
  172.523324    0.978981    0.978981    0.978981    0.000000   -0.000000    0.000000
  175.906134    0.979665    0.979665    0.979665    0.000000   -0.000000    0.000000
  179.288944    0.981063    0.981063    0.981063    0.000000   -0.000000    0.000000
  182.671755    0.981289    0.981289    0.981289    0.000000   -0.000000    0.000000
  186.054565    0.982061    0.982061    0.982061    0.000000   -0.000000    0.000000
  189.437375    0.982834    0.982834    0.982834    0.000000   -0.000000    0.000000
  192.820186    0.983176    0.983176    0.983176    0.000000   -0.000000    0.000000
  196.202996    0.983837    0.983837    0.983837    0.000000   -0.000000    0.000000
  199.585806    0.984494    0.984494    0.984494    0.000000   -0.000000    0.000000
[...]
  287.538873    0.993124    0.993124    0.993124    0.000000   -0.000000    0.000000
  290.921683    0.993297    0.993297    0.993297    0.000000   -0.000000    0.000000
  294.304494    0.993462    0.993462    0.993462    0.000000   -0.000000    0.000000
  297.687304    0.993620    0.993620    0.993620    0.000000   -0.000000    0.000000
  301.070114    0.993772    0.993772    0.993772    0.000000   -0.000000    0.000000
  304.452925    0.993918    0.993918    0.993918    0.000000   -0.000000    0.000000
  307.835735    0.994058    0.994058    0.994058    0.000000   -0.000000    0.000000
  311.218545    0.994194    0.994194    0.994194    0.000000   -0.000000    0.000000
  314.601355    0.994325    0.994325    0.994325    0.000000   -0.000000    0.000000
  317.984166    0.994451    0.994451    0.994451    0.000000   -0.000000    0.000000
  321.366976    0.994573    0.994573    0.994573    0.000000   -0.000000    0.000000
  324.749786    0.994691    0.994691    0.994691    0.000000   -0.000000    0.000000
  328.132596    0.994805    0.994805    0.994805    0.000000   -0.000000    0.000000
  331.515407    0.994915    0.994915    0.994915    0.000000   -0.000000    0.000000
  334.898217    0.995021    0.995021    0.995021    0.000000   -0.000000    0.000000

 The outermost node in the dielectric function lies at epsilon=  19.3

 Spin-Orbit-Coupling matrix elements

 Ion:    1  E_soc:     -9.3009665
 l=   1
     0.0000000    -1.4117788    -1.4117788
    -1.4117788     0.0000000    -1.4117788
    -1.4117788    -1.4117788     0.0000000
 l=   2
     0.0000000    -0.0276759     0.0000000    -0.0276759    -0.1107065
    -0.0276759     0.0000000    -0.0830299    -0.0276751    -0.0276759
     0.0000000    -0.0830299     0.0000000    -0.0830299     0.0000000
    -0.0276759    -0.0276751    -0.0830299     0.0000000    -0.0276759
    -0.1107065    -0.0276759     0.0000000    -0.0276759     0.0000000
 l=   3
     0.0000000    -0.0000000     0.0000000     0.0000000     0.0000000    -0.0000000    -0.0000005
    -0.0000000     0.0000000    -0.0000002     0.0000000    -0.0000002    -0.0000001    -0.0000001
     0.0000000    -0.0000002     0.0000000    -0.0000003    -0.0000001    -0.0000002     0.0000000
     0.0000000     0.0000000    -0.0000003     0.0000000    -0.0000003     0.0000000     0.0000000
     0.0000000    -0.0000002    -0.0000001    -0.0000003     0.0000000    -0.0000002     0.0000000
    -0.0000000    -0.0000001    -0.0000002     0.0000000    -0.0000002     0.0000000    -0.0000001
    -0.0000005    -0.0000001     0.0000000     0.0000000     0.0000000    -0.0000001     0.0000000