 vasp.5.4.4.18Apr17-6-g9f103f2a35 (build Nov 03 2018 10:20:46) complex

 executed on             LinuxIFC date 2018.12.14  03:32:56

 INCAR:
 POTCAR:    PAW_PBE Ar_GW 21Aug2013

 POTCAR:    PAW_PBE Ar_GW 21Aug2013
   VRHFIN =Ar: s2p6

   TITEL  = PAW_PBE Ar_GW 21Aug2013
   POMASS =   39.949; ZVAL   =    8.000    mass and valenz
   ENMAX  =  290.599; ENMIN  =  217.949 eV

  PAW_PBE Ar_GW 21Aug2013               :

 POSCAR: Ar_FCC
  positions in direct lattice
  velocities in cartesian coordinates
 exchange correlation table for  LEXCH =        8
   RHO(1)=    0.500       N(1)  =     2000
   RHO(2)=  100.500       N(2)  =     4000

 ion  position               nearest neighbor table
   1  0.000  0.000  0.000-

IMPORTANT INFORMATION: All symmetrisations will be switched off!
NOSYMM: (Re-)initialisation of all symmetry stuff for point group C_1.

 KPOINTS: k-points

Automatic generation of k-mesh.
Space group operators:
 irot       det(A)        alpha          n_x          n_y          n_z        tau_x        tau_y        tau_z
    1     1.000000     0.000000     1.000000     0.000000     0.000000     0.000000     0.000000     0.000000

 Subroutine IBZKPT returns following result:

 Found    172 irreducible k-points:

 Following reciprocal coordinates:
            Coordinates               Weight
  0.000000  0.000000  0.000000      1.000000
  0.142857 -0.000000  0.000000      2.000000
  0.285714 -0.000000  0.000000      2.000000
  0.428571 -0.000000  0.000000      2.000000
 -0.000000  0.142857  0.000000      2.000000
  0.142857  0.142857  0.000000      2.000000
  0.285714  0.142857  0.000000      2.000000
  0.428571  0.142857  0.000000      2.000000
 -0.428571  0.142857 -0.000000      2.000000
 -0.285714  0.142857 -0.000000      2.000000
 -0.142857  0.142857 -0.000000      2.000000
  0.000000  0.285714  0.000000      2.000000
  0.142857  0.285714  0.000000      2.000000
  0.285714  0.285714  0.000000      2.000000
  0.428571  0.285714  0.000000      2.000000
 -0.428571  0.285714 -0.000000      2.000000
 -0.285714  0.285714  0.000000      2.000000
 -0.142857  0.285714  0.000000      2.000000
 -0.000000  0.428571 -0.000000      2.000000
  0.142857  0.428571  0.000000      2.000000
  0.285714  0.428571  0.000000      2.000000
  0.428571  0.428571  0.000000      2.000000
 -0.428571  0.428571 -0.000000      2.000000
 -0.285714  0.428571 -0.000000      2.000000
 -0.142857  0.428571  0.000000      2.000000
  0.000000  0.000000  0.142857      2.000000
  0.142857  0.000000  0.142857      2.000000
  0.285714 -0.000000  0.142857      2.000000
  0.428571 -0.000000  0.142857      2.000000
 -0.428571  0.000000  0.142857      2.000000
 -0.285714 -0.000000  0.142857      2.000000
 -0.142857  0.000000  0.142857      2.000000
  0.000000  0.142857  0.142857      2.000000
  0.142857  0.142857  0.142857      2.000000
  0.285714  0.142857  0.142857      2.000000
  0.428571  0.142857  0.142857      2.000000
 -0.428571  0.142857  0.142857      2.000000
 -0.285714  0.142857  0.142857      2.000000
 -0.142857  0.142857  0.142857      2.000000
  0.000000  0.285714  0.142857      2.000000
  0.142857  0.285714  0.142857      2.000000
  0.285714  0.285714  0.142857      2.000000
  0.428571  0.285714  0.142857      2.000000
 -0.428571  0.285714  0.142857      2.000000
 -0.285714  0.285714  0.142857      2.000000
 -0.142857  0.285714  0.142857      2.000000
 -0.000000  0.428571  0.142857      2.000000
  0.142857  0.428571  0.142857      2.000000
  0.285714  0.428571  0.142857      2.000000
  0.428571  0.428571  0.142857      2.000000
 -0.428571  0.428571  0.142857      2.000000
 -0.285714  0.428571  0.142857      2.000000
 -0.142857  0.428571  0.142857      2.000000
  0.000000 -0.428571  0.142857      2.000000
  0.142857 -0.428571  0.142857      2.000000
  0.285714 -0.428571  0.142857      2.000000
  0.428571 -0.428571  0.142857      2.000000
 -0.428571 -0.428571  0.142857      2.000000
 -0.285714 -0.428571  0.142857      2.000000
 -0.142857 -0.428571  0.142857      2.000000
[...]
 -0.142857 -0.428571  0.428571      2.000000
 -0.000000 -0.285714  0.428571      2.000000
  0.142857 -0.285714  0.428571      2.000000
  0.285714 -0.285714  0.428571      2.000000
  0.428571 -0.285714  0.428571      2.000000
 -0.428571 -0.285714  0.428571      2.000000
 -0.285714 -0.285714  0.428571      2.000000
 -0.142857 -0.285714  0.428571      2.000000
  0.000000 -0.142857  0.428571      2.000000
  0.142857 -0.142857  0.428571      2.000000
  0.285714 -0.142857  0.428571      2.000000
  0.428571 -0.142857  0.428571      2.000000
 -0.428571 -0.142857  0.428571      2.000000
 -0.285714 -0.142857  0.428571      2.000000
 -0.142857 -0.142857  0.428571      2.000000

 Following cartesian coordinates:
            Coordinates               Weight
  0.000000  0.000000  0.000000      1.000000
  0.039686 -0.022913 -0.016202      2.000000
  0.079372 -0.045825 -0.032403      2.000000
  0.119058 -0.068738 -0.048605      2.000000
  0.000000  0.045825 -0.016202      2.000000
  0.039686  0.022913 -0.032403      2.000000
  0.079372  0.000000 -0.048605      2.000000
  0.119058 -0.022913 -0.064807      2.000000
 -0.119058  0.114563  0.032403      2.000000
 -0.079372  0.091651  0.016202      2.000000
 -0.039686  0.068738  0.000000      2.000000
  0.000000  0.091651 -0.032403      2.000000
  0.039686  0.068738 -0.048605      2.000000
  0.079372  0.045825 -0.064807      2.000000
  0.119058  0.022913 -0.081008      2.000000
 -0.119058  0.160389  0.016202      2.000000
 -0.079372  0.137476  0.000000      2.000000
 -0.039686  0.114563 -0.016202      2.000000
  0.000000  0.137476 -0.048605      2.000000
  0.039686  0.114563 -0.064807      2.000000
  0.079372  0.091651 -0.081008      2.000000
  0.119058  0.068738 -0.097210      2.000000
 -0.119058  0.206214  0.000000      2.000000
 -0.079372  0.183301 -0.016202      2.000000
 -0.039686  0.160389 -0.032403      2.000000
 -0.000000  0.000000  0.048605      2.000000
  0.039686 -0.022913  0.032403      2.000000
  0.079372 -0.045825  0.016202      2.000000
  0.119058 -0.068738 -0.000000      2.000000
 -0.119058  0.068738  0.097210      2.000000
 -0.079372  0.045825  0.081008      2.000000
 -0.039686  0.022913  0.064807      2.000000
 -0.000000  0.045825  0.032403      2.000000
  0.039686  0.022913  0.016202      2.000000
  0.079372  0.000000  0.000000      2.000000
  0.119058 -0.022913 -0.016202      2.000000
 -0.119058  0.114563  0.081008      2.000000
 -0.079372  0.091651  0.064807      2.000000
 -0.039686  0.068738  0.048605      2.000000
 -0.000000  0.091651  0.016202      2.000000
  0.039686  0.068738  0.000000      2.000000
  0.079372  0.045825 -0.016202      2.000000
  0.119058  0.022913 -0.032403      2.000000
 -0.119058  0.160389  0.064807      2.000000
 -0.079372  0.137476  0.048605      2.000000
 -0.039686  0.114563  0.032403      2.000000
 -0.000000  0.137476  0.000000      2.000000
  0.039686  0.114563 -0.016202      2.000000
  0.079372  0.091651 -0.032403      2.000000
  0.119058  0.068738 -0.048605      2.000000
 -0.119058  0.206214  0.048605      2.000000
 -0.079372  0.183301  0.032403      2.000000
 -0.039686  0.160389  0.016202      2.000000
 -0.000000 -0.137476  0.097210      2.000000
  0.039686 -0.160389  0.081008      2.000000
  0.079372 -0.183301  0.064807      2.000000
  0.119058 -0.206214  0.048605      2.000000
 -0.119058 -0.068738  0.145815      2.000000
 -0.079372 -0.091651  0.129614      2.000000
 -0.039686 -0.114563  0.113412      2.000000
[...]
 -0.039686 -0.114563  0.210622      2.000000
 -0.000000 -0.091651  0.178219      2.000000
  0.039686 -0.114563  0.162017      2.000000
  0.079372 -0.137476  0.145815      2.000000
  0.119058 -0.160389  0.129614      2.000000
 -0.119058 -0.022913  0.226824      2.000000
 -0.079372 -0.045825  0.210622      2.000000
 -0.039686 -0.068738  0.194420      2.000000
 -0.000000 -0.045825  0.162017      2.000000
  0.039686 -0.068738  0.145815      2.000000
  0.079372 -0.091651  0.129614      2.000000
  0.119058 -0.114563  0.113412      2.000000
 -0.119058  0.022913  0.210622      2.000000
 -0.079372 -0.000000  0.194420      2.000000
 -0.039686 -0.022913  0.178219      2.000000

 SYSTEM =  Og_FCC
 POSCAR =  Ar_FCC

 Startparameter for this run:
   NWRITE =      2    write-flag & timer
   PREC   = accura    normal or accurate (medium, high low for compatibility)
   ISTART =      1    job   : 0-new  1-cont  2-samecut
   ICHARG =      0    charge: 1-file 2-atom 10-const
   ISPIN  =      1    spin polarized calculation?
   LNONCOLLINEAR =      F non collinear calculations
   LSORBIT =      F    spin-orbit coupling
   INIWAV =      1    electr: 0-lowe 1-rand  2-diag
   LASPH  =      F    aspherical Exc in radial PAW
   METAGGA=      F    non-selfconsistent MetaGGA calc.

 Electronic Relaxation 1
   ENCUT  =  300.0 eV  22.05 Ry    4.70 a.u.   5.29  5.29  5.29*2*pi/ulx,y,z
   ENINI  =  300.0     initial cutoff
   ENAUG  =  799.9 eV  augmentation charge cutoff
   NELM   =     50;   NELMIN=  2; NELMDL= -5     # of ELM steps
   EDIFF  = 0.1E-07   stopping-criterion for ELM
   LREAL  =      F    real-space projection
   NLSPLINE    = F    spline interpolate recip. space projectors
   LCOMPAT=      F    compatible to vasp.4.4
   GGA_COMPAT  = F    GGA compatible to vasp.4.4-vasp.4.6
   LMAXPAW     = -100 max onsite density
   LMAXMIX     =    2 max onsite mixed and CHGCAR
   VOSKOWN=      0    Vosko Wilk Nusair interpolation
   ROPT   =    0.00000
 Ionic relaxation
   EDIFFG = 0.1E-04   stopping-criterion for IOM
   NSW    =      1    number of steps for IOM
   NBLOCK =      1;   KBLOCK =      1    inner block; outer block
   IBRION =     -1    ionic relax: 0-MD 1-quasi-New 2-CG
   NFREE  =      5    steps in history (QN), initial steepest desc. (CG)
   ISIF   =      3    stress and relaxation
   IWAVPR =     10    prediction:  0-non 1-charg 2-wave 3-comb
   ISYM   =      0    0-nonsym 1-usesym 2-fastsym
   LCORR  =      T    Harris-Foulkes like correction to forces

   POTIM  = 0.1000    time-step for ionic-motion
   TEIN   =    0.0    initial temperature
   TEBEG  =    0.0;   TEEND  =   0.0 temperature during run
   SMASS  =  -3.00    Nose mass-parameter (am)
   estimated Nose-frequenzy (Omega)   =  0.10E-29 period in steps =****** mass=  -0.321E-27a.u.
   SCALEE = 1.0000    scale energy and forces
   NPACO  =    256;   APACO  = 16.0  distance and # of slots for P.C.
   PSTRESS=    0.0 pullay stress

  Mass of Ions in am
   POMASS =  39.95
  Ionic Valenz
   ZVAL   =   8.00
  Atomic Wigner-Seitz radii
  virtual crystal weights
   VCA    =   1.00
   NELECT =       8.0000    total number of electrons
   NUPDOWN=      -1.0000    fix difference up-down

 DOS related values:
   EMIN   =  10.00;   EMAX   =-10.00  energy-range for DOS
   EFERMI =   0.00
   ISMEAR =     0;   SIGMA  =   0.00  broadening in eV -4-tet -1-fermi 0-gaus

 Electronic relaxation 2 (details)
   IALGO  =     90    algorithm
   LDIAG  =      T    sub-space diagonalisation (order eigenvalues)
   LSUBROT=      F    optimize rotation matrix (better conditioning)
   TURBO    =      0    0=normal 1=particle mesh
   IRESTART =      0    0=no restart 2=restart with 2 vectors
   NREBOOT  =      0    no. of reboots
[...]
   60.047573    0.929766    0.929766    0.929766    0.000000    0.000000   -0.000000
   61.813678    0.935964    0.935964    0.935964    0.000000    0.000000   -0.000000
   63.579783    0.939391    0.939391    0.939391    0.000000    0.000000   -0.000000
   65.345888    0.943902    0.943902    0.943902    0.000000    0.000000   -0.000000
   67.111993    0.947220    0.947220    0.947220    0.000000    0.000000   -0.000000
   68.878098    0.949131    0.949131    0.949131    0.000000    0.000000   -0.000000
   70.644203    0.950253    0.950253    0.950253    0.000000    0.000000   -0.000000
   72.410308    0.954695    0.954695    0.954695    0.000000    0.000000   -0.000000
   74.176413    0.952652    0.952652    0.952652    0.000000    0.000000   -0.000000
   75.942518    0.958459    0.958459    0.958459    0.000000    0.000000   -0.000000
   77.708623    0.961669    0.961669    0.961669    0.000000    0.000000   -0.000000
   79.474729    0.958537    0.958537    0.958537    0.000000    0.000000   -0.000000
   81.240834    0.960430    0.960430    0.960430    0.000000    0.000000   -0.000000
   83.006939    0.964659    0.964659    0.964659    0.000000    0.000000   -0.000000
   84.773044    0.965192    0.965193    0.965192    0.000000    0.000000   -0.000000
   86.539149    0.966795    0.966795    0.966795    0.000000    0.000000   -0.000000
   88.305254    0.966775    0.966775    0.966775    0.000000    0.000000   -0.000000
   90.071359    0.971461    0.971461    0.971461    0.000000    0.000000   -0.000000
   91.837464    0.970465    0.970465    0.970465    0.000000    0.000000   -0.000000
   93.603569    0.972593    0.972594    0.972593    0.000000    0.000000   -0.000000
   95.369674    0.971859    0.971859    0.971859    0.000000    0.000000   -0.000000
   97.135779    0.974897    0.974897    0.974897    0.000000    0.000000   -0.000000
   98.901884    0.973338    0.973338    0.973338    0.000000    0.000000   -0.000000
  100.667989    0.974904    0.974904    0.974904    0.000000    0.000000   -0.000000
  102.434095    0.975368    0.975368    0.975368    0.000000    0.000000   -0.000000
  104.200200    0.977504    0.977504    0.977504    0.000000    0.000000   -0.000000
[...]
  150.118932    0.987426    0.987425    0.987426   -0.000000   -0.000000    0.000000
  151.885037    0.987813    0.987813    0.987813   -0.000000   -0.000000    0.000000
  153.651142    0.988165    0.988165    0.988165   -0.000000   -0.000000    0.000000
  155.417247    0.988492    0.988492    0.988492   -0.000000   -0.000000    0.000000
  157.183352    0.988799    0.988799    0.988799   -0.000000   -0.000000    0.000000
  158.949457    0.989089    0.989088    0.989089   -0.000000   -0.000000    0.000000
  160.715562    0.989364    0.989364    0.989364   -0.000000   -0.000000    0.000000
  162.481667    0.989626    0.989626    0.989626   -0.000000   -0.000000    0.000000
  164.247772    0.989877    0.989877    0.989877   -0.000000   -0.000000    0.000000
  166.013877    0.990117    0.990117    0.990117   -0.000000   -0.000000    0.000000
  167.779982    0.990347    0.990347    0.990347   -0.000000   -0.000000    0.000000
  169.546087    0.990568    0.990568    0.990568   -0.000000   -0.000000    0.000000
  171.312193    0.990781    0.990781    0.990781   -0.000000   -0.000000    0.000000
  173.078298    0.990985    0.990985    0.990985   -0.000000   -0.000000    0.000000
  174.844403    0.991183    0.991183    0.991183   -0.000000   -0.000000    0.000000

  frequency dependent IMAGINARY DIELECTRIC FUNCTION (independent particle, no local field effects) current-current (2nd set in vasprun.xml)
     E(ev)      X         Y         Z        XY        YZ        ZX
    0.000000    0.000000    0.000000    0.000000    0.000000    0.000000    0.000000
    1.766105    0.000000    0.000000    0.000000    0.000000    0.000000    0.000000
    3.532210    0.000000    0.000000    0.000000    0.000000    0.000000    0.000000
    5.298315    0.000000    0.000000    0.000000    0.000000    0.000000    0.000000
    7.064420    0.000000    0.000000    0.000000    0.000000    0.000000    0.000000
    8.830525    0.000000    0.000000    0.000000    0.000000    0.000000    0.000000
   10.596630    1.453761    1.453799    1.453791   -0.000023   -0.000016   -0.000011
   12.362736    1.330161    1.330162    1.330162    0.000001    0.000001   -0.000003
   14.128841    2.077573    2.077573    2.077573    0.000000    0.000000    0.000000
   15.894946    2.066851    2.066851    2.066851    0.000000    0.000000    0.000000
   17.661051    2.924311    2.924311    2.924310    0.000001    0.000000    0.000000
   19.427156    1.133496    1.133442    1.133422    0.000056    0.000023    0.000034
   21.193261    1.069436    1.069436    1.069435   -0.000000   -0.000000    0.000000
   22.959366    0.259857    0.259857    0.259857    0.000000    0.000000   -0.000000
   24.725471    0.363036    0.363036    0.363036   -0.000000   -0.000000   -0.000000
   26.491576    0.017605    0.017605    0.017605   -0.000000    0.000000    0.000000
   28.257681    0.135134    0.135134    0.135134   -0.000000   -0.000000   -0.000000
   30.023786    0.103219    0.103219    0.103219   -0.000000   -0.000000   -0.000000
   31.789891    0.082992    0.082992    0.082992   -0.000000   -0.000000   -0.000000
   33.555996    0.029281    0.029281    0.029281   -0.000000   -0.000000    0.000000
   35.322102    0.023475    0.023475    0.023475   -0.000000   -0.000000    0.000000
   37.088207    0.029500    0.029500    0.029500   -0.000000   -0.000000   -0.000000
   38.854312    0.006598    0.006598    0.006598    0.000000   -0.000000    0.000000
   40.620417    0.025857    0.025857    0.025857   -0.000000   -0.000000    0.000000
   42.386522    0.008222    0.008222    0.008222    0.000000   -0.000000    0.000000
   44.152627    0.008902    0.008902    0.008902   -0.000000   -0.000000    0.000000
   45.918732    0.010224    0.010224    0.010224    0.000000    0.000000   -0.000000
   47.684837    0.006503    0.006503    0.006503    0.000000    0.000000    0.000000
   49.450942    0.008369    0.008369    0.008369   -0.000000   -0.000000    0.000000
   51.217047    0.006434    0.006434    0.006434    0.000000   -0.000000    0.000000
   52.983152    0.006057    0.006057    0.006057   -0.000000    0.000000   -0.000000
   54.749257    0.013492    0.013492    0.013492    0.000000    0.000000   -0.000000
   56.515362    0.006427    0.006427    0.006427   -0.000000    0.000000   -0.000000
   58.281468    0.005389    0.005389    0.005389   -0.000000    0.000000   -0.000000
   60.047573    0.007846    0.007846    0.007846    0.000000    0.000000   -0.000000
   61.813678    0.007347    0.007347    0.007347    0.000000   -0.000000    0.000000
   63.579783    0.012166    0.012166    0.012166   -0.000000   -0.000000    0.000000
   65.345888    0.010750    0.010750    0.010750    0.000000   -0.000000    0.000000
   67.111993    0.006972    0.006972    0.006972    0.000000   -0.000000    0.000000
   68.878098    0.008699    0.008699    0.008699   -0.000000    0.000000   -0.000000
   70.644203    0.006075    0.006075    0.006075    0.000000    0.000000    0.000000
   72.410308    0.004707    0.004707    0.004707    0.000000    0.000000    0.000000
   74.176413    0.006058    0.006058    0.006058   -0.000000   -0.000000    0.000000
   75.942518    0.016015    0.016015    0.016015    0.000000    0.000000   -0.000000
   77.708623    0.005355    0.005355    0.005355   -0.000000    0.000000   -0.000000
   79.474729    0.011141    0.011141    0.011141    0.000000    0.000000   -0.000000
   81.240834    0.002432    0.002432    0.002432    0.000000   -0.000000    0.000000
   83.006939    0.000849    0.000849    0.000849    0.000000   -0.000000    0.000000
   84.773044    0.002710    0.002710    0.002710    0.000000   -0.000000    0.000000
   86.539149    0.003369    0.003369    0.003369    0.000000    0.000000   -0.000000
   88.305254    0.006498    0.006498    0.006498   -0.000000   -0.000000   -0.000000
   90.071359    0.006802    0.006802    0.006802   -0.000000   -0.000000    0.000000
   91.837464    0.010234    0.010234    0.010234    0.000000   -0.000000    0.000000
   93.603569    0.002255    0.002255    0.002255   -0.000000   -0.000000    0.000000
   95.369674    0.003676    0.003676    0.003676    0.000000    0.000000   -0.000000
   97.135779    0.003546    0.003546    0.003546    0.000000   -0.000000    0.000000
   98.901884    0.005018    0.005018    0.005018    0.000000    0.000000   -0.000000
  100.667989    0.006773    0.006773    0.006773    0.000000   -0.000000    0.000000
  102.434095    0.003457    0.003457    0.003457    0.000000   -0.000000    0.000000
  104.200200    0.004661    0.004661    0.004661    0.000000    0.000000    0.000000
[...]
  150.118932    0.000000    0.000000    0.000000    0.000000    0.000000    0.000000
  151.885037    0.000000    0.000000    0.000000    0.000000    0.000000    0.000000
  153.651142    0.000000    0.000000    0.000000    0.000000    0.000000    0.000000
  155.417247    0.000000    0.000000    0.000000    0.000000    0.000000    0.000000
  157.183352    0.000000    0.000000    0.000000    0.000000    0.000000    0.000000
  158.949457    0.000000    0.000000    0.000000    0.000000    0.000000    0.000000
  160.715562    0.000000    0.000000    0.000000    0.000000    0.000000    0.000000
  162.481667    0.000000    0.000000    0.000000    0.000000    0.000000    0.000000
  164.247772    0.000000    0.000000    0.000000    0.000000    0.000000    0.000000
  166.013877    0.000000    0.000000    0.000000    0.000000    0.000000    0.000000
  167.779982    0.000000    0.000000    0.000000    0.000000    0.000000    0.000000
  169.546087    0.000000    0.000000    0.000000    0.000000    0.000000    0.000000
  171.312193    0.000000    0.000000    0.000000    0.000000    0.000000    0.000000
  173.078298    0.000000    0.000000    0.000000    0.000000    0.000000    0.000000
  174.844403    0.000000    0.000000    0.000000    0.000000    0.000000    0.000000

  frequency dependent      REAL DIELECTRIC FUNCTION (independent particle, no local field effects) current-current (2nd set in vasprun.xml)
     E(ev)        X           Y           Z          XY          YZ          ZX
    0.000000    1.906978    1.906978    1.906978    0.000000    0.000000   -0.000000
    1.766105    1.920905    1.920905    1.920901    0.000000    0.000000   -0.000000
    3.532210    1.966662    1.966662    1.966660    0.000000    0.000000   -0.000000
    5.298315    2.057277    2.057278    2.057278    0.000000    0.000000   -0.000000
    7.064420    2.232681    2.232681    2.232680    0.000000    0.000000   -0.000000
    8.830525    2.670212    2.670211    2.670212    0.000000    0.000000   -0.000000
   10.596630    2.523941    2.523951    2.523948   -0.000005   -0.000004   -0.000003
   12.362736    2.814875    2.814875    2.814875   -0.000000   -0.000000    0.000001
   14.128841    1.857533    1.857532    1.857533   -0.000000   -0.000000    0.000000
   15.894946    0.941178    0.941179    0.941178    0.000000   -0.000000    0.000000
   17.661051    0.317956    0.317956    0.317956    0.000000    0.000000    0.000000
   19.427156    0.493172    0.493185    0.493190   -0.000013   -0.000006   -0.000008
   21.193261    0.070938    0.070938    0.070938    0.000000    0.000000   -0.000000
   22.959366    0.059086    0.059086    0.059086    0.000000    0.000000    0.000000
   24.725471    0.211588    0.211588    0.211588    0.000000    0.000000   -0.000000
   26.491576    0.431167    0.431167    0.431167    0.000000    0.000000   -0.000000
   28.257681    0.540718    0.540718    0.540718    0.000000    0.000000   -0.000000
   30.023786    0.628121    0.628121    0.628121    0.000000    0.000000   -0.000000
   31.789891    0.672300    0.672300    0.672300    0.000000    0.000000   -0.000000
   33.555996    0.726657    0.726657    0.726657    0.000000    0.000000   -0.000000
   35.322102    0.744671    0.744671    0.744671    0.000000    0.000000   -0.000000
   37.088207    0.776439    0.776439    0.776439    0.000000    0.000000   -0.000000
   38.854312    0.805871    0.805871    0.805871    0.000000    0.000000   -0.000000
   40.620417    0.829571    0.829572    0.829571    0.000000    0.000000   -0.000000
   42.386522    0.847438    0.847438    0.847438    0.000000    0.000000   -0.000000
   44.152627    0.861080    0.861080    0.861080    0.000000    0.000000   -0.000000
   45.918732    0.876527    0.876527    0.876527    0.000000    0.000000   -0.000000
   47.684837    0.889863    0.889863    0.889863    0.000000    0.000000   -0.000000
   49.450942    0.897640    0.897641    0.897640    0.000000    0.000000   -0.000000
   51.217047    0.904360    0.904360    0.904360    0.000000    0.000000   -0.000000
   52.983152    0.910883    0.910883    0.910883    0.000000    0.000000   -0.000000
   54.749257    0.918571    0.918571    0.918571    0.000000    0.000000   -0.000000
   56.515362    0.921226    0.921226    0.921226    0.000000    0.000000   -0.000000
   58.281468    0.929991    0.929991    0.929991    0.000000    0.000000   -0.000000
   60.047573    0.929749    0.929750    0.929749    0.000000    0.000000   -0.000000
   61.813678    0.935943    0.935943    0.935943    0.000000    0.000000   -0.000000
   63.579783    0.939366    0.939366    0.939366    0.000000    0.000000   -0.000000
   65.345888    0.943881    0.943881    0.943881    0.000000    0.000000   -0.000000
   67.111993    0.947202    0.947202    0.947202    0.000000    0.000000   -0.000000
   68.878098    0.949117    0.949117    0.949117    0.000000    0.000000   -0.000000
   70.644203    0.950245    0.950245    0.950245    0.000000    0.000000   -0.000000
   72.410308    0.954680    0.954680    0.954680    0.000000    0.000000   -0.000000
   74.176413    0.952638    0.952639    0.952638    0.000000    0.000000   -0.000000
   75.942518    0.958434    0.958434    0.958434    0.000000    0.000000   -0.000000
   77.708623    0.961654    0.961654    0.961654    0.000000    0.000000   -0.000000
   79.474729    0.958516    0.958516    0.958516    0.000000    0.000000   -0.000000
   81.240834    0.960426    0.960426    0.960426    0.000000    0.000000   -0.000000
   83.006939    0.964655    0.964655    0.964655    0.000000    0.000000   -0.000000
   84.773044    0.965187    0.965187    0.965187    0.000000    0.000000   -0.000000
   86.539149    0.966787    0.966787    0.966787    0.000000    0.000000   -0.000000
   88.305254    0.966767    0.966768    0.966767    0.000000    0.000000   -0.000000
   90.071359    0.971451    0.971451    0.971451    0.000000    0.000000   -0.000000
   91.837464    0.970452    0.970453    0.970452    0.000000    0.000000   -0.000000
   93.603569    0.972590    0.972590    0.972589    0.000000    0.000000   -0.000000
   95.369674    0.971853    0.971853    0.971853    0.000000    0.000000   -0.000000
   97.135779    0.974891    0.974891    0.974891    0.000000    0.000000   -0.000000
   98.901884    0.973332    0.973332    0.973332    0.000000    0.000000   -0.000000
  100.667989    0.974896    0.974896    0.974896    0.000000    0.000000   -0.000000
  102.434095    0.975364    0.975364    0.975364    0.000000    0.000000   -0.000000
  104.200200    0.977498    0.977498    0.977498    0.000000    0.000000   -0.000000
[...]
  150.118932    0.987427    0.987427    0.987427   -0.000000   -0.000000    0.000000
  151.885037    0.987815    0.987815    0.987815   -0.000000   -0.000000    0.000000
  153.651142    0.988167    0.988167    0.988167   -0.000000   -0.000000    0.000000
  155.417247    0.988493    0.988493    0.988494   -0.000000   -0.000000    0.000000
  157.183352    0.988800    0.988800    0.988800   -0.000000   -0.000000    0.000000
  158.949457    0.989090    0.989090    0.989090   -0.000000   -0.000000    0.000000
  160.715562    0.989365    0.989365    0.989365   -0.000000   -0.000000    0.000000
  162.481667    0.989628    0.989627    0.989628   -0.000000   -0.000000    0.000000
  164.247772    0.989878    0.989878    0.989878   -0.000000   -0.000000    0.000000
  166.013877    0.990118    0.990118    0.990118   -0.000000   -0.000000    0.000000
  167.779982    0.990348    0.990348    0.990348   -0.000000   -0.000000    0.000000
  169.546087    0.990569    0.990569    0.990569   -0.000000   -0.000000    0.000000
  171.312193    0.990782    0.990782    0.990782   -0.000000   -0.000000    0.000000
  173.078298    0.990987    0.990986    0.990987   -0.000000   -0.000000    0.000000
  174.844403    0.991184    0.991184    0.991184   -0.000000   -0.000000    0.000000

 The outermost node in the dielectric function lies at epsilon=  23.0