 vasp.5.4.4.18Apr17-6-g9f103f2a35 (build Jul 09 2018 16:27:08) complex

 executed on             LinuxIFC date 2018.11.26  01:47:37

 INCAR:
 POTCAR:    PAW Og, JanMewes Oct 18

 POTCAR:    PAW Og, JanMewes Oct 18
   VRHFIN =Og : 10d 2s 6p, PE

   TITEL  = PAW Og, JanMewes Oct 18
   POMASS =    0.010; ZVAL   =   18.000    mass and valenz
   ENMAX  =  339.336; ENMIN  =  254.502 eV
   QCUT   =   -4.994; QGAM   =    9.988    optimization parameters

  PAW Og, JanMewes Oct 18               :

 POSCAR: Og_FCC
  positions in direct lattice
  velocities in cartesian coordinates
 exchange correlation table for  LEXCH =       14
   RHO(1)=    0.500       N(1)  =     2000
   RHO(2)=  100.500       N(2)  =     4000

 ion  position               nearest neighbor table
   1  0.000  0.000  0.000-

  LATTYP: Found a face centered cubic cell.
 ALAT       =     6.2227874435

  Lattice vectors:

 A1 = (   4.4001751991,   0.0000000000,   0.0000000000)
 A2 = (   2.2000875996,   3.8106635035,  -0.0000000000)
 A3 = (   2.2000875996,   1.2702211678,   3.5927280057)

Analysis of symmetry for initial positions (statically):
 Subroutine PRICEL returns:
 Original cell was already a primitive cell.

 Routine SETGRP: Setting up the symmetry group for a
 face centered cubic supercell.

 Subroutine GETGRP returns: Found 48 space group operations
 (whereof 48 operations were pure point group operations)
 out of a pool of 48 trial point group operations.

The static configuration has the point symmetry O_h .

Analysis of symmetry for dynamics (positions and initial velocities):
 Subroutine PRICEL returns:
 Original cell was already a primitive cell.

 Routine SETGRP: Setting up the symmetry group for a
 face centered cubic supercell.

 Subroutine GETGRP returns: Found 48 space group operations
 (whereof 48 operations were pure point group operations)
 out of a pool of 48 trial point group operations.

The dynamic configuration has the point symmetry O_h .

 Subroutine INISYM returns: Found 48 space group operations
 (whereof 48 operations are pure point group operations),
 and found     1 'primitive' translations

Automatic generation of k-mesh.
 generate k-points for:    9    9    9
Space group operators:
 irot       det(A)        alpha          n_x          n_y          n_z        tau_x        tau_y        tau_z
    1     1.000000     0.000000     1.000000     0.000000     0.000000     0.000000     0.000000     0.000000
    2    -1.000000     0.000000     1.000000     0.000000     0.000000     0.000000     0.000000     0.000000
    3     1.000000   120.000000    -0.816497    -0.471405    -0.333333     0.000000     0.000000     0.000000
    4    -1.000000   120.000000    -0.816497    -0.471405    -0.333333     0.000000     0.000000     0.000000
    5     1.000000   120.000000     0.816497     0.471405     0.333333     0.000000     0.000000     0.000000
    6    -1.000000   120.000000     0.816497     0.471405     0.333333     0.000000     0.000000     0.000000
    7     1.000000    90.000000    -0.707107    -0.408248     0.577350     0.000000     0.000000     0.000000
    8    -1.000000    90.000000    -0.707107    -0.408248     0.577350     0.000000     0.000000     0.000000
    9     1.000000   180.000000     1.000000     0.000000     0.000000     0.000000     0.000000     0.000000
   10    -1.000000   180.000000     1.000000     0.000000     0.000000     0.000000     0.000000     0.000000
   11     1.000000    90.000000     0.707107    -0.408248     0.577350     0.000000     0.000000     0.000000
   12    -1.000000    90.000000     0.707107    -0.408248     0.577350     0.000000     0.000000     0.000000
   13     1.000000   180.000000     0.707107     0.408248    -0.577350     0.000000     0.000000     0.000000
   14    -1.000000   180.000000     0.707107     0.408248    -0.577350     0.000000     0.000000     0.000000
   15     1.000000   120.000000     0.816497    -0.471405    -0.333333     0.000000     0.000000     0.000000
   16    -1.000000   120.000000     0.816497    -0.471405    -0.333333     0.000000     0.000000     0.000000
   17     1.000000   120.000000     0.000000    -0.942809     0.333333     0.000000     0.000000     0.000000
   18    -1.000000   120.000000     0.000000    -0.942809     0.333333     0.000000     0.000000     0.000000
   19     1.000000    90.000000     0.707107     0.408248    -0.577350     0.000000     0.000000     0.000000
   20    -1.000000    90.000000     0.707107     0.408248    -0.577350     0.000000     0.000000     0.000000
   21     1.000000    90.000000    -0.000000    -0.816497    -0.577350     0.000000     0.000000     0.000000
   22    -1.000000    90.000000    -0.000000    -0.816497    -0.577350     0.000000     0.000000     0.000000
   23     1.000000   180.000000     0.500000     0.866025     0.000000     0.000000     0.000000     0.000000
   24    -1.000000   180.000000     0.500000     0.866025     0.000000     0.000000     0.000000     0.000000
   25     1.000000   120.000000     0.000000     0.942809    -0.333333     0.000000     0.000000     0.000000
   26    -1.000000   120.000000     0.000000     0.942809    -0.333333     0.000000     0.000000     0.000000
   27     1.000000   120.000000    -0.000000     0.000000    -1.000000     0.000000     0.000000     0.000000
   28    -1.000000   120.000000    -0.000000     0.000000    -1.000000     0.000000     0.000000     0.000000
   29     1.000000   180.000000    -0.000000     0.816497     0.577350     0.000000     0.000000     0.000000
   30    -1.000000   180.000000    -0.000000     0.816497     0.577350     0.000000     0.000000     0.000000
   31     1.000000    90.000000    -0.707107     0.408248    -0.577350     0.000000     0.000000     0.000000
   32    -1.000000    90.000000    -0.707107     0.408248    -0.577350     0.000000     0.000000     0.000000
   33     1.000000   180.000000     0.500000     0.288675     0.816497     0.000000     0.000000     0.000000
   34    -1.000000   180.000000     0.500000     0.288675     0.816497     0.000000     0.000000     0.000000
   35     1.000000    90.000000    -0.000000     0.816497     0.577350     0.000000     0.000000     0.000000
   36    -1.000000    90.000000    -0.000000     0.816497     0.577350     0.000000     0.000000     0.000000
   37     1.000000   120.000000    -0.816497     0.471405     0.333333     0.000000     0.000000     0.000000
   38    -1.000000   120.000000    -0.816497     0.471405     0.333333     0.000000     0.000000     0.000000
   39     1.000000   179.999999    -0.707107     0.408248    -0.577350     0.000000     0.000000     0.000000
   40    -1.000000   179.999999    -0.707107     0.408248    -0.577350     0.000000     0.000000     0.000000
   41     1.000000   120.000000    -0.000000    -0.000000     1.000000     0.000000     0.000000     0.000000
   42    -1.000000   120.000000    -0.000000    -0.000000     1.000000     0.000000     0.000000     0.000000
   43     1.000000   180.000000     0.000000     0.577350    -0.816497     0.000000     0.000000     0.000000
   44    -1.000000   180.000000     0.000000     0.577350    -0.816497     0.000000     0.000000     0.000000
   45     1.000000   180.000000    -0.500000     0.866025     0.000000     0.000000     0.000000     0.000000
   46    -1.000000   180.000000    -0.500000     0.866025     0.000000     0.000000     0.000000     0.000000
   47     1.000000   180.000000    -0.500000     0.288675     0.816497     0.000000     0.000000     0.000000
   48    -1.000000   180.000000    -0.500000     0.288675     0.816497     0.000000     0.000000     0.000000

 Subroutine IBZKPT returns following result:

 Found     35 irreducible k-points:

 Following reciprocal coordinates:
            Coordinates               Weight
  0.000000  0.000000  0.000000      1.000000
  0.111111  0.000000 -0.000000      8.000000
  0.222222 -0.000000 -0.000000      8.000000
  0.333333  0.000000 -0.000000      8.000000
  0.444444 -0.000000 -0.000000      8.000000
  0.111111  0.111111  0.000000      6.000000
  0.222222  0.111111 -0.000000     24.000000
  0.333333  0.111111 -0.000000     24.000000
  0.444444  0.111111 -0.000000     24.000000
 -0.444444  0.111111  0.000000     24.000000
 -0.333333  0.111111  0.000000     24.000000
 -0.222222  0.111111  0.000000     24.000000
 -0.111111  0.111111  0.000000     12.000000
  0.222222  0.222222 -0.000000      6.000000
  0.333333  0.222222  0.000000     24.000000
  0.444444  0.222222 -0.000000     24.000000
 -0.444444  0.222222  0.000000     24.000000
 -0.333333  0.222222  0.000000     24.000000
 -0.222222  0.222222  0.000000     12.000000
  0.333333  0.333333 -0.000000      6.000000
  0.444444  0.333333 -0.000000     24.000000
 -0.444444  0.333333  0.000000     24.000000
 -0.333333  0.333333  0.000000     12.000000
  0.444444  0.444444 -0.000000      6.000000
 -0.444444  0.444444  0.000000     12.000000
  0.333333  0.222222  0.111111     24.000000
  0.444444  0.222222  0.111111     48.000000
 -0.444444  0.222222  0.111111     48.000000
  0.444444  0.333333  0.111111     24.000000
 -0.444444  0.333333  0.111111     48.000000
 -0.333333  0.333333  0.111111     48.000000
 -0.222222  0.333333  0.111111     24.000000
 -0.444444  0.444444  0.111111     24.000000
 -0.333333  0.444444  0.111111     24.000000
 -0.333333  0.444444  0.222222     24.000000

 Following cartesian coordinates:
            Coordinates               Weight
  0.000000  0.000000  0.000000      1.000000
  0.024746 -0.014287 -0.010103      8.000000
  0.049493 -0.028575 -0.020205      8.000000
  0.074239 -0.042862 -0.030308      8.000000
  0.098986 -0.057150 -0.040411      8.000000
  0.024746  0.014287 -0.020205      6.000000
  0.049493 -0.000000 -0.030308     24.000000
  0.074239 -0.014287 -0.040411     24.000000
  0.098986 -0.028575 -0.050514     24.000000
 -0.098986  0.085724  0.030308     24.000000
 -0.074239  0.071437  0.020205     24.000000
 -0.049493  0.057150  0.010103     24.000000
 -0.024746  0.042862  0.000000     12.000000
  0.049493  0.028575 -0.040411      6.000000
  0.074239  0.014287 -0.050514     24.000000
  0.098986 -0.000000 -0.060616     24.000000
 -0.098986  0.114299  0.020205     24.000000
 -0.074239  0.100012  0.010103     24.000000
 -0.049493  0.085724  0.000000     12.000000
  0.074239  0.042862 -0.060616      6.000000
  0.098986  0.028575 -0.070719     24.000000
 -0.098986  0.142874  0.010103     24.000000
 -0.074239  0.128587  0.000000     12.000000
  0.098986  0.057150 -0.080822      6.000000
 -0.098986  0.171449  0.000000     12.000000
  0.074239  0.014287 -0.020205     24.000000
  0.098986  0.000000 -0.030308     48.000000
 -0.098986  0.114299  0.050514     48.000000
  0.098986  0.028575 -0.040411     24.000000
 -0.098986  0.142874  0.040411     48.000000
 -0.074239  0.128587  0.030308     48.000000
 -0.049493  0.114299  0.020205     24.000000
 -0.098986  0.171449  0.030308     24.000000
 -0.074239  0.157161  0.020205     24.000000
 -0.074239  0.157161  0.050514     24.000000

 SYSTEM =  Og_FCC
 POSCAR =  Og_FCC

 Startparameter for this run:
   NWRITE =      2    write-flag & timer
   PREC   = accura    normal or accurate (medium, high low for compatibility)
[...]
   LVTOT        =      F    write LOCPOT, total local potential
   LVHAR        =      F    write LOCPOT, Hartree potential only
   LELF         =      F    write electronic localiz. function (ELF)
   LORBIT       =      0    0 simple, 1 ext, 2 COOP (PROOUT), +10 PAW based schemes

 Dipole corrections
   LMONO  =      F    monopole corrections only (constant potential shift)
   LDIPOL =      F    correct potential (dipole corrections)
   IDIPOL =      0    1-x, 2-y, 3-z, 4-all directions
   EPSILON=  1.0000000 bulk dielectric constant

 Exchange correlation treatment:
   GGA     =    PS    GGA type
   VOSKOWN=      0    Vosko Wilk Nusair interpolation
   LHFCALC =     F    Hartree Fock is set to
   LHFONE  =     F    Hartree Fock one center treatment
   AEXX    =    0.0000 exact exchange contribution

 Linear response parameters
   LEPSILON=     F    determine dielectric tensor
   LRPA    =     F    only Hartree local field effects (RPA)
   LNABLA  =     F    use nabla operator in PAW spheres
   LVEL    =     F    velocity operator in full k-point grid
   LINTERFAST=   F  fast interpolation
   KINTER  =     0    interpolate to denser k-point grid
   CSHIFT  =0.1000    complex shift for real part using Kramers Kronig
   OMEGAMAX=  -1.0    maximum frequency
   DEG_THRESHOLD= 0.2000000E-02 threshold for treating states as degnerate
   RTIME   =   -0.100 relaxation time in fs
  (WPLASMAI=    0.000 imaginary part of plasma frequency in eV, 0.658/RTIME)
   DFIELD  = 0.0000000 0.0000000 0.0000000 field for delta impulse in time

 Orbital magnetization related:
   ORBITALMAG=     F  switch on orbital magnetization
   LCHIMAG   =     F  perturbation theory with respect to B field
   DQ        =  0.001000  dq finite difference perturbation B field
   LLRAUG    =     F  two centre corrections for induced B field

 Static calculation
 charge density and potential will be updated during run
 non-spin polarized calculation
 RMM-DIIS sequential band-by-band and
  variant of blocked Davidson during initial phase
 perform sub-space diagonalisation
    before iterative eigenvector-optimisation
 modified Broyden-mixing scheme, WC =      100.0
 initial mixing is a Kerker type mixing with AMIX =  0.4000 and BMIX =      1.0000
 Hartree-type preconditioning will be used
 using additional bands            4
 reciprocal scheme for non local part
 use partial core corrections
 calculate Harris-corrections to forces
   (improved forces if not selfconsistent)
 use gradient corrections
 use of overlap-Matrix (Vanderbilt PP)
 Methfessel and Paxton  Order N= 1 SIGMA  =   0.10

  energy-cutoff  :      600.00
  volume of cell :       60.24
      direct lattice vectors                 reciprocal lattice vectors
     4.400175199  0.000000000  0.000000000     0.227263678 -0.131210746 -0.092780008
     2.200087600  3.810663503 -0.000000000     0.000000000  0.262421491 -0.092780008
     2.200087600  1.270221168  3.592728006    -0.000000000  0.000000000  0.278340024

  length of vectors
     4.400175199  4.400175199  4.400175199     0.278340024  0.278340024  0.278340024

 k-points in units of 2pi/SCALE and weight: read from INCAR
   0.00000000  0.00000000  0.00000000       0.001
   0.02474649 -0.01428739 -0.01010271       0.011
   0.04949298 -0.02857478 -0.02020542       0.011
   0.07423947 -0.04286218 -0.03030814       0.011
   0.09898596 -0.05714957 -0.04041085       0.011
   0.02474649  0.01428739 -0.02020542       0.008
   0.04949298 -0.00000000 -0.03030814       0.033
   0.07423947 -0.01428739 -0.04041085       0.033
   0.09898596 -0.02857478 -0.05051356       0.033
  -0.09898596  0.08572435  0.03030814       0.033
  -0.07423947  0.07143696  0.02020542       0.033
  -0.04949298  0.05714957  0.01010271       0.033
  -0.02474649  0.04286218  0.00000000       0.016
   0.04949298  0.02857478 -0.04041085       0.008
   0.07423947  0.01428739 -0.05051356       0.033
   0.09898596 -0.00000000 -0.06061627       0.033
  -0.09898596  0.11429914  0.02020542       0.033
  -0.07423947  0.10001175  0.01010271       0.033
  -0.04949298  0.08572435  0.00000000       0.016
   0.07423947  0.04286218 -0.06061627       0.008
   0.09898596  0.02857478 -0.07071898       0.033
  -0.09898596  0.14287392  0.01010271       0.033
  -0.07423947  0.12858653  0.00000000       0.016
   0.09898596  0.05714957 -0.08082170       0.008
  -0.09898596  0.17144871  0.00000000       0.016
   0.07423947  0.01428739 -0.02020542       0.033
   0.09898596  0.00000000 -0.03030814       0.066
  -0.09898596  0.11429914  0.05051356       0.066
   0.09898596  0.02857478 -0.04041085       0.033
  -0.09898596  0.14287392  0.04041085       0.066
  -0.07423947  0.12858653  0.03030814       0.066
  -0.04949298  0.11429914  0.02020542       0.033
  -0.09898596  0.17144871  0.03030814       0.033
  -0.07423947  0.15716132  0.02020542       0.033
  -0.07423947  0.15716132  0.05051356       0.033

 k-points in reciprocal lattice and weights: read from INCAR
   0.00000000  0.00000000  0.00000000       0.001
   0.11111111  0.00000000 -0.00000000       0.011
   0.22222222 -0.00000000 -0.00000000       0.011
   0.33333333  0.00000000 -0.00000000       0.011
   0.44444444 -0.00000000 -0.00000000       0.011
   0.11111111  0.11111111  0.00000000       0.008
   0.22222222  0.11111111 -0.00000000       0.033
   0.33333333  0.11111111 -0.00000000       0.033
   0.44444444  0.11111111 -0.00000000       0.033
  -0.44444444  0.11111111  0.00000000       0.033
  -0.33333333  0.11111111  0.00000000       0.033
  -0.22222222  0.11111111  0.00000000       0.033
  -0.11111111  0.11111111  0.00000000       0.016
   0.22222222  0.22222222 -0.00000000       0.008
   0.33333333  0.22222222  0.00000000       0.033
   0.44444444  0.22222222 -0.00000000       0.033
  -0.44444444  0.22222222  0.00000000       0.033
  -0.33333333  0.22222222  0.00000000       0.033
  -0.22222222  0.22222222  0.00000000       0.016
   0.33333333  0.33333333 -0.00000000       0.008
   0.44444444  0.33333333 -0.00000000       0.033
  -0.44444444  0.33333333  0.00000000       0.033
  -0.33333333  0.33333333  0.00000000       0.016
   0.44444444  0.44444444 -0.00000000       0.008
  -0.44444444  0.44444444  0.00000000       0.016
   0.33333333  0.22222222  0.11111111       0.033
   0.44444444  0.22222222  0.11111111       0.066
  -0.44444444  0.22222222  0.11111111       0.066
   0.44444444  0.33333333  0.11111111       0.033
  -0.44444444  0.33333333  0.11111111       0.066
  -0.33333333  0.33333333  0.11111111       0.066
  -0.22222222  0.33333333  0.11111111       0.033
  -0.44444444  0.44444444  0.11111111       0.033
  -0.33333333  0.44444444  0.11111111       0.033
  -0.33333333  0.44444444  0.22222222       0.033

 position of ions in fractional coordinates (direct lattice)
   0.00000000  0.00000000  0.00000000

 position of ions in cartesian coordinates  (Angst):
   0.00000000  0.00000000  0.00000000

 k-point  1 :   0.0000 0.0000 0.0000  plane waves:    1989
 k-point  2 :   0.1111 0.0000-0.0000  plane waves:    2016
 k-point  3 :   0.2222-0.0000-0.0000  plane waves:    2009
 k-point  4 :   0.3333 0.0000-0.0000  plane waves:    2006
 k-point  5 :   0.4444-0.0000-0.0000  plane waves:    2018
 k-point  6 :   0.1111 0.1111 0.0000  plane waves:    2017
 k-point  7 :   0.2222 0.1111-0.0000  plane waves:    2000
 k-point  8 :   0.3333 0.1111-0.0000  plane waves:    2000
 k-point  9 :   0.4444 0.1111-0.0000  plane waves:    2008
 k-point 10 :  -0.4444 0.1111 0.0000  plane waves:    1996
 k-point 11 :  -0.3333 0.1111 0.0000  plane waves:    2009
 k-point 12 :  -0.2222 0.1111 0.0000  plane waves:    2002
 k-point 13 :  -0.1111 0.1111 0.0000  plane waves:    2015
 k-point 14 :   0.2222 0.2222-0.0000  plane waves:    2008
 k-point 15 :   0.3333 0.2222 0.0000  plane waves:    2008
 k-point 16 :   0.4444 0.2222-0.0000  plane waves:    2016
 k-point 17 :  -0.4444 0.2222 0.0000  plane waves:    2010
 k-point 18 :  -0.3333 0.2222 0.0000  plane waves:    2002
 k-point 19 :  -0.2222 0.2222 0.0000  plane waves:    2003
 k-point 20 :   0.3333 0.3333-0.0000  plane waves:    2016
 k-point 21 :   0.4444 0.3333-0.0000  plane waves:    2019
 k-point 22 :  -0.4444 0.3333 0.0000  plane waves:    2020
 k-point 23 :  -0.3333 0.3333 0.0000  plane waves:    2015
 k-point 24 :   0.4444 0.4444-0.0000  plane waves:    2012
 k-point 25 :  -0.4444 0.4444 0.0000  plane waves:    2014
 k-point 26 :   0.3333 0.2222 0.1111  plane waves:    1998
 k-point 27 :   0.4444 0.2222 0.1111  plane waves:    2015
 k-point 28 :  -0.4444 0.2222 0.1111  plane waves:    2007
 k-point 29 :   0.4444 0.3333 0.1111  plane waves:    2014
 k-point 30 :  -0.4444 0.3333 0.1111  plane waves:    2007
 k-point 31 :  -0.3333 0.3333 0.1111  plane waves:    2013
 k-point 32 :  -0.2222 0.3333 0.1111  plane waves:    2013
 k-point 33 :  -0.4444 0.4444 0.1111  plane waves:    2008
 k-point 34 :  -0.3333 0.4444 0.1111  plane waves:    2010
 k-point 35 :  -0.3333 0.4444 0.2222  plane waves:    2010

 maximum and minimum number of plane-waves per node :       515      489

 maximum number of plane-waves:      2020
 maximum index in each direction:
   IXMAX=    9   IYMAX=    8   IZMAX=    8
   IXMIN=   -9   IYMIN=   -9   IZMIN=   -9

 parallel 3D FFT for wavefunctions:
    minimum data exchange during FFTs selected (reduces bandwidth)
 parallel 3D FFT for charge:
    minimum data exchange during FFTs selected (reduces bandwidth)

 Broyden mixing: mesh for mixing (old mesh)
   NGX = 17   NGY = 17   NGZ = 17
  (NGX  = 72   NGY  = 72   NGZ  = 72)
  gives a total of   4913 points

 initial charge density was supplied:
 charge density of overlapping atoms calculated
 number of electron      18.0000000 magnetization
 keeping initial charge density in first step

 Maximum index for augmentation-charges        90195 (set IRDMAX)

 First call to EWALD:  gamma=   0.452
 Maximum number of real-space cells 3x 3x 3
 Maximum number of reciprocal cells 3x 3x 3

--------------------------------------- Iteration      1(   1)  ---------------------------------------

 eigenvalue-minimisations  :   918
 total energy-change (2. order) : 0.2996807E+03  (-0.9632160E+03)
 number of electron      18.0000000 magnetization
 augmentation part       18.0000000 magnetization

 Free energy of the ion-electron system (eV)
  alpha Z        PSCENC =        63.33282253
  Ewald energy   TEWEN  =     -1718.74875381
  -Hartree energ DENC   =      -674.97235840
  -exchange      EXHF   =         0.00000000
  -V(xc)+E(xc)   XCENC  =       -67.16104522
  PAW double counting   =      2266.27872487    -2184.08858500
  entropy T*S    EENTRO =         0.00031648
  eigenvalues    EBANDS =       -26.97786475
  atomic energy  EATOM  =      2642.01744135
  Solvation  Ediel_sol  =         0.00000000
  free energy    TOTEN  =       299.68069806 eV

  energy without entropy =      299.68038158  energy(sigma->0) =      299.68059257

[...]

 eigenvalue-minimisations  :  1140
 total energy-change (2. order) :-0.2894689E+03  (-0.2822133E+03)
 number of electron      18.0000000 magnetization
 augmentation part       18.0000000 magnetization

[...]

 Broyden mixing:
  rms(total) = 0.20911E-01    rms(broyden)= 0.19751E-01
  rms(prec ) = 0.53820E-01
  weight for this iteration     100.00

[...]

 eigenvalues of (default mixing * dielectric matrix)
  average eigenvalue GAMMA=   2.3194
  2.3194

[...]

 eigenvalue-minimisations  :  1062
 total energy-change (2. order) :-0.4457097E-05  (-0.6265504E-06)
 number of electron      18.0000000 magnetization
 augmentation part        2.9906902 magnetization

[...]

 Broyden mixing:
  rms(total) = 0.92594E-05    rms(broyden)= 0.87908E-05
  rms(prec ) = 0.17546E-04
  weight for this iteration     100.00

 eigenvalues of (default mixing * dielectric matrix)
  average eigenvalue GAMMA=   1.8507
  3.0134  3.0134  2.4909  1.7159  1.7159  0.9933  0.9933  0.8697

[...]

--------------------------------------- Iteration      1(  14)  ---------------------------------------

 eigenvalue-minimisations  :   649
 total energy-change (2. order) : 0.4146705E-07  (-0.3472207E-08)
 number of electron      18.0000000 magnetization
 augmentation part        2.9907341 magnetization

 Free energy of the ion-electron system (eV)
  alpha Z        PSCENC =        63.33282253
  Ewald energy   TEWEN  =     -1718.74875381
  -Hartree energ DENC   =      -673.56232785
  -exchange      EXHF   =         0.00000000
  -V(xc)+E(xc)   XCENC  =       -67.23910498
  PAW double counting   =      2253.85670083    -2171.60618987
  entropy T*S    EENTRO =         0.00047891
  eigenvalues    EBANDS =      -328.16071518
  atomic energy  EATOM  =      2642.01744135
  Solvation  Ediel_sol  =         0.00000000
  free energy    TOTEN  =        -0.10964806 eV

  energy without entropy =       -0.11012697  energy(sigma->0) =       -0.10980770

 average (electrostatic) potential at core
  the test charge radii are     1.2024
  (the norm of the test charge is              1.0000)
       1-112.5696

 E-fermi :   1.3687     XC(G=0):  -8.1790     alpha+bet : -7.2844

 k-point     1 :       0.0000    0.0000    0.0000
  band No.  band energies     occupation
      1     -28.5186      2.00000
      2     -28.5186      2.00000
      3     -28.5186      2.00000
      4     -28.5156      2.00000
      5     -28.5156      2.00000
      6     -21.5398      2.00000
      7       1.3307      1.59483
      8       1.3307      1.59483
      9       1.3307      1.59483
     10       3.2990     -0.00000
     11      10.4349      0.00000
     12      10.4349      0.00000
     13      10.4349      0.00000

[...]

 k-point    35 :      -0.3333    0.4444    0.2222
  band No.  band energies     occupation
      1     -28.5167      2.00000
      2     -28.5167      2.00000
      3     -28.5149      2.00000
      4     -28.5133      2.00000
      5     -28.5109      2.00000
      6     -21.4318      2.00000
      7      -0.8608      2.00000
      8      -0.5099      2.00000
      9       0.1726      2.00000
     10       7.8874      0.00000
     11       8.9328      0.00000
     12       9.3581      0.00000
     13      10.7346      0.00000

 soft charge-density along one line, spin component           1
         0         1         2         3         4         5         6         7         8         9
 total charge-density along one line

------------------------ aborting loop because EDIFF is reached ----------------------------------------

  FORCE on cell =-STRESS in cart. coord.  units (eV):
  Direction    XX          YY          ZZ          XY          YZ          ZX
  Alpha Z    63.33282    63.33282    63.33282
  Ewald    -572.91627  -572.91627  -572.91627     0.00000    -0.00000    -0.00000
  Hartree   224.52135   224.52135   224.52135     0.00000    -0.00000     0.00000
  E(xc)    -108.89194  -108.89194  -108.89194     0.00000     0.00000     0.00000
  Local    -170.94603  -170.94604  -170.94605     0.00001     0.00000     0.00001
  n-local    95.64197    99.16895   101.60382     1.28403    -0.31689     3.70724
  augment    79.48775    79.48776    79.48776    -0.00001    -0.00000    -0.00001
  Kinetic   384.14094   387.02769   389.06656     1.36464     0.21126     3.24187
  Fock        0.00000     0.00000     0.00000     0.00000     0.00000     0.00000
  Total       0.13765     0.13765     0.13765     0.00000     0.00000    -0.00000
  in kB       3.66090     3.66090     3.66090     0.00000     0.00000    -0.00000

 VOLUME and BASIS-vectors are now :
  energy-cutoff  :      600.00
  volume of cell :       60.24
      direct lattice vectors                 reciprocal lattice vectors
     4.400175199  0.000000000  0.000000000     0.227263678 -0.131210746 -0.092780008
     2.200087600  3.810663503 -0.000000000     0.000000000  0.262421491 -0.092780008
     2.200087600  1.270221168  3.592728006    -0.000000000  0.000000000  0.278340024

  length of vectors
     4.400175199  4.400175199  4.400175199     0.278340024  0.278340024  0.278340024

 FORCES acting on ions
    electron-ion (+dipol)            ewald-force                    non-local-force                 convergence-correction
   -.399E-13 0.444E-14 -.672E-13   -.506E-14 -.350E-15 -.965E-16   0.397E-21 -.794E-22 -.212E-21   -.653E-13 0.265E-13 -.171E-13
   -.399E-13 0.444E-14 -.672E-13   -.506E-14 -.350E-15 -.965E-16   0.397E-21 -.794E-22 -.212E-21   -.653E-13 0.265E-13 -.171E-13

 POSITION                                       TOTAL-FORCE (eV/Angst)
      0.00000      0.00000      0.00000         0.000000      0.000000      0.000000
    total drift:                               -0.000000      0.000000     -0.000000

  FREE ENERGIE OF THE ION-ELECTRON SYSTEM (eV)
  free  energy   TOTEN  =        -0.10964806 eV

  energy  without entropy=       -0.11012697  energy(sigma->0) =       -0.10980770