 vasp.5.4.4.18Apr17-6-g9f103f2a35 (build Nov 03 2018 10:20:46) complex

 executed on             LinuxIFC date 2018.12.22  12:41:46

 INCAR:
 POTCAR:    PAW Og, JanMewes Oct 18

 POTCAR:    PAW Og, JanMewes Oct 18
   VRHFIN =Og : 10d 2s 6p, PE

   TITEL  = PAW Og, JanMewes Oct 18
   POMASS =    0.010; ZVAL   =   18.000    mass and valenz
   ENMAX  =  339.336; ENMIN  =  254.502 eV
   QCUT   =   -4.994; QGAM   =    9.988    optimization parameters

  PAW Og, JanMewes Oct 18               :

 POSCAR: Og_FCC
  positions in direct lattice
  velocities in cartesian coordinates
 exchange correlation table for  LEXCH =        8
   RHO(1)=    0.500       N(1)  =     2000
   RHO(2)=  100.500       N(2)  =     4000

 ion  position               nearest neighbor table
   1  0.000  0.000  0.000-

IMPORTANT INFORMATION: All symmetrisations will be switched off!
NOSYMM: (Re-)initialisation of all symmetry stuff for point group C_1.

 KPOINTS: k-points

Automatic generation of k-mesh.
Space group operators:
 irot       det(A)        alpha          n_x          n_y          n_z        tau_x        tau_y        tau_z
    1     1.000000     0.000000     1.000000     0.000000     0.000000     0.000000     0.000000     0.000000

 Subroutine IBZKPT returns following result:

 Found    216 irreducible k-points:

 Following reciprocal coordinates:
            Coordinates               Weight
  0.000000  0.000000  0.000000      1.000000
  0.166667  0.000000  0.000000      1.000000
  0.333333  0.000000  0.000000      1.000000
  0.500000  0.000000  0.000000      1.000000
 -0.333333 -0.000000  0.000000      1.000000
 -0.166667 -0.000000 -0.000000      1.000000
 -0.000000  0.166667 -0.000000      1.000000
  0.166667  0.166667  0.000000      1.000000
  0.333333  0.166667 -0.000000      1.000000
  0.500000  0.166667  0.000000      1.000000
 -0.333333  0.166667 -0.000000      1.000000
 -0.166667  0.166667 -0.000000      1.000000
  0.000000  0.333333 -0.000000      1.000000
  0.166667  0.333333  0.000000      1.000000
  0.333333  0.333333  0.000000      1.000000
  0.500000  0.333333  0.000000      1.000000
 -0.333333  0.333333 -0.000000      1.000000
 -0.166667  0.333333 -0.000000      1.000000
  0.000000  0.500000 -0.000000      1.000000
  0.166667  0.500000  0.000000      1.000000
  0.333333  0.500000  0.000000      1.000000
  0.500000  0.500000  0.000000      1.000000
 -0.333333  0.500000 -0.000000      1.000000
 -0.166667  0.500000 -0.000000      1.000000
 -0.000000 -0.333333  0.000000      1.000000
  0.166667 -0.333333  0.000000      1.000000
  0.333333 -0.333333  0.000000      1.000000
  0.500000 -0.333333  0.000000      1.000000
 -0.333333 -0.333333 -0.000000      1.000000
 -0.166667 -0.333333  0.000000      1.000000
  0.000000 -0.166667  0.000000      1.000000
  0.166667 -0.166667  0.000000      1.000000
  0.333333 -0.166667  0.000000      1.000000
  0.500000 -0.166667  0.000000      1.000000
 -0.333333 -0.166667  0.000000      1.000000
 -0.166667 -0.166667  0.000000      1.000000
  0.000000  0.000000  0.166667      1.000000
  0.166667  0.000000  0.166667      1.000000
  0.333333 -0.000000  0.166667      1.000000
  0.500000 -0.000000  0.166667      1.000000
 -0.333333 -0.000000  0.166667      1.000000
 -0.166667  0.000000  0.166667      1.000000
 -0.000000  0.166667  0.166667      1.000000
  0.166667  0.166667  0.166667      1.000000
  0.333333  0.166667  0.166667      1.000000
  0.500000  0.166667  0.166667      1.000000
 -0.333333  0.166667  0.166667      1.000000
 -0.166667  0.166667  0.166667      1.000000
 -0.000000  0.333333  0.166667      1.000000
  0.166667  0.333333  0.166667      1.000000
  0.333333  0.333333  0.166667      1.000000
  0.500000  0.333333  0.166667      1.000000
 -0.333333  0.333333  0.166667      1.000000
 -0.166667  0.333333  0.166667      1.000000
 -0.000000  0.500000  0.166667      1.000000
  0.166667  0.500000  0.166667      1.000000
  0.333333  0.500000  0.166667      1.000000
  0.500000  0.500000  0.166667      1.000000
 -0.333333  0.500000  0.166667      1.000000
 -0.166667  0.500000  0.166667      1.000000
[...]
  0.500000  0.500000 -0.166667      1.000000
 -0.333333  0.500000 -0.166667      1.000000
 -0.166667  0.500000 -0.166667      1.000000
  0.000000 -0.333333 -0.166667      1.000000
  0.166667 -0.333333 -0.166667      1.000000
  0.333333 -0.333333 -0.166667      1.000000
  0.500000 -0.333333 -0.166667      1.000000
 -0.333333 -0.333333 -0.166667      1.000000
 -0.166667 -0.333333 -0.166667      1.000000
  0.000000 -0.166667 -0.166667      1.000000
  0.166667 -0.166667 -0.166667      1.000000
  0.333333 -0.166667 -0.166667      1.000000
  0.500000 -0.166667 -0.166667      1.000000
 -0.333333 -0.166667 -0.166667      1.000000
 -0.166667 -0.166667 -0.166667      1.000000

 Following cartesian coordinates:
            Coordinates               Weight
  0.000000  0.000000  0.000000      1.000000
  0.038382 -0.022160 -0.015669      1.000000
  0.076763 -0.044319 -0.031339      1.000000
  0.115145 -0.066479 -0.047008      1.000000
 -0.076763  0.044319  0.031339      1.000000
 -0.038382  0.022160  0.015669      1.000000
  0.000000  0.044319 -0.015669      1.000000
  0.038382  0.022160 -0.031339      1.000000
  0.076763  0.000000 -0.047008      1.000000
  0.115145 -0.022160 -0.062677      1.000000
 -0.076763  0.088639  0.015669      1.000000
 -0.038382  0.066479 -0.000000      1.000000
  0.000000  0.088639 -0.031339      1.000000
  0.038382  0.066479 -0.047008      1.000000
  0.076763  0.044319 -0.062677      1.000000
  0.115145  0.022160 -0.078346      1.000000
 -0.076763  0.132958  0.000000      1.000000
 -0.038382  0.110798 -0.015669      1.000000
  0.000000  0.132958 -0.047008      1.000000
  0.038382  0.110798 -0.062677      1.000000
  0.076763  0.088639 -0.078346      1.000000
  0.115145  0.066479 -0.094016      1.000000
 -0.076763  0.177278 -0.015669      1.000000
 -0.038382  0.155118 -0.031339      1.000000
 -0.000000 -0.088639  0.031339      1.000000
  0.038382 -0.110798  0.015669      1.000000
  0.076763 -0.132958 -0.000000      1.000000
  0.115145 -0.155118 -0.015669      1.000000
 -0.076763 -0.044319  0.062677      1.000000
 -0.038382 -0.066479  0.047008      1.000000
 -0.000000 -0.044319  0.015669      1.000000
  0.038382 -0.066479 -0.000000      1.000000
  0.076763 -0.088639 -0.015669      1.000000
  0.115145 -0.110798 -0.031339      1.000000
 -0.076763  0.000000  0.047008      1.000000
 -0.038382 -0.022160  0.031339      1.000000
 -0.000000  0.000000  0.047008      1.000000
  0.038382 -0.022160  0.031339      1.000000
  0.076763 -0.044319  0.015669      1.000000
  0.115145 -0.066479  0.000000      1.000000
 -0.076763  0.044319  0.078346      1.000000
 -0.038382  0.022160  0.062677      1.000000
 -0.000000  0.044319  0.031339      1.000000
  0.038382  0.022160  0.015669      1.000000
  0.076763  0.000000  0.000000      1.000000
  0.115145 -0.022160 -0.015669      1.000000
 -0.076763  0.088639  0.062677      1.000000
 -0.038382  0.066479  0.047008      1.000000
 -0.000000  0.088639  0.015669      1.000000
  0.038382  0.066479  0.000000      1.000000
  0.076763  0.044319 -0.015669      1.000000
  0.115145  0.022160 -0.031339      1.000000
 -0.076763  0.132958  0.047008      1.000000
 -0.038382  0.110798  0.031339      1.000000
 -0.000000  0.132958  0.000000      1.000000
  0.038382  0.110798 -0.015669      1.000000
  0.076763  0.088639 -0.031339      1.000000
  0.115145  0.066479 -0.047008      1.000000
 -0.076763  0.177278  0.031339      1.000000
 -0.038382  0.155118  0.015669      1.000000
[...]
  0.115145  0.066479 -0.141023      1.000000
 -0.076763  0.177278 -0.062677      1.000000
 -0.038382  0.155118 -0.078346      1.000000
  0.000000 -0.088639 -0.015669      1.000000
  0.038382 -0.110798 -0.031339      1.000000
  0.076763 -0.132958 -0.047008      1.000000
  0.115145 -0.155118 -0.062677      1.000000
 -0.076763 -0.044319  0.015669      1.000000
 -0.038382 -0.066479  0.000000      1.000000
  0.000000 -0.044319 -0.031339      1.000000
  0.038382 -0.066479 -0.047008      1.000000
  0.076763 -0.088639 -0.062677      1.000000
  0.115145 -0.110798 -0.078346      1.000000
 -0.076763  0.000000  0.000000      1.000000
 -0.038382 -0.022160 -0.015669      1.000000

 SYSTEM =  Og_FCC
 POSCAR =  Og_FCC

 Startparameter for this run:
   NWRITE =      2    write-flag & timer
   PREC   = accura    normal or accurate (medium, high low for compatibility)
   ISTART =      1    job   : 0-new  1-cont  2-samecut
   ICHARG =      0    charge: 1-file 2-atom 10-const
   ISPIN  =      1    spin polarized calculation?
   LNONCOLLINEAR =      T non collinear calculations
   LSORBIT =      T    spin-orbit coupling
   INIWAV =      1    electr: 0-lowe 1-rand  2-diag
   LASPH  =      F    aspherical Exc in radial PAW
   METAGGA=      F    non-selfconsistent MetaGGA calc.

 Electronic Relaxation 1
   ENCUT  =  300.0 eV  22.05 Ry    4.70 a.u.   6.13  6.13  6.13*2*pi/ulx,y,z
   ENINI  =  300.0     initial cutoff
   ENAUG  =  361.0 eV  augmentation charge cutoff
   NELM   =     50;   NELMIN=  2; NELMDL= -5     # of ELM steps
   EDIFF  = 0.1E-07   stopping-criterion for ELM
   LREAL  =      F    real-space projection
   NLSPLINE    = F    spline interpolate recip. space projectors
   LCOMPAT=      F    compatible to vasp.4.4
   GGA_COMPAT  = F    GGA compatible to vasp.4.4-vasp.4.6
   LMAXPAW     = -100 max onsite density
   LMAXMIX     =    2 max onsite mixed and CHGCAR
   VOSKOWN=      0    Vosko Wilk Nusair interpolation
   ROPT   =    0.00000
 Ionic relaxation
   EDIFFG = 0.1E-04   stopping-criterion for IOM
   NSW    =      1    number of steps for IOM
   NBLOCK =      1;   KBLOCK =      1    inner block; outer block
   IBRION =     -1    ionic relax: 0-MD 1-quasi-New 2-CG
   NFREE  =      5    steps in history (QN), initial steepest desc. (CG)
   ISIF   =      3    stress and relaxation
   IWAVPR =     10    prediction:  0-non 1-charg 2-wave 3-comb
   ISYM   =      0    0-nonsym 1-usesym 2-fastsym
   LCORR  =      T    Harris-Foulkes like correction to forces

   POTIM  = 0.1000    time-step for ionic-motion
   TEIN   =    0.0    initial temperature
   TEBEG  =    0.0;   TEEND  =   0.0 temperature during run
   SMASS  =  -3.00    Nose mass-parameter (am)
   estimated Nose-frequenzy (Omega)   =  0.10E-29 period in steps =****** mass=  -0.431E-27a.u.
   SCALEE = 1.0000    scale energy and forces
   NPACO  =    256;   APACO  = 16.0  distance and # of slots for P.C.
   PSTRESS=    0.0 pullay stress

  Mass of Ions in am
   POMASS =   0.01
  Ionic Valenz
   ZVAL   =  18.00
  Atomic Wigner-Seitz radii
  virtual crystal weights
   VCA    =   1.00
   NELECT =      18.0000    total number of electrons
   NUPDOWN=      -1.0000    fix difference up-down

 DOS related values:
   EMIN   =  10.00;   EMAX   =-10.00  energy-range for DOS
   EFERMI =   0.00
   ISMEAR =     0;   SIGMA  =   0.00  broadening in eV -4-tet -1-fermi 0-gaus

 Electronic relaxation 2 (details)
   IALGO  =     38    algorithm
   LDIAG  =      T    sub-space diagonalisation (order eigenvalues)
   LSUBROT=      F    optimize rotation matrix (better conditioning)
   TURBO    =      0    0=normal 1=particle mesh
[...]
   26.827924    0.849290    0.849291    0.849292    0.000000    0.000004   -0.000001
   27.375433    0.749713    0.749716    0.749717    0.000039   -0.000126    0.000052
   27.922942    0.789030    0.789032    0.789033    0.000180   -0.000606    0.000249
   28.470450    0.850648    0.850651    0.850652    0.000014   -0.000042    0.000018
   29.017959    0.832642    0.832645    0.832645    0.000003   -0.000010    0.000004
   29.565468    0.851727    0.851710    0.851690   -0.000020    0.000008   -0.000009
   30.112976    0.874438    0.874468    0.874501    0.000050   -0.000057    0.000035
   30.660485    0.871167    0.871166    0.871165   -0.000003    0.000009   -0.000005
   31.207994    0.843593    0.843584    0.843579   -0.000012    0.000022   -0.000012
   31.755502    0.822998    0.822988    0.822984   -0.000015    0.000033   -0.000017
   32.303011    0.867810    0.867808    0.867811    0.000003   -0.000006    0.000002
[...]
   46.538236    0.890055    0.890056    0.890056    0.000001   -0.000001    0.000001
   47.085745    0.895182    0.895183    0.895183    0.000001   -0.000001    0.000001
   47.633253    0.899422    0.899423    0.899423    0.000001   -0.000001    0.000001
   48.180762    0.903121    0.903122    0.903122    0.000001   -0.000001    0.000001
   48.728271    0.906438    0.906439    0.906440    0.000001   -0.000001    0.000001
   49.275779    0.909465    0.909466    0.909466    0.000001   -0.000001    0.000001
   49.823288    0.912258    0.912259    0.912260    0.000001   -0.000001    0.000001
   50.370797    0.914858    0.914859    0.914859    0.000001   -0.000001    0.000001
   50.918305    0.917292    0.917293    0.917293    0.000001   -0.000001    0.000001
   51.465814    0.919583    0.919584    0.919584    0.000001   -0.000001    0.000001
   52.013323    0.921747    0.921748    0.921749    0.000001   -0.000001    0.000001
   52.560831    0.923799    0.923800    0.923800    0.000001   -0.000001    0.000001
   53.108340    0.925749    0.925749    0.925750    0.000001   -0.000001    0.000001
   53.655849    0.927606    0.927607    0.927607    0.000001   -0.000001    0.000001
   54.203357    0.929379    0.929379    0.929380    0.000001   -0.000001    0.000001

  frequency dependent IMAGINARY DIELECTRIC FUNCTION (independent particle, no local field effects) current-current (2nd set in vasprun.xml)
     E(ev)      X         Y         Z        XY        YZ        ZX
    0.000000  181.670716  181.669115  181.667047   14.052710  -48.381437   19.583371
    0.547509    4.196808    4.196537    4.196427   -0.633362    2.191165   -0.882877
    1.095017    1.694659    1.694230    1.694105   -0.073176    0.259811   -0.102045
    1.642526    8.882635    8.867885    8.863761   -0.018080    0.010467   -0.017502
    2.190035    1.588433    1.588700    1.588768   -0.010726    0.041041   -0.015190
    2.737543    9.964648    9.964654    9.964642   -0.005105    0.018164   -0.007124
    3.285052    4.173932    4.173805    4.173710   -0.003226    0.010795   -0.004394
    3.832561    6.506886    6.495350    6.488983   -0.014086    0.017052   -0.011033
    4.380069    9.124191    9.148012    9.154055    0.018399   -0.005605    0.011927
    4.927578    2.566530    2.566030    2.565927   -0.002270    0.006614   -0.002915
    5.475087    7.578398    7.578352    7.578343   -0.001919    0.006390   -0.002658
    6.022595    5.442845    5.442834    5.442833   -0.002806    0.009209   -0.003928
    6.570104    5.016283    5.016274    5.016275   -0.006651    0.020995   -0.009317
    7.117613    3.261686    3.261685    3.261689    0.022425   -0.067129    0.031524
    7.665121    2.242937    2.242668    2.242687   -0.003147    0.008522   -0.004379
    8.212630    3.100582    3.099977    3.099407   -0.002865    0.006867   -0.003521
    8.760139    1.890033    1.890023    1.890013   -0.000109    0.000137   -0.000144
    9.307647    0.658074    0.658075    0.658132   -0.000348    0.001005   -0.000559
    9.855156    0.953498    0.953385    0.953327   -0.000421    0.000959   -0.000534
   10.402665    0.958221    0.957949    0.957899   -0.000750    0.001789   -0.000961
   10.950173    0.458873    0.458869    0.458868   -0.000059    0.000118   -0.000085
   11.497682    0.155872    0.155872    0.155872   -0.000032    0.000060   -0.000046
   12.045190    0.291900    0.291899    0.291900   -0.000045    0.000106   -0.000064
   12.592699    0.186180    0.186180    0.186180    0.000023   -0.000099    0.000031
   13.140208    0.165645    0.165645    0.165645    0.000015   -0.000071    0.000020
   13.687716    0.186331    0.186331    0.186331    0.000020   -0.000083    0.000027
   14.235225    0.554628    0.554628    0.554627    0.000026   -0.000101    0.000035
   14.782734    0.311265    0.311266    0.311266    0.000041   -0.000145    0.000056
   15.330242    0.169181    0.169184    0.169184    0.000053   -0.000175    0.000072
   15.877751    0.246989    0.247044    0.247029    0.000078   -0.000162    0.000093
   16.425260    0.460774    0.460788    0.460813    0.000054   -0.000083    0.000054
   16.972768    0.251302    0.250814    0.250673   -0.000262   -0.000065   -0.000112
   17.520277    0.357625    0.357833    0.357916    0.000268   -0.000436    0.000258
   18.067786    0.454062    0.454282    0.454450    0.000638   -0.001500    0.000718
   18.615294    0.504576    0.503279    0.503116   -0.000864    0.000446   -0.000663
   19.162803    0.229664    0.229705    0.229709    0.000148   -0.000392    0.000189
   19.710312    0.066864    0.066868    0.066868    0.000062   -0.000200    0.000085
   20.257820    0.285407    0.285408    0.285408    0.000050   -0.000173    0.000069
   20.805329    0.066376    0.066376    0.066376    0.000050   -0.000171    0.000068
   21.352838    0.089825    0.089826    0.089825    0.000061   -0.000212    0.000085
   21.900346    0.008194    0.008194    0.008194    0.000077   -0.000267    0.000107
   22.447855    0.004705    0.004705    0.004705    0.000102   -0.000353    0.000142
   22.995364    0.003679    0.003678    0.003677    0.000150   -0.000522    0.000209
   23.542872    0.003641    0.003635    0.003629    0.000278   -0.000980    0.000393
   24.090381    0.018174    0.017708    0.017302    0.000210   -0.002130    0.000700
   24.637890    0.004264    0.004278    0.004291   -0.000368    0.001308   -0.000525
   25.185398    0.005400    0.005401    0.005402   -0.000195    0.000674   -0.000273
   25.732907    0.061907    0.061907    0.061907   -0.000143    0.000491   -0.000200
   26.280416    0.052883    0.052883    0.052883   -0.000127    0.000435   -0.000177
   26.827924    0.089858    0.089858    0.089858   -0.000133    0.000455   -0.000186
   27.375433    0.064757    0.064757    0.064757   -0.000220    0.000750   -0.000307
   27.922942    0.022298    0.022299    0.022299    0.000249   -0.000848    0.000347
   28.470450    0.031149    0.031149    0.031149    0.000052   -0.000176    0.000072
   29.017959    0.089971    0.089971    0.089971    0.000019   -0.000066    0.000027
   29.565468    0.072705    0.072695    0.072686   -0.000005    0.000000   -0.000002
   30.112976    0.039399    0.039413    0.039431    0.000034   -0.000046    0.000029
   30.660485    0.157835    0.157835    0.157835   -0.000009    0.000025   -0.000012
   31.207994    0.060427    0.060397    0.060381   -0.000025    0.000023   -0.000018
   31.755502    0.079410    0.079418    0.079423   -0.000001    0.000025   -0.000007
   32.303011    0.055151    0.055149    0.055149   -0.000008    0.000026   -0.000012
[...]
   46.538236    0.000591    0.000591    0.000591   -0.000002    0.000009   -0.000004
   47.085745    0.000396    0.000396    0.000396   -0.000002    0.000008   -0.000004
   47.633253    0.000297    0.000297    0.000297   -0.000002    0.000008   -0.000003
   48.180762    0.000235    0.000235    0.000235   -0.000002    0.000007   -0.000003
   48.728271    0.000193    0.000193    0.000193   -0.000002    0.000007   -0.000003
   49.275779    0.000163    0.000163    0.000163   -0.000002    0.000006   -0.000003
   49.823288    0.000139    0.000139    0.000139   -0.000002    0.000006   -0.000003
   50.370797    0.000121    0.000121    0.000121   -0.000002    0.000006   -0.000003
   50.918305    0.000106    0.000106    0.000106   -0.000002    0.000006   -0.000002
   51.465814    0.000094    0.000094    0.000094   -0.000002    0.000005   -0.000002
   52.013323    0.000084    0.000084    0.000084   -0.000002    0.000005   -0.000002
   52.560831    0.000075    0.000075    0.000075   -0.000001    0.000005   -0.000002
   53.108340    0.000068    0.000068    0.000068   -0.000001    0.000005   -0.000002
   53.655849    0.000061    0.000061    0.000061   -0.000001    0.000005   -0.000002
   54.203357    0.000056    0.000056    0.000056   -0.000001    0.000005   -0.000002

  frequency dependent      REAL DIELECTRIC FUNCTION (independent particle, no local field effects) current-current (2nd set in vasprun.xml)
     E(ev)        X           Y           Z          XY          YZ          ZX
    0.000000   28.481345   28.480522   28.479993   -3.106773   10.710652   -4.329874
    0.547509   -8.437862   -8.438121   -8.438028    0.146488   -0.507308    0.204443
    1.095017    4.871234    4.870280    4.870026    0.076996   -0.270123    0.107881
    1.642526    9.969416    9.973235    9.974287    0.083142   -0.374348    0.117183
    2.190035    5.199729    5.199280    5.199121    0.019262   -0.065588    0.027026
    2.737543    1.859196    1.859190    1.859123    0.012705   -0.043716    0.017743
    3.285052    6.331848    6.331685    6.331465    0.008980   -0.031384    0.012713
    3.832561    7.532106    7.536266    7.538166    0.009711   -0.022955    0.010745
    4.380069    7.796388    7.789978    7.788190    0.000675   -0.017437    0.004874
    4.927578    1.154200    1.155344    1.155590    0.005014   -0.014574    0.006359
    5.475087    1.056404    1.056610    1.056656    0.003505   -0.011545    0.004771
    6.022595    3.109712    3.109784    3.109806    0.003283   -0.011047    0.004537
    6.570104   -1.888884   -1.888864   -1.888845    0.005177   -0.016804    0.007227
    7.117613   -2.747713   -2.747624   -2.747600    0.002673   -0.009419    0.003662
    7.665121   -2.037895   -2.038052   -2.038000   -0.000001   -0.001172   -0.000015
    8.212630   -1.627102   -1.628399   -1.629438    0.000742   -0.005404    0.001998
    8.760139   -3.170039   -3.170011   -3.169972    0.001360   -0.004614    0.001869
    9.307647   -0.771974   -0.771969   -0.772069    0.000898   -0.003513    0.001335
    9.855156   -0.890173   -0.890091   -0.890060    0.001288   -0.004182    0.001757
   10.402665   -0.947367   -0.947294   -0.947277   -0.001046    0.002609   -0.001530
   10.950173   -0.739199   -0.739185   -0.739180    0.000785   -0.002718    0.001088
   11.497682   -0.235655   -0.235650   -0.235647    0.000747   -0.002574    0.001038
   12.045190   -0.147129   -0.147126   -0.147123    0.000698   -0.002401    0.000971
   12.592699   -0.056575   -0.056573   -0.056571    0.000642   -0.002209    0.000894
   13.140208    0.289523    0.289525    0.289526    0.000584   -0.002011    0.000813
   13.687716    0.457187    0.457190    0.457191    0.000539   -0.001854    0.000750
   14.235225    0.482830    0.482835    0.482838    0.000502   -0.001722    0.000698
   14.782734    0.397754    0.397760    0.397761    0.000462   -0.001581    0.000642
   15.330242    0.540755    0.540769    0.540769    0.000429   -0.001452    0.000592
   15.877751    0.824290    0.824355    0.824345    0.000413   -0.001329    0.000557
   16.425260    0.199779    0.199889    0.199898    0.000394   -0.001164    0.000504
   16.972768    0.204927    0.205073    0.205118    0.000700   -0.001749    0.000870
   17.520277    0.762408    0.762346    0.762339    0.000440   -0.001578    0.000643
   18.067786    0.329066    0.328616    0.328309   -0.000105   -0.000781    0.000157
   18.615294    0.529944    0.530253    0.530303   -0.000351    0.001268   -0.000585
   19.162803    0.154872    0.154783    0.154776    0.000276   -0.001087    0.000419
   19.710312    0.427780    0.427761    0.427760    0.000250   -0.000893    0.000356
   20.257820    0.371573    0.371565    0.371565    0.000248   -0.000858    0.000348
   20.805329    0.399485    0.399481    0.399481    0.000221   -0.000770    0.000309
   21.352838    0.500969    0.500966    0.500965    0.000216   -0.000750    0.000303
   21.900346    0.554510    0.554507    0.554506    0.000202   -0.000702    0.000283
   22.447855    0.607776    0.607772    0.607770    0.000187   -0.000656    0.000264
   22.995364    0.648078    0.648071    0.648066    0.000166   -0.000593    0.000237
   23.542872    0.683209    0.683189    0.683172    0.000105   -0.000423    0.000164
   24.090381    0.720269    0.720382    0.720481   -0.001007    0.003833   -0.001502
   24.637890    0.733590    0.733559    0.733532    0.000052   -0.000275    0.000100
   25.185398    0.768292    0.768285    0.768279    0.000134   -0.000482    0.000192
   25.732907    0.791048    0.791045    0.791042    0.000132   -0.000464    0.000186
   26.280416    0.790643    0.790642    0.790640    0.000140   -0.000485    0.000196
   26.827924    0.850402    0.850401    0.850401    0.000137   -0.000475    0.000192
   27.375433    0.750840    0.750840    0.750839    0.000171   -0.000589    0.000238
   27.922942    0.790437    0.790436    0.790436    0.000303   -0.001040    0.000423
   28.470450    0.851949    0.851949    0.851949    0.000134   -0.000463    0.000187
   29.017959    0.833499    0.833499    0.833498    0.000119   -0.000416    0.000168
   29.565468    0.852633    0.852613    0.852592    0.000092   -0.000384    0.000148
   30.112976    0.875533    0.875560    0.875592    0.000158   -0.000436    0.000187
   30.660485    0.871439    0.871435    0.871434    0.000101   -0.000356    0.000143
   31.207994    0.844474    0.844462    0.844456    0.000088   -0.000330    0.000129
   31.755502    0.823708    0.823696    0.823691    0.000082   -0.000308    0.000120
   32.303011    0.868660    0.868656    0.868657    0.000096   -0.000335    0.000135
[...]
   46.538236    0.890625    0.890625    0.890625    0.000046   -0.000159    0.000064
   47.085745    0.895740    0.895740    0.895740    0.000045   -0.000155    0.000063
   47.633253    0.899968    0.899968    0.899968    0.000044   -0.000152    0.000061
   48.180762    0.903655    0.903655    0.903655    0.000043   -0.000148    0.000060
   48.728271    0.906961    0.906961    0.906961    0.000042   -0.000145    0.000059
   49.275779    0.909976    0.909976    0.909976    0.000041   -0.000142    0.000057
   49.823288    0.912758    0.912758    0.912758    0.000040   -0.000139    0.000056
   50.370797    0.915347    0.915347    0.915347    0.000039   -0.000136    0.000055
   50.918305    0.917771    0.917771    0.917771    0.000039   -0.000133    0.000054
   51.465814    0.920052    0.920052    0.920052    0.000038   -0.000130    0.000053
   52.013323    0.922206    0.922206    0.922206    0.000037   -0.000127    0.000052
   52.560831    0.924248    0.924248    0.924248    0.000036   -0.000125    0.000050
   53.108340    0.926189    0.926189    0.926189    0.000035   -0.000122    0.000049
   53.655849    0.928037    0.928037    0.928037    0.000035   -0.000120    0.000048
   54.203357    0.929801    0.929801    0.929801    0.000034   -0.000117    0.000047

 The outermost node in the dielectric function lies at epsilon=  12.7

 Spin-Orbit-Coupling matrix elements

 Ion:    1  E_soc:    -33.0180586
 l=   1
     0.0000000    -5.0847675    -5.0847674
    -5.0847675     0.0000000    -5.0847675
    -5.0847674    -5.0847675     0.0000000
 l=   2
     0.0000000    -0.0836554     0.0000000    -0.0836554    -0.3345753
    -0.0836554     0.0000000    -0.2509315    -0.0836670    -0.0836554
     0.0000000    -0.2509315     0.0000000    -0.2509315     0.0000000
    -0.0836554    -0.0836670    -0.2509315     0.0000000    -0.0836554
    -0.3345753    -0.0836554     0.0000000    -0.0836554     0.0000000
 l=   3
     0.0000000     0.0000000     0.0000000     0.0000000     0.0000000     0.0000000     0.0000000
     0.0000000     0.0000000     0.0000000     0.0000000     0.0000000     0.0000000     0.0000000
     0.0000000     0.0000000     0.0000000     0.0000000     0.0000000     0.0000000     0.0000000
     0.0000000     0.0000000     0.0000000     0.0000000     0.0000000     0.0000000     0.0000000
     0.0000000     0.0000000     0.0000000     0.0000000     0.0000000     0.0000000     0.0000000
     0.0000000     0.0000000     0.0000000     0.0000000     0.0000000     0.0000000     0.0000000
     0.0000000     0.0000000     0.0000000     0.0000000     0.0000000     0.0000000     0.0000000