 vasp.5.4.4.18Apr17-6-g9f103f2a35 (build Jul 09 2018 16:43:14) complex

 executed on             LinuxIFC date 2018.11.21  22:27:48

 INCAR:
 POTCAR:    PAW_PBE Ne_GW 22Sep2014

 POTCAR:    PAW_PBE Ne_GW 22Sep2014
   VRHFIN =Ne: s2p6

   TITEL  = PAW_PBE Ne_GW 22Sep2014
   POMASS =   20.180; ZVAL   =    8.000    mass and valenz
   ENMAX  =  432.275; ENMIN  =  324.206 eV

  PAW_PBE Ne_GW 22Sep2014               :

 POSCAR: Ne_FCC
  positions in direct lattice
  velocities in cartesian coordinates
 exchange correlation table for  LEXCH =        8
   RHO(1)=    0.500       N(1)  =     2000
   RHO(2)=  100.500       N(2)  =     4000

 ion  position               nearest neighbor table
   1  0.000  0.000  0.000-

IMPORTANT INFORMATION: All symmetrisations will be switched off!
NOSYMM: (Re-)initialisation of all symmetry stuff for point group C_1.

 KPOINTS: k-points

Automatic generation of k-mesh.
Space group operators:
 irot       det(A)        alpha          n_x          n_y          n_z        tau_x        tau_y        tau_z
    1     1.000000     0.000000     1.000000     0.000000     0.000000     0.000000     0.000000     0.000000

 Subroutine IBZKPT returns following result:

 Found    216 irreducible k-points:

 Following reciprocal coordinates:
            Coordinates               Weight
  0.000000  0.000000  0.000000      1.000000
  0.166667  0.000000  0.000000      1.000000
  0.333333 -0.000000  0.000000      1.000000
  0.500000  0.000000 -0.000000      1.000000
 -0.333333  0.000000  0.000000      1.000000
 -0.166667  0.000000 -0.000000      1.000000
  0.000000  0.166667  0.000000      1.000000
  0.166667  0.166667  0.000000      1.000000
  0.333333  0.166667  0.000000      1.000000
  0.500000  0.166667  0.000000      1.000000
 -0.333333  0.166667 -0.000000      1.000000
 -0.166667  0.166667 -0.000000      1.000000
  0.000000  0.333333  0.000000      1.000000
  0.166667  0.333333  0.000000      1.000000
  0.333333  0.333333  0.000000      1.000000
  0.500000  0.333333  0.000000      1.000000
 -0.333333  0.333333 -0.000000      1.000000
 -0.166667  0.333333  0.000000      1.000000
  0.000000  0.500000  0.000000      1.000000
  0.166667  0.500000  0.000000      1.000000
  0.333333  0.500000  0.000000      1.000000
  0.500000  0.500000  0.000000      1.000000
 -0.333333  0.500000  0.000000      1.000000
 -0.166667  0.500000  0.000000      1.000000
  0.000000 -0.333333 -0.000000      1.000000
  0.166667 -0.333333 -0.000000      1.000000
  0.333333 -0.333333  0.000000      1.000000
  0.500000 -0.333333  0.000000      1.000000
 -0.333333 -0.333333 -0.000000      1.000000
 -0.166667 -0.333333 -0.000000      1.000000
  0.000000 -0.166667 -0.000000      1.000000
  0.166667 -0.166667  0.000000      1.000000
  0.333333 -0.166667  0.000000      1.000000
  0.500000 -0.166667  0.000000      1.000000
 -0.333333 -0.166667 -0.000000      1.000000
 -0.166667 -0.166667 -0.000000      1.000000
  0.000000  0.000000  0.166667      1.000000
  0.166667  0.000000  0.166667      1.000000
  0.333333 -0.000000  0.166667      1.000000
  0.500000  0.000000  0.166667      1.000000
 -0.333333  0.000000  0.166667      1.000000
 -0.166667  0.000000  0.166667      1.000000
  0.000000  0.166667  0.166667      1.000000
  0.166667  0.166667  0.166667      1.000000
  0.333333  0.166667  0.166667      1.000000
  0.500000  0.166667  0.166667      1.000000
 -0.333333  0.166667  0.166667      1.000000
 -0.166667  0.166667  0.166667      1.000000
  0.000000  0.333333  0.166667      1.000000
  0.166667  0.333333  0.166667      1.000000
  0.333333  0.333333  0.166667      1.000000
  0.500000  0.333333  0.166667      1.000000
 -0.333333  0.333333  0.166667      1.000000
 -0.166667  0.333333  0.166667      1.000000
  0.000000  0.500000  0.166667      1.000000
  0.166667  0.500000  0.166667      1.000000
  0.333333  0.500000  0.166667      1.000000
  0.500000  0.500000  0.166667      1.000000
 -0.333333  0.500000  0.166667      1.000000
 -0.166667  0.500000  0.166667      1.000000
[...]
  0.500000  0.500000 -0.166667      1.000000
 -0.333333  0.500000 -0.166667      1.000000
 -0.166667  0.500000 -0.166667      1.000000
  0.000000 -0.333333 -0.166667      1.000000
  0.166667 -0.333333 -0.166667      1.000000
  0.333333 -0.333333 -0.166667      1.000000
  0.500000 -0.333333 -0.166667      1.000000
 -0.333333 -0.333333 -0.166667      1.000000
 -0.166667 -0.333333 -0.166667      1.000000
  0.000000 -0.166667 -0.166667      1.000000
  0.166667 -0.166667 -0.166667      1.000000
  0.333333 -0.166667 -0.166667      1.000000
  0.500000 -0.166667 -0.166667      1.000000
 -0.333333 -0.166667 -0.166667      1.000000
 -0.166667 -0.166667 -0.166667      1.000000

 Following cartesian coordinates:
            Coordinates               Weight
  0.000000  0.000000  0.000000      1.000000
  0.056037 -0.032353 -0.022877      1.000000
  0.112074 -0.064706 -0.045754      1.000000
  0.168111 -0.097059 -0.068631      1.000000
 -0.112074  0.064706  0.045754      1.000000
 -0.056037  0.032353  0.022877      1.000000
  0.000000  0.064706 -0.022877      1.000000
  0.056037  0.032353 -0.045754      1.000000
  0.112074  0.000000 -0.068631      1.000000
  0.168111 -0.032353 -0.091508      1.000000
 -0.112074  0.129412  0.022877      1.000000
 -0.056037  0.097059  0.000000      1.000000
  0.000000  0.129412 -0.045754      1.000000
  0.056037  0.097059 -0.068631      1.000000
  0.112074  0.064706 -0.091508      1.000000
  0.168111  0.032353 -0.114385      1.000000
 -0.112074  0.194118  0.000000      1.000000
 -0.056037  0.161765 -0.022877      1.000000
  0.000000  0.194118 -0.068631      1.000000
  0.056037  0.161765 -0.091508      1.000000
  0.112074  0.129412 -0.114385      1.000000
  0.168111  0.097059 -0.137262      1.000000
 -0.112074  0.258824 -0.022877      1.000000
 -0.056037  0.226471 -0.045754      1.000000
  0.000000 -0.129412  0.045754      1.000000
  0.056037 -0.161765  0.022877      1.000000
  0.112074 -0.194118 -0.000000      1.000000
  0.168111 -0.226471 -0.022877      1.000000
 -0.112074 -0.064706  0.091508      1.000000
 -0.056037 -0.097059  0.068631      1.000000
  0.000000 -0.064706  0.022877      1.000000
  0.056037 -0.097059 -0.000000      1.000000
  0.112074 -0.129412 -0.022877      1.000000
  0.168111 -0.161765 -0.045754      1.000000
 -0.112074 -0.000000  0.068631      1.000000
 -0.056037 -0.032353  0.045754      1.000000
  0.000000  0.000000  0.068631      1.000000
  0.056037 -0.032353  0.045754      1.000000
  0.112074 -0.064706  0.022877      1.000000
  0.168111 -0.097059 -0.000000      1.000000
 -0.112074  0.064706  0.114385      1.000000
 -0.056037  0.032353  0.091508      1.000000
  0.000000  0.064706  0.045754      1.000000
  0.056037  0.032353  0.022877      1.000000
  0.112074  0.000000  0.000000      1.000000
  0.168111 -0.032353 -0.022877      1.000000
 -0.112074  0.129412  0.091508      1.000000
 -0.056037  0.097059  0.068631      1.000000
  0.000000  0.129412  0.022877      1.000000
  0.056037  0.097059  0.000000      1.000000
  0.112074  0.064706 -0.022877      1.000000
  0.168111  0.032353 -0.045754      1.000000
 -0.112074  0.194118  0.068631      1.000000
 -0.056037  0.161765  0.045754      1.000000
  0.000000  0.194118  0.000000      1.000000
  0.056037  0.161765 -0.022877      1.000000
  0.112074  0.129412 -0.045754      1.000000
  0.168111  0.097059 -0.068631      1.000000
 -0.112074  0.258824  0.045754      1.000000
 -0.056037  0.226471  0.022877      1.000000
[...]
  0.168111  0.097059 -0.205893      1.000000
 -0.112074  0.258824 -0.091508      1.000000
 -0.056037  0.226471 -0.114385      1.000000
  0.000000 -0.129412 -0.022877      1.000000
  0.056037 -0.161765 -0.045754      1.000000
  0.112074 -0.194118 -0.068631      1.000000
  0.168111 -0.226471 -0.091508      1.000000
 -0.112074 -0.064706  0.022877      1.000000
 -0.056037 -0.097059 -0.000000      1.000000
  0.000000 -0.064706 -0.045754      1.000000
  0.056037 -0.097059 -0.068631      1.000000
  0.112074 -0.129412 -0.091508      1.000000
  0.168111 -0.161765 -0.114385      1.000000
 -0.112074 -0.000000  0.000000      1.000000
 -0.056037 -0.032353 -0.022877      1.000000

 SYSTEM =  Og_FCC
 POSCAR =  Ne_FCC

 Startparameter for this run:
   NWRITE =      2    write-flag & timer
   PREC   = accura    normal or accurate (medium, high low for compatibility)
   ISTART =      1    job   : 0-new  1-cont  2-samecut
   ICHARG =      0    charge: 1-file 2-atom 10-const
   ISPIN  =      1    spin polarized calculation?
   LNONCOLLINEAR =      T non collinear calculations
   LSORBIT =      T    spin-orbit coupling
   INIWAV =      1    electr: 0-lowe 1-rand  2-diag
   LASPH  =      F    aspherical Exc in radial PAW
   METAGGA=      F    non-selfconsistent MetaGGA calc.

 Electronic Relaxation 1
   ENCUT  =  300.0 eV  22.05 Ry    4.70 a.u.   4.20  4.20  4.20*2*pi/ulx,y,z
   ENINI  =  300.0     initial cutoff
   ENAUG  =  755.8 eV  augmentation charge cutoff
   NELM   =     50;   NELMIN=  2; NELMDL= -5     # of ELM steps
   EDIFF  = 0.1E-07   stopping-criterion for ELM
   LREAL  =      F    real-space projection
   NLSPLINE    = F    spline interpolate recip. space projectors
   LCOMPAT=      F    compatible to vasp.4.4
   GGA_COMPAT  = F    GGA compatible to vasp.4.4-vasp.4.6
   LMAXPAW     = -100 max onsite density
   LMAXMIX     =    2 max onsite mixed and CHGCAR
   VOSKOWN=      0    Vosko Wilk Nusair interpolation
   ROPT   =    0.00000
 Ionic relaxation
   EDIFFG = 0.1E-04   stopping-criterion for IOM
   NSW    =      1    number of steps for IOM
   NBLOCK =      1;   KBLOCK =      1    inner block; outer block
   IBRION =     -1    ionic relax: 0-MD 1-quasi-New 2-CG
   NFREE  =      5    steps in history (QN), initial steepest desc. (CG)
   ISIF   =      3    stress and relaxation
   IWAVPR =     10    prediction:  0-non 1-charg 2-wave 3-comb
   ISYM   =      0    0-nonsym 1-usesym 2-fastsym
   LCORR  =      T    Harris-Foulkes like correction to forces

   POTIM  = 0.1000    time-step for ionic-motion
   TEIN   =    0.0    initial temperature
   TEBEG  =    0.0;   TEEND  =   0.0 temperature during run
   SMASS  =  -3.00    Nose mass-parameter (am)
   estimated Nose-frequenzy (Omega)   =  0.10E-29 period in steps =****** mass=  -0.202E-27a.u.
   SCALEE = 1.0000    scale energy and forces
   NPACO  =    256;   APACO  = 16.0  distance and # of slots for P.C.
   PSTRESS=    0.0 pullay stress

  Mass of Ions in am
   POMASS =  20.18
  Ionic Valenz
   ZVAL   =   8.00
  Atomic Wigner-Seitz radii
  virtual crystal weights
   VCA    =   1.00
   NELECT =       8.0000    total number of electrons
   NUPDOWN=      -1.0000    fix difference up-down

 DOS related values:
   EMIN   =  10.00;   EMAX   =-10.00  energy-range for DOS
   EFERMI =   0.00
   ISMEAR =     0;   SIGMA  =   0.00  broadening in eV -4-tet -1-fermi 0-gaus

 Electronic relaxation 2 (details)
   IALGO  =     38    algorithm
   LDIAG  =      T    sub-space diagonalisation (order eigenvalues)
   LSUBROT=      F    optimize rotation matrix (better conditioning)
   TURBO    =      0    0=normal 1=particle mesh
   IRESTART =      0    0=no restart 2=restart with 2 vectors
   NREBOOT  =      0    no. of reboots
[...]
   37.292200    0.833803    0.834207    0.833099    0.000477    0.000187    0.000065
   38.053265    0.646277    0.647071    0.646793   -0.000507   -0.000181   -0.000092
   38.814331    0.736775    0.737417    0.736999   -0.000237    0.000173   -0.000153
   39.575396    0.722117    0.722500    0.722201   -0.000129    0.000099   -0.000117
   40.336461    0.795760    0.796056    0.795808   -0.000094    0.000081   -0.000098
   41.097526    0.825707    0.825949    0.825738   -0.000074    0.000068   -0.000083
   41.858592    0.847544    0.847750    0.847566   -0.000060    0.000059   -0.000072
   42.619657    0.853902    0.854080    0.853918   -0.000050    0.000052   -0.000063
   43.380722    0.877391    0.877548    0.877402   -0.000043    0.000046   -0.000056
   44.141788    0.880964    0.881104    0.880973   -0.000037    0.000042   -0.000050
   44.902853    0.882017    0.882143    0.882024   -0.000033    0.000038   -0.000046
[...]
   64.690551    0.956240    0.956295    0.956257   -0.000026    0.000010   -0.000014
   65.451616    0.957902    0.957952    0.957917   -0.000022    0.000010   -0.000013
   66.212681    0.959369    0.959414    0.959381   -0.000020    0.000010   -0.000012
   66.973747    0.960701    0.960743    0.960712   -0.000018    0.000010   -0.000012
   67.734812    0.961931    0.961970    0.961941   -0.000016    0.000009   -0.000011
   68.495877    0.963078    0.963115    0.963087   -0.000015    0.000009   -0.000011
   69.256943    0.964155    0.964190    0.964163   -0.000014    0.000009   -0.000010
   70.018008    0.965171    0.965205    0.965178   -0.000013    0.000008   -0.000010
   70.779073    0.966133    0.966166    0.966140   -0.000012    0.000008   -0.000010
   71.540139    0.967048    0.967078    0.967054   -0.000012    0.000008   -0.000009
   72.301204    0.967918    0.967948    0.967924   -0.000011    0.000008   -0.000009
   73.062269    0.968748    0.968777    0.968754   -0.000011    0.000007   -0.000009
   73.823335    0.969541    0.969569    0.969547   -0.000010    0.000007   -0.000008
   74.584400    0.970300    0.970327    0.970305   -0.000010    0.000007   -0.000008
   75.345465    0.971028    0.971054    0.971032   -0.000009    0.000007   -0.000008

  frequency dependent IMAGINARY DIELECTRIC FUNCTION (independent particle, no local field effects) current-current (2nd set in vasprun.xml)
     E(ev)      X         Y         Z        XY        YZ        ZX
    0.000000    0.651873    0.651678    0.651864   -0.008226   -0.004659   -0.001627
    0.761065    0.065382    0.065363    0.065381   -0.000823   -0.000466   -0.000163
    1.522131    0.032990    0.032980    0.032990   -0.000412   -0.000233   -0.000081
    2.283196    0.022334    0.022328    0.022334   -0.000275   -0.000156   -0.000054
    3.044261    0.017123    0.017118    0.017122   -0.000207   -0.000117   -0.000041
    3.805327    0.014102    0.014098    0.014102   -0.000166   -0.000094   -0.000033
    4.566392    0.012193    0.012189    0.012192   -0.000139   -0.000079   -0.000027
    5.327457    0.010939    0.010936    0.010939   -0.000120   -0.000068   -0.000023
    6.088522    0.010122    0.010119    0.010121   -0.000106   -0.000060   -0.000021
    6.849588    0.009633    0.009630    0.009633   -0.000095   -0.000054   -0.000018
    7.610653    0.009429    0.009426    0.009428   -0.000086   -0.000049   -0.000017
    8.371718    0.009520    0.009518    0.009520   -0.000079   -0.000045   -0.000015
    9.132784    0.009994    0.009992    0.009994   -0.000073   -0.000041   -0.000014
    9.893849    0.011110    0.011109    0.011110   -0.000068   -0.000039   -0.000013
   10.654914    0.013757    0.013755    0.013757   -0.000064   -0.000036   -0.000012
   11.415980    0.024171    0.024170    0.024171   -0.000061   -0.000034   -0.000011
   12.177045    0.092237    0.092235    0.092237   -0.000057   -0.000033   -0.000011
   12.938110    0.347027    0.347026    0.347026   -0.000055   -0.000031   -0.000010
   13.699175    0.073980    0.073978    0.073980   -0.000053   -0.000030   -0.000009
   14.460241    0.141438    0.141436    0.141437   -0.000051   -0.000029   -0.000008
   15.221306    0.571499    0.571496    0.571496   -0.000048   -0.000028   -0.000008
   15.982371    0.121743    0.121741    0.121742   -0.000048   -0.000027   -0.000008
   16.743437    0.500700    0.500698    0.500698   -0.000047   -0.000027   -0.000008
   17.504502    0.170692    0.170692    0.170693   -0.000047   -0.000027   -0.000009
   18.265567    0.155527    0.155525    0.155526   -0.000045   -0.000026   -0.000007
   19.026633    0.143078    0.143077    0.143079   -0.000045   -0.000026   -0.000007
   19.787698    0.445703    0.445701    0.445702   -0.000043   -0.000025   -0.000006
   20.548763    0.489508    0.489505    0.489506   -0.000043   -0.000025   -0.000006
   21.309829    0.294918    0.294916    0.294917   -0.000044   -0.000025   -0.000006
   22.070894    0.228997    0.228996    0.228997   -0.000044   -0.000025   -0.000006
   22.831959    0.480573    0.480571    0.480573   -0.000045   -0.000026   -0.000006
   23.593024    1.241894    1.241894    1.241895   -0.000046   -0.000027   -0.000006
   24.354090    0.712675    0.712673    0.712675   -0.000046   -0.000027   -0.000005
   25.115155    0.306683    0.306682    0.306683   -0.000047   -0.000028   -0.000005
   25.876220    0.408046    0.408043    0.408045   -0.000047   -0.000029   -0.000004
   26.637286    0.185514    0.185511    0.185514   -0.000048   -0.000030   -0.000003
   27.398351    0.413288    0.413292    0.413295   -0.000052   -0.000031   -0.000006
   28.159416    0.380995    0.380991    0.380994   -0.000052   -0.000034   -0.000001
   28.920482    0.076827    0.076823    0.076827   -0.000055   -0.000036    0.000000
   29.681547    0.730525    0.730521    0.730526   -0.000059   -0.000040    0.000002
   30.442612    0.632284    0.632276    0.632279   -0.000061   -0.000044    0.000006
   31.203677    0.369164    0.369156    0.369162   -0.000068   -0.000051    0.000010
   31.964743    0.207354    0.207354    0.207403   -0.000082   -0.000065    0.000013
   32.725808    0.295841    0.295826    0.295843   -0.000086   -0.000076    0.000031
   33.486873    0.372654    0.372627    0.372656   -0.000098   -0.000102    0.000059
   34.247939    0.054763    0.054697    0.054766   -0.000109   -0.000158    0.000138
   35.009004    0.102329    0.101571    0.102497    0.000008   -0.000381    0.000686
   35.770069    0.336762    0.325778    0.341961    0.002292   -0.001053    0.003905
   36.531135    0.091239    0.090988    0.091192    0.000132    0.001305   -0.000797
   37.292200    0.213031    0.212922    0.212939   -0.000212    0.001289   -0.000903
   38.053265    0.144820    0.144661    0.144636    0.000610   -0.000647    0.000942
   38.814331    0.039366    0.039230    0.039292    0.000124   -0.000137    0.000143
   39.575396    0.068525    0.068511    0.068518    0.000107   -0.000045    0.000105
   40.336461    0.006510    0.006503    0.006507    0.000080   -0.000021    0.000067
   41.097526    0.013530    0.013526    0.013529    0.000063   -0.000011    0.000047
   41.858592    0.003841    0.003838    0.003841    0.000051   -0.000006    0.000036
   42.619657    0.010422    0.010419    0.010421    0.000043   -0.000004    0.000028
   43.380722    0.007636    0.007635    0.007636    0.000037   -0.000003    0.000022
   44.141788    0.003012    0.003010    0.003011    0.000032   -0.000002    0.000019
   44.902853    0.009509    0.009508    0.009509    0.000028   -0.000002    0.000016
[...]
   64.690551    0.000101    0.000100    0.000101    0.000009    0.000013    0.000004
   65.451616    0.000075    0.000075    0.000075    0.000008    0.000011    0.000003
   66.212681    0.000060    0.000060    0.000060    0.000007    0.000009    0.000002
   66.973747    0.000050    0.000050    0.000050    0.000006    0.000008    0.000002
   67.734812    0.000043    0.000043    0.000043    0.000006    0.000007    0.000002
   68.495877    0.000038    0.000038    0.000038    0.000005    0.000006    0.000002
   69.256943    0.000034    0.000034    0.000034    0.000005    0.000006    0.000002
   70.018008    0.000030    0.000030    0.000030    0.000005    0.000005    0.000001
   70.779073    0.000027    0.000027    0.000027    0.000004    0.000005    0.000001
   71.540139    0.000025    0.000025    0.000025    0.000004    0.000004    0.000001
   72.301204    0.000023    0.000023    0.000023    0.000004    0.000004    0.000001
   73.062269    0.000021    0.000021    0.000021    0.000004    0.000004    0.000001
   73.823335    0.000019    0.000019    0.000019    0.000003    0.000004    0.000001
   74.584400    0.000018    0.000018    0.000018    0.000003    0.000003    0.000001
   75.345465    0.000017    0.000017    0.000017    0.000003    0.000003    0.000001

  frequency dependent      REAL DIELECTRIC FUNCTION (independent particle, no local field effects) current-current (2nd set in vasprun.xml)
     E(ev)        X           Y           Z          XY          YZ          ZX
    0.000000    1.248029    1.247955    1.248026    0.000019   -0.000022    0.000026
    0.761065    1.248400    1.248326    1.248396    0.000019   -0.000022    0.000026
    1.522131    1.249531    1.249457    1.249527    0.000019   -0.000023    0.000026
    2.283196    1.251449    1.251374    1.251445    0.000019   -0.000023    0.000026
    3.044261    1.254204    1.254129    1.254200    0.000019   -0.000023    0.000026
    3.805327    1.257874    1.257799    1.257870    0.000019   -0.000023    0.000026
    4.566392    1.262570    1.262495    1.262566    0.000019   -0.000023    0.000026
    5.327457    1.268449    1.268373    1.268445    0.000019   -0.000023    0.000027
    6.088522    1.275734    1.275657    1.275730    0.000020   -0.000023    0.000027
    6.849588    1.284745    1.284669    1.284742    0.000020   -0.000023    0.000027
    7.610653    1.295965    1.295888    1.295961    0.000020   -0.000024    0.000027
    8.371718    1.310152    1.310073    1.310148    0.000020   -0.000024    0.000028
    9.132784    1.328601    1.328522    1.328597    0.000020   -0.000024    0.000028
    9.893849    1.353810    1.353730    1.353806    0.000021   -0.000024    0.000028
   10.654914    1.391709    1.391628    1.391705    0.000021   -0.000025    0.000029
   11.415980    1.464795    1.464713    1.464791    0.000021   -0.000025    0.000029
   12.177045    1.571214    1.571131    1.571210    0.000021   -0.000025    0.000029
   12.938110    1.578219    1.578134    1.578214    0.000022   -0.000026    0.000030
   13.699175    1.427855    1.427769    1.427852    0.000022   -0.000026    0.000030
   14.460241    1.367945    1.367857    1.367941    0.000023   -0.000027    0.000031
   15.221306    0.963490    0.963400    0.963488    0.000023   -0.000028    0.000032
   15.982371    1.357351    1.357259    1.357348    0.000023   -0.000028    0.000032
   16.743437    1.544155    1.544061    1.544151    0.000024   -0.000028    0.000033
   17.504502    1.205181    1.205086    1.205179    0.000023   -0.000030    0.000033
   18.265567    1.375279    1.375181    1.375277    0.000024   -0.000031    0.000034
   19.026633    1.187160    1.187059    1.187159    0.000024   -0.000032    0.000035
   19.787698    1.531129    1.531024    1.531126    0.000025   -0.000033    0.000037
   20.548763    1.194584    1.194475    1.194581    0.000026   -0.000034    0.000038
   21.309829    1.189209    1.189097    1.189207    0.000027   -0.000035    0.000039
   22.070894    1.417098    1.416982    1.417096    0.000028   -0.000036    0.000041
   22.831959    1.241814    1.241692    1.241811    0.000030   -0.000038    0.000043
   23.593024    1.070527    1.070397    1.070522    0.000032   -0.000039    0.000046
   24.354090    0.812460    0.812326    0.812459    0.000032   -0.000042    0.000048
   25.115155    0.905867    0.905725    0.905865    0.000033   -0.000045    0.000050
   25.876220    1.109905    1.109754    1.109904    0.000035   -0.000047    0.000054
   26.637286    0.895058    0.894896    0.895055    0.000037   -0.000051    0.000057
   27.398351    1.040154    1.039980    1.040152    0.000039   -0.000055    0.000062
   28.159416    0.922770    0.922581    0.922769    0.000042   -0.000059    0.000067
   28.920482    0.980957    0.980750    0.980956    0.000045   -0.000065    0.000073
   29.681547    1.183926    1.183698    1.183927    0.000049   -0.000073    0.000081
   30.442612    0.812000    0.811739    0.811995    0.000056   -0.000081    0.000093
   31.203677    0.611920    0.611622    0.611915    0.000061   -0.000094    0.000106
   31.964743    0.644809    0.644450    0.644782    0.000072   -0.000109    0.000127
   32.725808    0.754312    0.753880    0.754321    0.000076   -0.000140    0.000152
   33.486873    0.601899    0.601328    0.601916    0.000088   -0.000187    0.000198
   34.247939    0.785011    0.784150    0.785046    0.000090   -0.000291    0.000283
   35.009004    0.916241    0.914099    0.916363   -0.000224   -0.000671    0.000385
   35.770069    0.876784    0.876502    0.877382    0.004572    0.002438   -0.000865
   36.531135    0.732971    0.734272    0.732401   -0.000451    0.003065   -0.000691
   37.292200    0.832734    0.833138    0.832032    0.000478    0.000181    0.000071
   38.053265    0.645317    0.646111    0.645830   -0.000510   -0.000177   -0.000097
   38.814331    0.736482    0.737124    0.736704   -0.000237    0.000174   -0.000154
   39.575396    0.721622    0.722005    0.721705   -0.000129    0.000099   -0.000118
   40.336461    0.795640    0.795936    0.795687   -0.000094    0.000081   -0.000098
   41.097526    0.825566    0.825809    0.825596   -0.000074    0.000068   -0.000083
   41.858592    0.847454    0.847659    0.847475   -0.000060    0.000059   -0.000072
   42.619657    0.853791    0.853970    0.853807   -0.000051    0.000052   -0.000063
   43.380722    0.877301    0.877458    0.877313   -0.000043    0.000046   -0.000056
   44.141788    0.880898    0.881038    0.880907   -0.000038    0.000042   -0.000051
   44.902853    0.881930    0.882056    0.881937   -0.000033    0.000038   -0.000046
[...]
   64.690551    0.956223    0.956279    0.956241   -0.000026    0.000010   -0.000014
   65.451616    0.957886    0.957936    0.957901   -0.000022    0.000010   -0.000013
   66.212681    0.959353    0.959399    0.959366   -0.000020    0.000010   -0.000012
   66.973747    0.960686    0.960728    0.960697   -0.000018    0.000010   -0.000012
   67.734812    0.961916    0.961956    0.961926   -0.000016    0.000009   -0.000011
   68.495877    0.963064    0.963101    0.963072   -0.000015    0.000009   -0.000011
   69.256943    0.964141    0.964176    0.964149   -0.000014    0.000009   -0.000010
   70.018008    0.965158    0.965191    0.965165   -0.000013    0.000008   -0.000010
   70.779073    0.966120    0.966153    0.966127   -0.000012    0.000008   -0.000010
   71.540139    0.967035    0.967066    0.967041   -0.000012    0.000008   -0.000009
   72.301204    0.967905    0.967935    0.967911   -0.000011    0.000008   -0.000009
   73.062269    0.968736    0.968765    0.968741   -0.000011    0.000007   -0.000009
   73.823335    0.969530    0.969557    0.969535   -0.000010    0.000007   -0.000008
   74.584400    0.970289    0.970316    0.970294   -0.000010    0.000007   -0.000008
   75.345465    0.971017    0.971042    0.971021   -0.000009    0.000007   -0.000008

 The outermost node in the dielectric function lies at epsilon=  -1.0

 Spin-Orbit-Coupling matrix elements

 Ion:    1  E_soc:     -0.0005837
 l=   1
     0.0000000    -0.0000973    -0.0000973
    -0.0000973     0.0000000    -0.0000973
    -0.0000973    -0.0000973     0.0000000
 l=   2
     0.0000000    -0.0000000     0.0000000    -0.0000000    -0.0000000
    -0.0000000     0.0000000    -0.0000000    -0.0000000    -0.0000000
     0.0000000    -0.0000000     0.0000000    -0.0000000     0.0000000
    -0.0000000    -0.0000000    -0.0000000     0.0000000    -0.0000000
    -0.0000000    -0.0000000     0.0000000    -0.0000000     0.0000000
 l=   3
     0.0000000     0.0000000     0.0000000     0.0000000     0.0000000     0.0000000     0.0000000
     0.0000000     0.0000000     0.0000000     0.0000000     0.0000000     0.0000000     0.0000000
     0.0000000     0.0000000     0.0000000     0.0000000     0.0000000     0.0000000     0.0000000
     0.0000000     0.0000000     0.0000000     0.0000000     0.0000000     0.0000000     0.0000000
     0.0000000     0.0000000     0.0000000     0.0000000     0.0000000     0.0000000     0.0000000
     0.0000000     0.0000000     0.0000000     0.0000000     0.0000000     0.0000000     0.0000000
     0.0000000     0.0000000     0.0000000     0.0000000     0.0000000     0.0000000     0.0000000