 vasp.5.4.4.18Apr17-6-g9f103f2a35 (build Nov 03 2018 10:20:46) complex

 executed on             LinuxIFC date 2018.12.06  11:53:17

 INCAR:
 POTCAR:    PAW_PBE Rn_d_GW 14Apr2014

 POTCAR:    PAW_PBE Rn_d_GW 14Apr2014
   VRHFIN =Rn:

   TITEL  = PAW_PBE Rn_d_GW 14Apr2014
   POMASS =  220.170; ZVAL   =   18.000    mass and valenz
   ENMAX  =  268.495; ENMIN  =  201.371 eV

  PAW_PBE Rn_d_GW 14Apr2014             :

 POSCAR: Rn_FCC
  positions in direct lattice
  velocities in cartesian coordinates

 METAGGA = SCAN     LMAXTAU =  0    LMIXTAU =  F

 ion  position               nearest neighbor table
   1  0.000  0.000  0.000-

IMPORTANT INFORMATION: All symmetrisations will be switched off!
NOSYMM: (Re-)initialisation of all symmetry stuff for point group C_1.

 KPOINTS: Automatically generated mesh + R-points
  k-points in reciprocal lattice
Space group operators:
 irot       det(A)        alpha          n_x          n_y          n_z        tau_x        tau_y        tau_z
    1     1.000000     0.000000     1.000000     0.000000     0.000000     0.000000     0.000000     0.000000

 SYSTEM =  Rn_FCC
 POSCAR =  Rn_FCC

 Startparameter for this run:
   NWRITE =      2    write-flag & timer
   PREC   = accura    normal or accurate (medium, high low for compatibility)
   ISTART =      1    job   : 0-new  1-cont  2-samecut
   ICHARG =      0    charge: 1-file 2-atom 10-const
   ISPIN  =      1    spin polarized calculation?
   LNONCOLLINEAR =      F non collinear calculations
   LSORBIT =      F    spin-orbit coupling
   INIWAV =      1    electr: 0-lowe 1-rand  2-diag
   LASPH  =      F    aspherical Exc in radial PAW
   METAGGA=      F    non-selfconsistent MetaGGA calc.

 Electronic Relaxation 1
   ENCUT  =  300.0 eV  22.05 Ry    4.70 a.u.   6.38  6.38  6.38*2*pi/ulx,y,z
   ENINI  =  300.0     initial cutoff
   ENAUG  =  715.6 eV  augmentation charge cutoff
   NELM   =     50;   NELMIN=  2; NELMDL= -5     # of ELM steps
   EDIFF  = 0.1E-07   stopping-criterion for ELM
   LREAL  =      F    real-space projection
   NLSPLINE    = F    spline interpolate recip. space projectors
   LCOMPAT=      F    compatible to vasp.4.4
   GGA_COMPAT  = F    GGA compatible to vasp.4.4-vasp.4.6
   LMAXPAW     = -100 max onsite density
   LMAXMIX     =    2 max onsite mixed and CHGCAR
   VOSKOWN=      0    Vosko Wilk Nusair interpolation
   ROPT   =    0.00000
 Ionic relaxation
   EDIFFG = 0.1E-04   stopping-criterion for IOM
   NSW    =      1    number of steps for IOM
   NBLOCK =      1;   KBLOCK =      1    inner block; outer block
   IBRION =     -1    ionic relax: 0-MD 1-quasi-New 2-CG
   NFREE  =      5    steps in history (QN), initial steepest desc. (CG)
   ISIF   =      3    stress and relaxation
   IWAVPR =     10    prediction:  0-non 1-charg 2-wave 3-comb
   ISYM   =      0    0-nonsym 1-usesym 2-fastsym
   LCORR  =      T    Harris-Foulkes like correction to forces

   POTIM  = 0.1000    time-step for ionic-motion
   TEIN   =    0.0    initial temperature
   TEBEG  =    0.0;   TEEND  =   0.0 temperature during run
   SMASS  =  -3.00    Nose mass-parameter (am)
   estimated Nose-frequenzy (Omega)   =  0.10E-29 period in steps =****** mass=  -0.467E-27a.u.
   SCALEE = 1.0000    scale energy and forces
   NPACO  =    256;   APACO  = 16.0  distance and # of slots for P.C.
   PSTRESS=    0.0 pullay stress

  Mass of Ions in am
   POMASS = 220.17
  Ionic Valenz
   ZVAL   =  18.00
  Atomic Wigner-Seitz radii
  virtual crystal weights
   VCA    =   1.00
   NELECT =      18.0000    total number of electrons
   NUPDOWN=      -1.0000    fix difference up-down

 DOS related values:
   EMIN   =  10.00;   EMAX   =-10.00  energy-range for DOS
   EFERMI =   0.00
   ISMEAR =     0;   SIGMA  =   0.05  broadening in eV -4-tet -1-fermi 0-gaus

 Electronic relaxation 2 (details)
   IALGO  =     38    algorithm
   LDIAG  =      T    sub-space diagonalisation (order eigenvalues)
   LSUBROT=      F    optimize rotation matrix (better conditioning)
   TURBO    =      0    0=normal 1=particle mesh
   IRESTART =      0    0=no restart 2=restart with 2 vectors
   NREBOOT  =      0    no. of reboots
   NMIN     =      0    reboot dimension
   EREF     =   0.00    reference energy to select bands
   IMIX   =      4    mixing-type and parameters
     AMIX     =   0.40;   BMIX     =  1.00
     AMIX_MAG =   1.60;   BMIX_MAG =  1.00
     AMIN     =   0.10
     WC   =   100.;   INIMIX=   1;  MIXPRE=   1;  MAXMIX=  50

 Intra band minimization:
   WEIMIN = 0.0000     energy-eigenvalue tresh-hold
   EBREAK =  0.78E-10  absolut break condition
   DEPER  =   0.30     relativ break condition

   TIME   =   0.40     timestep for ELM

  volume/ion in A,a.u.               =      65.32       440.82
  Fermi-wavevector in a.u.,A,eV,Ry     =   1.065315  2.013153 15.441193  1.134896
  Thomas-Fermi vector in A             =   2.200862

 Write flags
   LWAVE        =      T    write WAVECAR
   LDOWNSAMPLE  =      F    k-point downsampling of WAVECAR
   LCHARG       =      T    write CHGCAR
   LVTOT        =      F    write LOCPOT, total local potential
   LVHAR        =      F    write LOCPOT, Hartree potential only
   LELF         =      F    write electronic localiz. function (ELF)
   LORBIT       =      0    0 simple, 1 ext, 2 COOP (PROOUT), +10 PAW based schemes

 Dipole corrections
   LMONO  =      F    monopole corrections only (constant potential shift)
   LDIPOL =      F    correct potential (dipole corrections)
   IDIPOL =      0    1-x, 2-y, 3-z, 4-all directions
   EPSILON=  1.0000000 bulk dielectric constant

 Exchange correlation treatment:
   GGA     =    --    GGA type
   VOSKOWN=      0    Vosko Wilk Nusair interpolation
   LHFCALC =     F    Hartree Fock is set to
   LHFONE  =     F    Hartree Fock one center treatment
   AEXX    =    0.0000 exact exchange contribution

 Linear response parameters
   LEPSILON=     F    determine dielectric tensor
   LRPA    =     F    only Hartree local field effects (RPA)
   LNABLA  =     F    use nabla operator in PAW spheres
   LVEL    =     F    velocity operator in full k-point grid
   LINTERFAST=   F  fast interpolation
   KINTER  =     0    interpolate to denser k-point grid
   CSHIFT  =0.1000    complex shift for real part using Kramers Kronig
   OMEGAMAX=  -1.0    maximum frequency
   DEG_THRESHOLD= 0.2000000E-02 threshold for treating states as degnerate
   RTIME   =   -0.100 relaxation time in fs
  (WPLASMAI=    0.000 imaginary part of plasma frequency in eV, 0.658/RTIME)
   DFIELD  = 0.0000000 0.0000000 0.0000000 field for delta impulse in time

 Orbital magnetization related:
   ORBITALMAG=     F  switch on orbital magnetization
   LCHIMAG   =     F  perturbation theory with respect to B field
   DQ        =  0.001000  dq finite difference perturbation B field
   LLRAUG    =     F  two centre corrections for induced B field

 Static calculation
 charge density and potential will be updated during run
 non-spin polarized calculation
 Variant of blocked Davidson
 Davidson routine will perform the subspace rotation
 perform sub-space diagonalisation
    after iterative eigenvector-optimisation
 modified Broyden-mixing scheme, WC =      100.0
 initial mixing is a Kerker type mixing with AMIX =  0.4000 and BMIX =      1.0000
 Hartree-type preconditioning will be used
 using additional bands           23
 reciprocal scheme for non local part
 use partial core corrections
 calculate Harris-corrections to forces
   (improved forces if not selfconsistent)
 use gradient corrections
 use of overlap-Matrix (Vanderbilt PP)
 Gauss-broadening in eV      SIGMA  =   0.05

  energy-cutoff  :      300.00
  volume of cell :       65.32
      direct lattice vectors                 reciprocal lattice vectors
     4.520564769  0.000000000  0.000000000     0.221211298 -0.127716402 -0.090309134
     2.260282385  3.914923930 -0.000000000     0.000000000  0.255432805 -0.090309134
     2.260282385  1.304974643  3.691025678    -0.000000000  0.000000000  0.270927403

  length of vectors
     4.520564769  4.520564769  4.520564769     0.270927403  0.270927403  0.270927403

 old parameters found on file WAVECAR:
  energy-cutoff  :      300.00
  volume of cell :       65.32
      direct lattice vectors                 reciprocal lattice vectors
     4.520564769  0.000000000  0.000000000     0.221211298 -0.127716402 -0.090309134
     2.260282385  3.914923930 -0.000000000     0.000000000  0.255432805 -0.090309134
     2.260282385  1.304974643  3.691025678    -0.000000000  0.000000000  0.270927403

  length of vectors

 k-points in units of 2pi/SCALE and weight: Automatically generated mesh + R-points
   0.11060565  0.06385820  0.04515457       0.000
   0.10507537  0.06066529  0.04289684       0.000
   0.09954508  0.05747238  0.04063911       0.000
   0.09401480  0.05427947  0.03838138       0.000
   0.08848452  0.05108656  0.03612365       0.000
   0.08295424  0.04789365  0.03386593       0.000
   0.07742395  0.04470074  0.03160820       0.000
   0.07189367  0.04150783  0.02935047       0.000
   0.06636339  0.03831492  0.02709274       0.000
   0.06083311  0.03512201  0.02483501       0.000
   0.05530282  0.03192910  0.02257728       0.000
   0.04977254  0.02873619  0.02031956       0.000
   0.04424226  0.02554328  0.01806183       0.000
   0.03871198  0.02235037  0.01580410       0.000
   0.03318169  0.01915746  0.01354637       0.000
   0.02765141  0.01596455  0.01128864       0.000
   0.02212113  0.01277164  0.00903091       0.000
   0.01659085  0.00957873  0.00677319       0.000
   0.01106056  0.00638582  0.00451546       0.000
   0.00553028  0.00319291  0.00225773       0.000
   0.00000000  0.00000000  0.00000000       0.000
  -0.00000000  0.00638582  0.00451546       0.000
  -0.00000000  0.01277164  0.00903091       0.000
  -0.00000000  0.01915746  0.01354637       0.000
  -0.00000000  0.02554328  0.01806183       0.000
  -0.00000000  0.03192910  0.02257728       0.000
  -0.00000000  0.03831492  0.02709274       0.000
  -0.00000000  0.04470074  0.03160820       0.000
  -0.00000000  0.05108656  0.03612365       0.000
  -0.00000000  0.05747238  0.04063911       0.000
  -0.00000000  0.06385820  0.04515457       0.000
  -0.00000000  0.07024402  0.04967002       0.000
  -0.00000000  0.07662984  0.05418548       0.000
  -0.00000000  0.08301566  0.05870094       0.000
  -0.00000000  0.08940148  0.06321639       0.000
  -0.00000000  0.09578730  0.06773185       0.000
  -0.00000000  0.10217312  0.07224731       0.000
  -0.00000000  0.10855894  0.07676276       0.000
  -0.00000000  0.11494476  0.08127822       0.000
  -0.00000000  0.12133058  0.08579368       0.000
  -0.00000000  0.12771640  0.09030913       0.000
   0.00000000  0.00000000  0.00000000       0.005
   0.03686855 -0.02128607 -0.01505152       0.009
   0.07373710 -0.04257213 -0.03010304       0.009
   0.11060565 -0.06385820 -0.04515457       0.005
   0.00000000  0.04257213 -0.01505152       0.009
   0.03686855  0.02128607 -0.03010304       0.009
   0.07373710  0.00000000 -0.04515457       0.009
   0.11060565 -0.02128607 -0.06020609       0.009
  -0.07373710  0.08514427  0.01505152       0.009
  -0.03686855  0.06385820  0.00000000       0.009
[...]
   0.00000000  0.50000000  0.50000000       0.005
   0.16666667  0.50000000  0.50000000       0.009
   0.33333333  0.50000000  0.50000000       0.009

 position of ions in fractional coordinates (direct lattice)
   0.00000000  0.00000000  0.00000000

 position of ions in cartesian coordinates  (Angst):
   0.00000000  0.00000000  0.00000000

 k-point  1 :   0.5000 0.5000 0.5000  plane waves:     778
 k-point  2 :   0.4750 0.4750 0.4750  plane waves:     778
 k-point  3 :   0.4500 0.4500 0.4500  plane waves:     772
 k-point  4 :   0.4250 0.4250 0.4250  plane waves:     769
 k-point  5 :   0.4000 0.4000 0.4000  plane waves:     769
 k-point  6 :   0.3750 0.3750 0.3750  plane waves:     769
 k-point  7 :   0.3500 0.3500 0.3500  plane waves:     769
 k-point  8 :   0.3250 0.3250 0.3250  plane waves:     769
 k-point  9 :   0.3000 0.3000 0.3000  plane waves:     769
 k-point 10 :   0.2750 0.2750 0.2750  plane waves:     775
 k-point 11 :   0.2500 0.2500 0.2500  plane waves:     778
 k-point 12 :   0.2250 0.2250 0.2250  plane waves:     784
 k-point 13 :   0.2000 0.2000 0.2000  plane waves:     776
 k-point 14 :   0.1750 0.1750 0.1750  plane waves:     785
 k-point 15 :   0.1500 0.1500 0.1500  plane waves:     779
 k-point 16 :   0.1250 0.1250 0.1250  plane waves:     773
 k-point 17 :   0.1000 0.1000 0.1000  plane waves:     770
 k-point 18 :   0.0750 0.0750 0.0750  plane waves:     752
 k-point 19 :   0.0500 0.0500 0.0500  plane waves:     755
 k-point 20 :   0.0250 0.0250 0.0250  plane waves:     749
 k-point 21 :   0.0000 0.0000 0.0000  plane waves:     749
 k-point 22 :   0.0000 0.0250 0.0250  plane waves:     749
 k-point 23 :   0.0000 0.0500 0.0500  plane waves:     749
 k-point 24 :   0.0000 0.0750 0.0750  plane waves:     757
 k-point 25 :   0.0000 0.1000 0.1000  plane waves:     769
 k-point 26 :   0.0000 0.1250 0.1250  plane waves:     769
 k-point 27 :   0.0000 0.1500 0.1500  plane waves:     777
 k-point 28 :   0.0000 0.1750 0.1750  plane waves:     785
 k-point 29 :   0.0000 0.2000 0.2000  plane waves:     785
 k-point 30 :   0.0000 0.2250 0.2250  plane waves:     777
 k-point 31 :   0.0000 0.2500 0.2500  plane waves:     769
 k-point 32 :   0.0000 0.2750 0.2750  plane waves:     777
 k-point 33 :   0.0000 0.3000 0.3000  plane waves:     781
 k-point 34 :   0.0000 0.3250 0.3250  plane waves:     769
 k-point 35 :   0.0000 0.3500 0.3500  plane waves:     769
 k-point 36 :   0.0000 0.3750 0.3750  plane waves:     765
 k-point 37 :   0.0000 0.4000 0.4000  plane waves:     773
 k-point 38 :   0.0000 0.4250 0.4250  plane waves:     769
 k-point 39 :   0.0000 0.4500 0.4500  plane waves:     769
 k-point 40 :   0.0000 0.4750 0.4750  plane waves:     773
 k-point 41 :   0.0000 0.5000 0.5000  plane waves:     774
 k-point 42 :   0.0000 0.0000 0.0000  plane waves:     749
 k-point 43 :   0.1667 0.0000 0.0000  plane waves:     785
 k-point 44 :   0.3333 0.0000 0.0000  plane waves:     769
 k-point 45 :   0.5000 0.0000 0.0000  plane waves:     778
 k-point 46 :   0.0000 0.1667 0.0000  plane waves:     785
 k-point 47 :   0.1667 0.1667 0.0000  plane waves:     785
 k-point 48 :   0.3333 0.1667 0.0000  plane waves:     773
 k-point 49 :   0.5000 0.1667 0.0000  plane waves:     772
 k-point 50 :  -0.3333 0.1667 0.0000  plane waves:     773
 k-point 51 :  -0.1667 0.1667 0.0000  plane waves:     767
 k-point 52 :   0.0000 0.3333 0.0000  plane waves:     769
 k-point 53 :   0.1667 0.3333 0.0000  plane waves:     773
 k-point 54 :   0.3333 0.3333 0.0000  plane waves:     769
 k-point 55 :   0.5000 0.3333 0.0000  plane waves:     769
 k-point 56 :  -0.3333 0.3333 0.0000  plane waves:     776
 k-point 57 :  -0.1667 0.3333 0.0000  plane waves:     773
 k-point 58 :   0.0000 0.5000 0.0000  plane waves:     778
 k-point 59 :   0.1667 0.5000 0.0000  plane waves:     772
 k-point 60 :   0.3333 0.5000 0.0000  plane waves:     769
[...]
 k-point 85 :  -0.1667 0.5000 0.1667  plane waves:     760
 k-point 86 :   0.0000-0.3333 0.1667  plane waves:     773
 k-point 87 :   0.1667-0.3333 0.1667  plane waves:     772
 k-point 88 :   0.3333-0.3333 0.1667  plane waves:     760
 k-point 89 :   0.5000-0.3333 0.1667  plane waves:     768
 k-point 90 :  -0.3333-0.3333 0.1667  plane waves:     769
 k-point 91 :  -0.1667-0.3333 0.1667  plane waves:     763
 k-point 92 :   0.0000-0.1667 0.1667  plane waves:     767
 k-point 93 :   0.1667-0.1667 0.1667  plane waves:     773
 k-point 94 :   0.3333-0.1667 0.1667  plane waves:     763
 k-point 95 :   0.5000-0.1667 0.1667  plane waves:     760
 k-point 96 :  -0.3333-0.1667 0.1667  plane waves:     763
 k-point 97 :  -0.1667-0.1667 0.1667  plane waves:     773
 k-point 98 :   0.0000 0.0000 0.3333  plane waves:     769
 k-point 99 :   0.1667 0.0000 0.3333  plane waves:     773
 k-point ** :   0.3333 0.0000 0.3333  plane waves:     769
 k-point ** :   0.5000 0.0000 0.3333  plane waves:     769
 k-point ** :  -0.3333 0.0000 0.3333  plane waves:     776
 k-point ** :  -0.1667 0.0000 0.3333  plane waves:     773
 k-point ** :   0.0000 0.1667 0.3333  plane waves:     773
 k-point ** :   0.1667 0.1667 0.3333  plane waves:     767
 k-point ** :   0.3333 0.1667 0.3333  plane waves:     773
 k-point ** :   0.5000 0.1667 0.3333  plane waves:     763
 k-point ** :  -0.3333 0.1667 0.3333  plane waves:     760
 k-point ** :  -0.1667 0.1667 0.3333  plane waves:     763
 k-point ** :   0.0000 0.3333 0.3333  plane waves:     769
 k-point ** :   0.1667 0.3333 0.3333  plane waves:     773
 k-point ** :   0.3333 0.3333 0.3333  plane waves:     769
 k-point ** :   0.5000 0.3333 0.3333  plane waves:     773
 k-point ** :  -0.3333 0.3333 0.3333  plane waves:     776
 k-point ** :  -0.1667 0.3333 0.3333  plane waves:     769
 k-point ** :   0.0000 0.5000 0.3333  plane waves:     769
 k-point ** :   0.1667 0.5000 0.3333  plane waves:     763
 k-point ** :   0.3333 0.5000 0.3333  plane waves:     773
 k-point ** :   0.5000 0.5000 0.3333  plane waves:     772
 k-point ** :  -0.3333 0.5000 0.3333  plane waves:     760
 k-point ** :  -0.1667 0.5000 0.3333  plane waves:     768
 k-point ** :   0.0000-0.3333 0.3333  plane waves:     776
 k-point ** :   0.1667-0.3333 0.3333  plane waves:     760
 k-point ** :   0.3333-0.3333 0.3333  plane waves:     776
 k-point ** :   0.5000-0.3333 0.3333  plane waves:     760
 k-point ** :  -0.3333-0.3333 0.3333  plane waves:     776
 k-point ** :  -0.1667-0.3333 0.3333  plane waves:     760
 k-point ** :   0.0000-0.1667 0.3333  plane waves:     773
 k-point ** :   0.1667-0.1667 0.3333  plane waves:     763
 k-point ** :   0.3333-0.1667 0.3333  plane waves:     769
 k-point ** :   0.5000-0.1667 0.3333  plane waves:     768
 k-point ** :  -0.3333-0.1667 0.3333  plane waves:     760
 k-point ** :  -0.1667-0.1667 0.3333  plane waves:     772
 k-point ** :   0.0000 0.0000 0.5000  plane waves:     778
 k-point ** :   0.1667 0.0000 0.5000  plane waves:     772
 k-point ** :   0.3333 0.0000 0.5000  plane waves:     769
 k-point ** :   0.5000 0.0000 0.5000  plane waves:     774
 k-point ** :   0.0000 0.1667 0.5000  plane waves:     772
 k-point ** :   0.1667 0.1667 0.5000  plane waves:     773
 k-point ** :   0.3333 0.1667 0.5000  plane waves:     763
 k-point ** :   0.5000 0.1667 0.5000  plane waves:     769
 k-point ** :  -0.3333 0.1667 0.5000  plane waves:     768
 k-point ** :  -0.1667 0.1667 0.5000  plane waves:     760
 k-point ** :   0.0000 0.3333 0.5000  plane waves:     769
 k-point ** :   0.1667 0.3333 0.5000  plane waves:     763
 k-point ** :   0.3333 0.3333 0.5000  plane waves:     773
 k-point ** :   0.5000 0.3333 0.5000  plane waves:     772
 k-point ** :  -0.3333 0.3333 0.5000  plane waves:     760
 k-point ** :  -0.1667 0.3333 0.5000  plane waves:     768
 k-point ** :   0.0000 0.5000 0.5000  plane waves:     774
 k-point ** :   0.1667 0.5000 0.5000  plane waves:     769
 k-point ** :   0.3333 0.5000 0.5000  plane waves:     772

 maximum and minimum number of plane-waves per node :       205      179

 maximum number of plane-waves:       785
 maximum index in each direction:
   IXMAX=    6   IYMAX=    6   IZMAX=    6
   IXMIN=   -6   IYMIN=   -6   IZMIN=   -6

 parallel 3D FFT for wavefunctions:
    minimum data exchange during FFTs selected (reduces bandwidth)
 parallel 3D FFT for charge:
    minimum data exchange during FFTs selected (reduces bandwidth)

 Broyden mixing: mesh for mixing (old mesh)
   NGX = 13   NGY = 13   NGZ = 13
  (NGX  = 56   NGY  = 56   NGZ  = 56)
  gives a total of   2197 points

 charge density for first step will be calculated from the start-wavefunctions

 Maximum index for augmentation-charges        25067 (set IRDMAX)

 initial charge from wavefunction
 First call to EWALD:  gamma=   0.440
 Maximum number of real-space cells 3x 3x 3
 Maximum number of reciprocal cells 3x 3x 3

--------------------------------------- Iteration      1(   1)  ---------------------------------------

 eigenvalue-minimisations  : 11016
 total energy-change (2. order) :-0.8098461E+02  (-0.6947961E-09)
 number of electron      18.0000001 magnetization
 augmentation part        7.1399232 magnetization

 Free energy of the ion-electron system (eV)
  alpha Z        PSCENC =        64.91123397
  Ewald energy   TEWEN  =     -1672.97583954
  -Hartree energ DENC   =     -1019.44437425
  -exchange      EXHF   =         0.00000000
  -V(xc)+E(xc)   XCENC  =        59.19928495
  PAW double counting   =      2390.05319219    -2450.60298632
  entropy T*S    EENTRO =        -0.00000000
  eigenvalues    EBANDS =      -482.74922537
  atomic energy  EATOM  =      3030.62410580
  Solvation  Ediel_sol  =         0.00000000
  free energy    TOTEN  =       -80.98460857 eV

  energy without entropy =      -80.98460857  energy(sigma->0) =      -80.98460857

[...]

 eigenvalue-minimisations  :  8544
 total energy-change (2. order) :-0.1728040E-10  (-0.1532397E-11)
 number of electron      18.0000001 magnetization
 augmentation part        7.1399232 magnetization

[...]

 eigenvalue-minimisations  :  8832
 total energy-change (2. order) : 0.2455636E-10  (-0.1534648E-12)
 number of electron      18.0000001 magnetization
 augmentation part        7.1399232 magnetization

[...]

 eigenvalue-minimisations  :  8392
 total energy-change (2. order) :-0.5456968E-11  ( 0.7654859E-14)
 number of electron      18.0000001 magnetization
 augmentation part        7.1399232 magnetization

[...]

 Broyden mixing:
  rms(total) = 0.29368E-05    rms(broyden)= 0.29358E-05
  rms(prec ) = 0.50373E-05
  weight for this iteration     100.00

[...]

--------------------------------------- Iteration      1(   6)  ---------------------------------------

 eigenvalue-minimisations  :  9120
 total energy-change (2. order) : 0.8620191E-08  (-0.2756513E-09)
 number of electron      18.0000001 magnetization
 augmentation part        7.1399216 magnetization

 Free energy of the ion-electron system (eV)
  alpha Z        PSCENC =        64.91123397
  Ewald energy   TEWEN  =     -1672.97583954
  -Hartree energ DENC   =     -1019.44436568
  -exchange      EXHF   =         0.00000000
  -V(xc)+E(xc)   XCENC  =        59.19929042
  PAW double counting   =      2390.05643418    -2450.60626217
  entropy T*S    EENTRO =        -0.00000000
  eigenvalues    EBANDS =      -482.74920554
  atomic energy  EATOM  =      3030.62410580
  Solvation  Ediel_sol  =         0.00000000
  free energy    TOTEN  =       -80.98460856 eV

  energy without entropy =      -80.98460856  energy(sigma->0) =      -80.98460856

 average (electrostatic) potential at core
  the test charge radii are     1.0367
  (the norm of the test charge is              1.0000)
       1 -90.8908

 E-fermi :  -2.6503     XC(G=0):  -7.4103     alpha+bet : -4.5354

 k-point     1 :       0.5000    0.5000    0.5000
  band No.  band energies     occupation
      1     -42.4907      2.00000
      2     -42.4907      2.00000
      3     -42.4890      2.00000
      4     -42.4888      2.00000
      5     -42.4888      2.00000
      6     -18.0676      2.00000
      7      -4.6067      2.00000
      8      -3.0756      2.00000
      9      -3.0755      2.00000
     10       4.5343      0.00000
     11       7.6263      0.00000
     12       7.6263      0.00000
     13       7.9817      0.00000
     14      10.0840      0.00000
     15      12.5469      0.00000
     16      12.5469      0.00000
     17      12.9589      0.00000
     18      12.9589      0.00000
     19      13.4960      0.00000
     20      17.1958      0.00000
     21      17.6230      0.00000
     22      17.6230      0.00000
     23      19.2890      0.00000
     24      20.1329      0.00000
     25      21.2146      0.00000
     26      21.5302      0.00000
     27      21.5302      0.00000
     28      22.6009      0.00000
     29      22.6009      0.00000
     30      24.6008      0.00000
     31      25.1604      0.00000
     32      26.4463      0.00000

[...]

 k-point   152 :       0.3333    0.5000    0.5000
  band No.  band energies     occupation
      1     -42.4908      2.00000
      2     -42.4904      2.00000
      3     -42.4891      2.00000
      4     -42.4888      2.00000
      5     -42.4886      2.00000
      6     -18.0556      2.00000
      7      -4.4483      2.00000
      8      -3.3823      2.00000
      9      -3.1843      2.00000
     10       5.1560      0.00000
     11       6.4689      0.00000
     12       7.9078      0.00000
     13       8.2466      0.00000
     14      10.6563      0.00000
     15      11.7378      0.00000
     16      12.4934      0.00000
     17      13.2704      0.00000
     18      13.3649      0.00000
     19      16.2460      0.00000
     20      16.8617      0.00000
     21      16.8720      0.00000
     22      17.3203      0.00000
     23      18.5460      0.00000
     24      19.9272      0.00000
     25      20.3178      0.00000
     26      20.7889      0.00000
     27      21.2820      0.00000
     28      22.5290      0.00000
     29      22.6751      0.00000
     30      24.7770      0.00000
     31      25.0378      0.00000
     32      25.6577      0.00000

 soft charge-density along one line, spin component           1
         0         1         2         3         4         5         6         7         8         9
 total charge-density along one line

------------------------ aborting loop because EDIFF is reached ----------------------------------------

  FORCE on cell =-STRESS in cart. coord.  units (eV):
  Direction    XX          YY          ZZ          XY          YZ          ZX
  Alpha Z    64.91123    64.91123    64.91123
  Ewald    -557.65863  -557.65863  -557.65863    -0.00000    -0.00000    -0.00000
  Hartree   339.80824   339.81695   339.81913    -0.00755    -0.00308    -0.00534
  E(xc)    -110.86854  -110.86888  -110.86897     0.00030     0.00012     0.00021
  Local     -74.14705   -74.14047   -74.13883    -0.00569    -0.00232    -0.00402
  n-local    73.99161    73.97839    73.97509     0.01145     0.00467     0.00810
  augment   105.89100   105.89353   105.89420    -0.00218    -0.00089    -0.00154
  Kinetic   158.00850   157.98034   157.97333     0.02438     0.00994     0.01724
  Fock        0.00000     0.00000     0.00000     0.00000     0.00000     0.00000
  Total      -0.06363    -0.08753    -0.09344     0.02070     0.00844     0.01464
  in kB      -1.56057    -2.14685    -2.29182     0.50768     0.20695     0.35914

 VOLUME and BASIS-vectors are now :
  energy-cutoff  :      300.00
  volume of cell :       65.32
      direct lattice vectors                 reciprocal lattice vectors
     4.520564769  0.000000000  0.000000000     0.221211298 -0.127716402 -0.090309134
     2.260282385  3.914923930 -0.000000000     0.000000000  0.255432805 -0.090309134
     2.260282385  1.304974643  3.691025678    -0.000000000  0.000000000  0.270927403

  length of vectors
     4.520564769  4.520564769  4.520564769     0.270927403  0.270927403  0.270927403

 FORCES acting on ions
    electron-ion (+dipol)            ewald-force                    non-local-force                 convergence-correction
   -.344E-06 -.474E-05 0.161E-04   -.116E-14 0.583E-15 0.129E-14   -.322E-06 -.129E-05 0.418E-05   0.582E-06 0.547E-05 -.184E-04
   -.347E-06 -.477E-05 0.163E-04   -.116E-14 0.583E-15 0.129E-14   -.322E-06 -.129E-05 0.418E-05   0.582E-06 0.547E-05 -.184E-04

 POSITION                                       TOTAL-FORCE (eV/Angst)
      0.00000      0.00000      0.00000        -0.000000     -0.000001      0.000002
    total drift:                               -0.000000     -0.000001      0.000002

  FREE ENERGIE OF THE ION-ELECTRON SYSTEM (eV)
  free  energy   TOTEN  =       -80.98460856 eV

  energy  without entropy=      -80.98460856  energy(sigma->0) =      -80.98460856

 writing wavefunctions