 vasp.5.4.4.18Apr17-6-g9f103f2a35 (build Jul 09 2018 16:43:14) complex

 executed on             LinuxIFC date 2018.11.21  23:06:56

 INCAR:
 POTCAR:    Cn-PAW, fit to 4c-PBE, JanMewes Oct18

 POTCAR:    Cn-PAW, fit to 4c-PBE, JanMewes Oct18
   VRHFIN =Cn : 10d 2s

   TITEL  = Cn-PAW, fit to 4c-PBE, JanMewes Oct18
   POMASS =    0.010; ZVAL   =   12.000    mass and valenz
   ENMAX  =  273.073; ENMIN  =  204.805 eV
   QCUT   =   -4.480; QGAM   =    8.960    optimization parameters

  Cn-PAW, fit to 4c-PBE, JanMewes Oct18 :

 POSCAR: Cn BCC
  positions in direct lattice
  velocities in cartesian coordinates
 exchange correlation table for  LEXCH =        8
   RHO(1)=    0.500       N(1)  =     2000
   RHO(2)=  100.500       N(2)  =     4000

 ion  position               nearest neighbor table
   1  0.000  0.000  0.000-

IMPORTANT INFORMATION: All symmetrisations will be switched off!
NOSYMM: (Re-)initialisation of all symmetry stuff for point group C_1.

 KPOINTS: k-points

Automatic generation of k-mesh.
Space group operators:
 irot       det(A)        alpha          n_x          n_y          n_z        tau_x        tau_y        tau_z
    1     1.000000     0.000001     1.000000     0.000000     0.000000     0.000000     0.000000     0.000000

 Subroutine IBZKPT returns following result:

 Found    216 irreducible k-points:

 Following reciprocal coordinates:
            Coordinates               Weight
  0.000000  0.000000  0.000000      1.000000
  0.166667  0.000000  0.000000      1.000000
  0.333333  0.000000 -0.000000      1.000000
  0.500000  0.000000  0.000000      1.000000
 -0.333333 -0.000000  0.000000      1.000000
 -0.166667  0.000000  0.000000      1.000000
  0.000000  0.166667  0.000000      1.000000
  0.166667  0.166667  0.000000      1.000000
  0.333333  0.166667  0.000000      1.000000
  0.500000  0.166667  0.000000      1.000000
 -0.333333  0.166667 -0.000000      1.000000
 -0.166667  0.166667 -0.000000      1.000000
  0.000000  0.333333  0.000000      1.000000
  0.166667  0.333333  0.000000      1.000000
  0.333333  0.333333  0.000000      1.000000
  0.500000  0.333333  0.000000      1.000000
 -0.333333  0.333333  0.000000      1.000000
 -0.166667  0.333333  0.000000      1.000000
  0.000000  0.500000 -0.000000      1.000000
  0.166667  0.500000  0.000000      1.000000
  0.333333  0.500000  0.000000      1.000000
  0.500000  0.500000 -0.000000      1.000000
 -0.333333  0.500000 -0.000000      1.000000
 -0.166667  0.500000  0.000000      1.000000
  0.000000 -0.333333 -0.000000      1.000000
  0.166667 -0.333333 -0.000000      1.000000
  0.333333 -0.333333 -0.000000      1.000000
  0.500000 -0.333333 -0.000000      1.000000
 -0.333333 -0.333333  0.000000      1.000000
 -0.166667 -0.333333 -0.000000      1.000000
  0.000000 -0.166667 -0.000000      1.000000
  0.166667 -0.166667  0.000000      1.000000
  0.333333 -0.166667  0.000000      1.000000
  0.500000 -0.166667  0.000000      1.000000
 -0.333333 -0.166667 -0.000000      1.000000
 -0.166667 -0.166667 -0.000000      1.000000
  0.000000  0.000000  0.166667      1.000000
  0.166667  0.000000  0.166667      1.000000
  0.333333  0.000000  0.166667      1.000000
  0.500000  0.000000  0.166667      1.000000
 -0.333333 -0.000000  0.166667      1.000000
 -0.166667  0.000000  0.166667      1.000000
  0.000000  0.166667  0.166667      1.000000
  0.166667  0.166667  0.166667      1.000000
  0.333333  0.166667  0.166667      1.000000
  0.500000  0.166667  0.166667      1.000000
 -0.333333  0.166667  0.166667      1.000000
 -0.166667  0.166667  0.166667      1.000000
  0.000000  0.333333  0.166667      1.000000
  0.166667  0.333333  0.166667      1.000000
  0.333333  0.333333  0.166667      1.000000
  0.500000  0.333333  0.166667      1.000000
 -0.333333  0.333333  0.166667      1.000000
 -0.166667  0.333333  0.166667      1.000000
  0.000000  0.500000  0.166667      1.000000
  0.166667  0.500000  0.166667      1.000000
  0.333333  0.500000  0.166667      1.000000
  0.500000  0.500000  0.166667      1.000000
 -0.333333  0.500000  0.166667      1.000000
 -0.166667  0.500000  0.166667      1.000000
[...]
  0.500000  0.500000 -0.166667      1.000000
 -0.333333  0.500000 -0.166667      1.000000
 -0.166667  0.500000 -0.166667      1.000000
  0.000000 -0.333333 -0.166667      1.000000
  0.166667 -0.333333 -0.166667      1.000000
  0.333333 -0.333333 -0.166667      1.000000
  0.500000 -0.333333 -0.166667      1.000000
 -0.333333 -0.333333 -0.166667      1.000000
 -0.166667 -0.333333 -0.166667      1.000000
  0.000000 -0.166667 -0.166667      1.000000
  0.166667 -0.166667 -0.166667      1.000000
  0.333333 -0.166667 -0.166667      1.000000
  0.500000 -0.166667 -0.166667      1.000000
 -0.333333 -0.166667 -0.166667      1.000000
 -0.166667 -0.166667 -0.166667      1.000000

 Following cartesian coordinates:
            Coordinates               Weight
  0.000000  0.000000  0.000000      1.000000
  0.051407  0.018175  0.031479      1.000000
  0.102814  0.036350  0.062959      1.000000
  0.154221  0.054525  0.094438      1.000000
 -0.102814 -0.036350 -0.062959      1.000000
 -0.051407 -0.018175 -0.031479      1.000000
  0.000000  0.054525  0.031479      1.000000
  0.051407  0.072700  0.062959      1.000000
  0.102814  0.090875  0.094438      1.000000
  0.154221  0.109050  0.125918      1.000000
 -0.102814  0.018175 -0.031479      1.000000
 -0.051407  0.036350  0.000000      1.000000
  0.000000  0.109050  0.062959      1.000000
  0.051407  0.127225  0.094438      1.000000
  0.102814  0.145400  0.125918      1.000000
  0.154221  0.163575  0.157397      1.000000
 -0.102814  0.072701  0.000000      1.000000
 -0.051407  0.090876  0.031479      1.000000
  0.000000  0.163576  0.094438      1.000000
  0.051407  0.181751  0.125918      1.000000
  0.102814  0.199926  0.157397      1.000000
  0.154221  0.218100  0.188877      1.000000
 -0.102814  0.127226  0.031479      1.000000
 -0.051407  0.145401  0.062959      1.000000
  0.000000 -0.109050 -0.062959      1.000000
  0.051407 -0.090876 -0.031479      1.000000
  0.102814 -0.072701 -0.000000      1.000000
  0.154221 -0.054526  0.031479      1.000000
 -0.102814 -0.145400 -0.125918      1.000000
 -0.051407 -0.127225 -0.094438      1.000000
  0.000000 -0.054525 -0.031479      1.000000
  0.051407 -0.036350 -0.000000      1.000000
  0.102814 -0.018175  0.031479      1.000000
  0.154221 -0.000001  0.062959      1.000000
 -0.102814 -0.090875 -0.094438      1.000000
 -0.051407 -0.072700 -0.062959      1.000000
  0.000000  0.000000  0.062960      1.000000
  0.051407  0.018175  0.094439      1.000000
  0.102814  0.036350  0.125919      1.000000
  0.154221  0.054525  0.157398      1.000000
 -0.102814 -0.036350  0.000001      1.000000
 -0.051407 -0.018175  0.031481      1.000000
  0.000000  0.054525  0.094439      1.000000
  0.051407  0.072700  0.125919      1.000000
  0.102814  0.090875  0.157398      1.000000
  0.154221  0.109050  0.188878      1.000000
 -0.102814  0.018175  0.031481      1.000000
 -0.051407  0.036350  0.062960      1.000000
  0.000000  0.109050  0.125919      1.000000
  0.051407  0.127225  0.157398      1.000000
  0.102814  0.145400  0.188878      1.000000
  0.154221  0.163575  0.220357      1.000000
 -0.102814  0.072701  0.062960      1.000000
 -0.051407  0.090876  0.094439      1.000000
  0.000000  0.163576  0.157398      1.000000
  0.051407  0.181751  0.188878      1.000000
  0.102814  0.199926  0.220357      1.000000
  0.154221  0.218100  0.251837      1.000000
 -0.102814  0.127226  0.094439      1.000000
 -0.051407  0.145401  0.125919      1.000000
[...]
  0.154221  0.218100  0.125917      1.000000
 -0.102814  0.127226 -0.031481      1.000000
 -0.051407  0.145401 -0.000001      1.000000
  0.000000 -0.109050 -0.125919      1.000000
  0.051407 -0.090876 -0.094439      1.000000
  0.102814 -0.072701 -0.062960      1.000000
  0.154221 -0.054526 -0.031481      1.000000
 -0.102814 -0.145400 -0.188878      1.000000
 -0.051407 -0.127225 -0.157398      1.000000
  0.000000 -0.054525 -0.094439      1.000000
  0.051407 -0.036350 -0.062960      1.000000
  0.102814 -0.018175 -0.031481      1.000000
  0.154221 -0.000001 -0.000001      1.000000
 -0.102814 -0.090875 -0.157398      1.000000
 -0.051407 -0.072700 -0.125919      1.000000

 SYSTEM =  Og_FCC
 POSCAR =  Cn BCC

 Startparameter for this run:
   NWRITE =      2    write-flag & timer
   PREC   = accura    normal or accurate (medium, high low for compatibility)
   ISTART =      0    job   : 0-new  1-cont  2-samecut
   ICHARG =      2    charge: 1-file 2-atom 10-const
   ISPIN  =      1    spin polarized calculation?
   LNONCOLLINEAR =      T non collinear calculations
   LSORBIT =      T    spin-orbit coupling
   INIWAV =      1    electr: 0-lowe 1-rand  2-diag
   LASPH  =      F    aspherical Exc in radial PAW
   METAGGA=      F    non-selfconsistent MetaGGA calc.

 Electronic Relaxation 1
   ENCUT  =  300.0 eV  22.05 Ry    4.70 a.u.   4.58  4.58  4.58*2*pi/ulx,y,z
   ENINI  =  300.0     initial cutoff
   ENAUG  =  361.0 eV  augmentation charge cutoff
   NELM   =     50;   NELMIN=  2; NELMDL= -5     # of ELM steps
   EDIFF  = 0.1E-07   stopping-criterion for ELM
   LREAL  =      F    real-space projection
   NLSPLINE    = F    spline interpolate recip. space projectors
   LCOMPAT=      F    compatible to vasp.4.4
   GGA_COMPAT  = F    GGA compatible to vasp.4.4-vasp.4.6
   LMAXPAW     = -100 max onsite density
   LMAXMIX     =    2 max onsite mixed and CHGCAR
   VOSKOWN=      0    Vosko Wilk Nusair interpolation
   ROPT   =    0.00000
 Ionic relaxation
   EDIFFG = 0.1E-04   stopping-criterion for IOM
   NSW    =      1    number of steps for IOM
   NBLOCK =      1;   KBLOCK =      1    inner block; outer block
   IBRION =     -1    ionic relax: 0-MD 1-quasi-New 2-CG
   NFREE  =      5    steps in history (QN), initial steepest desc. (CG)
   ISIF   =      3    stress and relaxation
   IWAVPR =     10    prediction:  0-non 1-charg 2-wave 3-comb
   ISYM   =      0    0-nonsym 1-usesym 2-fastsym
   LCORR  =      T    Harris-Foulkes like correction to forces

   POTIM  = 0.1000    time-step for ionic-motion
   TEIN   =    0.0    initial temperature
   TEBEG  =    0.0;   TEEND  =   0.0 temperature during run
   SMASS  =  -3.00    Nose mass-parameter (am)
   estimated Nose-frequenzy (Omega)   =  0.10E-29 period in steps =****** mass=  -0.240E-27a.u.
   SCALEE = 1.0000    scale energy and forces
   NPACO  =    256;   APACO  = 16.0  distance and # of slots for P.C.
   PSTRESS=    0.0 pullay stress

  Mass of Ions in am
   POMASS =   0.01
  Ionic Valenz
   ZVAL   =  12.00
  Atomic Wigner-Seitz radii
  virtual crystal weights
   VCA    =   1.00
   NELECT =      12.0000    total number of electrons
   NUPDOWN=      -1.0000    fix difference up-down

 DOS related values:
   EMIN   =  10.00;   EMAX   =-10.00  energy-range for DOS
   EFERMI =   0.00
   ISMEAR =     0;   SIGMA  =   0.00  broadening in eV -4-tet -1-fermi 0-gaus

 Electronic relaxation 2 (details)
   IALGO  =     38    algorithm
   LDIAG  =      T    sub-space diagonalisation (order eigenvalues)
   LSUBROT=      F    optimize rotation matrix (better conditioning)
[...]
   18.128872    0.132660    0.132652    0.132794   -0.000227   -0.000211   -0.000064
   18.498849    0.063094    0.063116    0.063410   -0.000193   -0.000109    0.000015
   18.868826   -0.001488   -0.001515   -0.001369   -0.000287   -0.000290   -0.000110
   19.238803   -0.321750   -0.321670   -0.321037   -0.000132    0.000096    0.000176
   19.608780   -0.537374   -0.537567   -0.537914   -0.000527   -0.000823   -0.000465
   19.978757    0.613830    0.613848    0.614475   -0.000230   -0.000064    0.000088
   20.348734   -0.069622   -0.069670   -0.069057   -0.000313   -0.000212    0.000005
   20.718710   -0.952016   -0.952179   -0.951568   -0.000420   -0.000427   -0.000108
   21.088687   -0.394034   -0.394357   -0.393342   -0.000438   -0.000480   -0.000063
   21.458664   -0.504120   -0.504998   -0.502836   -0.000113   -0.000453    0.000248
   21.828641   -1.343364   -1.341392   -1.344905    0.010027    0.004741    0.004131
[...]
   31.448043    0.278417    0.278431    0.278414    0.000138    0.000086    0.000008
   31.818020    0.302433    0.302446    0.302430    0.000129    0.000085    0.000011
   32.187997    0.324978    0.324991    0.324975    0.000121    0.000083    0.000013
   32.557974    0.346202    0.346213    0.346198    0.000114    0.000080    0.000014
   32.927951    0.366230    0.366240    0.366225    0.000107    0.000078    0.000014
   33.297928    0.385171    0.385180    0.385166    0.000102    0.000076    0.000015
   33.667905    0.403119    0.403128    0.403114    0.000097    0.000073    0.000015
   34.037881    0.420156    0.420164    0.420151    0.000092    0.000071    0.000015
   34.407858    0.436355    0.436362    0.436350    0.000088    0.000069    0.000015
   34.777835    0.451779    0.451786    0.451774    0.000084    0.000067    0.000015
   35.147812    0.466485    0.466492    0.466481    0.000081    0.000065    0.000015
   35.517789    0.480525    0.480532    0.480521    0.000078    0.000063    0.000014
   35.887766    0.493945    0.493951    0.493941    0.000075    0.000061    0.000014
   36.257743    0.506785    0.506791    0.506781    0.000072    0.000059    0.000014
   36.627720    0.519084    0.519089    0.519080    0.000069    0.000057    0.000014

  frequency dependent IMAGINARY DIELECTRIC FUNCTION (independent particle, no local field effects) current-current (2nd set in vasprun.xml)
     E(ev)      X         Y         Z        XY        YZ        ZX
    0.000000 2039.006479 2038.839133 2038.051812   -0.195601   -0.614092   -0.435371
    0.369977  607.544143  607.552783  607.602298    0.017633    0.046538    0.034767
    0.739954   63.179407   63.180883   63.187420    0.006037    0.008924    0.006718
    1.109931    7.226383    7.226401    7.226513    0.002442    0.002238    0.001830
    1.479908    6.179025    6.178958    6.178689    0.001702    0.001375    0.001157
    1.849885   31.383723   31.383203   31.381077    0.000686   -0.000553   -0.000245
    2.219862    7.718464    7.718360    7.717938    0.001052    0.000712    0.000627
    2.589839   13.104133   13.103942   13.103172    0.000760    0.000261    0.000290
    2.959816   38.355380   38.356067   38.358874    0.001899    0.003248    0.002388
    3.329793   13.192644   13.194167   13.200340    0.002987    0.006076    0.004378
    3.699770   21.329507   21.329437   21.329161    0.000630    0.000420    0.000371
    4.069747   16.006440   16.006468   16.006604    0.000713    0.000723    0.000579
    4.439724    4.802751    4.802764    4.802825    0.000633    0.000611    0.000494
    4.809701    5.470108    5.470157    5.470351    0.000636    0.000688    0.000545
    5.179678    9.321841    9.321731    9.321298    0.000375    0.000112    0.000131
    5.549655    3.492692    3.492720    3.492838    0.000539    0.000563    0.000449
    5.919632    3.063707    3.063716    3.063755    0.000482    0.000469    0.000379
    6.289609    7.481848    7.481865    7.481939    0.000470    0.000480    0.000385
    6.659586    5.385128    5.385102    5.384999    0.000375    0.000293    0.000245
    7.029562    3.173337    3.173495    3.174125    0.000624    0.000927    0.000696
    7.399539    6.459567    6.459516    6.459301    0.000309    0.000182    0.000167
    7.769516    3.601518    3.601464    3.601257    0.000295    0.000175    0.000160
    8.139493    2.598711    2.598980    2.600055    0.000735    0.001274    0.000936
    8.509470    4.277816    4.277838    4.277927    0.000373    0.000411    0.000324
    8.879447    5.019613    5.019613    5.019612    0.000330    0.000325    0.000262
    9.249424    2.440579    2.440586    2.440613    0.000332    0.000342    0.000275
    9.619401    2.840520    2.840527    2.840557    0.000321    0.000339    0.000270
    9.989378    1.611213    1.611223    1.611263    0.000316    0.000343    0.000271
   10.359355    2.539815    2.539818    2.539828    0.000298    0.000312    0.000249
   10.729332    2.146805    2.146813    2.146846    0.000299    0.000329    0.000259
   11.099309    1.985639    1.985645    1.985668    0.000289    0.000318    0.000251
   11.469286    1.336475    1.336474    1.336471    0.000274    0.000292    0.000232
   11.839263    1.687799    1.687798    1.687797    0.000269    0.000293    0.000232
   12.209240    2.263542    2.263599    2.263823    0.000345    0.000488    0.000371
   12.579217    2.452550    2.452653    2.453068    0.000410    0.000657    0.000488
   12.949194    2.265449    2.265433    2.265367    0.000232    0.000238    0.000191
   13.319171    1.091289    1.091204    1.090863    0.000131    0.000002    0.000023
   13.689148    1.216721    1.216733    1.216784    0.000265    0.000343    0.000263
   14.059125    2.264213    2.264219    2.264244    0.000253    0.000325    0.000250
   14.429102    2.145864    2.145862    2.145860    0.000241    0.000306    0.000236
   14.799079    0.946859    0.946861    0.946873    0.000242    0.000323    0.000247
   15.169056    0.792215    0.792216    0.792224    0.000238    0.000326    0.000248
   15.539033    1.812658    1.812648    1.812611    0.000219    0.000295    0.000225
   15.909010    1.960709    1.960708    1.960706    0.000229    0.000335    0.000253
   16.278987    0.670751    0.670753    0.670765    0.000231    0.000357    0.000267
   16.648964    1.031272    1.031281    1.031317    0.000235    0.000391    0.000288
   17.018941    1.880976    1.880985    1.881029    0.000234    0.000412    0.000302
   17.388918    2.673972    2.673981    2.674018    0.000228    0.000424    0.000310
   17.758895    2.338540    2.338516    2.338427    0.000176    0.000334    0.000243
   18.128872    1.152458    1.152470    1.152528    0.000218    0.000485    0.000346
   18.498849    2.159193    2.159220    2.159344    0.000228    0.000568    0.000400
   18.868826    1.867843    1.867617    1.866725   -0.000145   -0.000277   -0.000202
   19.238803    1.513650    1.513749    1.514170    0.000291    0.000894    0.000619
   19.608780    2.149798    2.149736    2.149515    0.000026    0.000383    0.000247
   19.978757    1.419925    1.419982    1.420267    0.000145    0.000873    0.000581
   20.348734    2.668218    2.668160    2.668024   -0.000112    0.000556    0.000336
   20.718710    2.149966    2.149992    2.150285   -0.000171    0.000954    0.000582
   21.088687    1.344689    1.344601    1.344734   -0.000721    0.000721    0.000354
   21.458664    2.823163    2.822795    2.823521   -0.002244    0.000288   -0.000074
   21.828641    1.026285    1.022342    1.030324    0.002999    0.003258    0.004260
[...]
   31.448043    0.002118    0.002117    0.002117   -0.000292   -0.000019   -0.000052
   31.818020    0.001901    0.001901    0.001901   -0.000256   -0.000017   -0.000046
   32.187997    0.001715    0.001715    0.001715   -0.000228   -0.000017   -0.000042
   32.557974    0.001554    0.001554    0.001554   -0.000205   -0.000016   -0.000039
   32.927951    0.001413    0.001413    0.001413   -0.000186   -0.000016   -0.000036
   33.297928    0.001289    0.001289    0.001289   -0.000170   -0.000016   -0.000034
   33.667905    0.001179    0.001179    0.001179   -0.000156   -0.000016   -0.000032
   34.037881    0.001082    0.001082    0.001082   -0.000144   -0.000016   -0.000031
   34.407858    0.000995    0.000995    0.000995   -0.000134   -0.000016   -0.000029
   34.777835    0.000917    0.000917    0.000917   -0.000125   -0.000016   -0.000028
   35.147812    0.000847    0.000847    0.000847   -0.000117   -0.000016   -0.000027
   35.517789    0.000784    0.000784    0.000784   -0.000109   -0.000016   -0.000026
   35.887766    0.000727    0.000727    0.000727   -0.000103   -0.000016   -0.000025
   36.257743    0.000675    0.000675    0.000675   -0.000097   -0.000016   -0.000024
   36.627720    0.000628    0.000628    0.000628   -0.000091   -0.000015   -0.000023

  frequency dependent      REAL DIELECTRIC FUNCTION (independent particle, no local field effects) current-current (2nd set in vasprun.xml)
     E(ev)        X           Y           Z          XY          YZ          ZX
    0.000000  267.995178  267.979192  267.904743   -0.030717   -0.066337   -0.047550
    0.369977 -309.062811 -308.999223 -308.695358    0.113666    0.265801    0.191366
    0.739954  -81.419552  -81.416633  -81.403849    0.004702    0.011074    0.007938
    1.109931  -33.093870  -33.092922  -33.088504    0.001573    0.003763    0.002740
    1.479908   -1.976874   -1.976440   -1.974310    0.000714    0.001760    0.001307
    1.849885   19.307355   19.307371   19.307685    0.000049    0.000177    0.000177
    2.219862   -1.734476   -1.734111   -1.732429    0.000520    0.001356    0.001008
    2.589839   19.732894   19.732830   19.732730   -0.000119   -0.000191   -0.000090
    2.959816  -24.657986  -24.657227  -24.654002    0.001053    0.002688    0.001946
    3.329793   -7.467696   -7.467252   -7.465337    0.000600    0.001550    0.001135
    3.699770    6.486751    6.486811    6.487155    0.000027    0.000187    0.000172
    4.069747  -13.844790  -13.844594  -13.843715    0.000214    0.000649    0.000501
    4.439724   -7.867373   -7.867223   -7.866548    0.000140    0.000471    0.000374
    4.809701   -6.405837   -6.405734   -6.405254    0.000068    0.000301    0.000252
    5.179678   -3.445241   -3.445136   -3.444645    0.000070    0.000307    0.000257
    5.549655   -3.692619   -3.692570   -3.692315   -0.000015    0.000104    0.000113
    5.919632   -2.344068   -2.344019   -2.343767   -0.000017    0.000099    0.000110
    6.289609    1.969249    1.969296    1.969537   -0.000023    0.000088    0.000102
    6.659586   -0.293140   -0.293138   -0.293088   -0.000087   -0.000073   -0.000009
    7.029562   -3.491557   -3.491419   -3.490812    0.000106    0.000403    0.000325
    7.399539   -0.561957   -0.561974   -0.561993   -0.000120   -0.000142   -0.000060
    7.769516   -1.209063   -1.209117   -1.209279   -0.000169   -0.000265   -0.000146
    8.139493   -0.126982   -0.127010   -0.127069   -0.000137   -0.000180   -0.000086
    8.509470    1.297016    1.296991    1.296936   -0.000137   -0.000178   -0.000084
    8.879447   -3.176175   -3.176142   -3.175958   -0.000054    0.000027    0.000061
    9.249424   -2.592232   -2.592216   -2.592118   -0.000082   -0.000049    0.000015
    9.619401   -0.610236   -0.610202   -0.610012   -0.000057    0.000027    0.000062
    9.989378   -1.937588   -1.937578   -1.937488   -0.000094   -0.000063   -0.000001
   10.359355   -0.146556   -0.146541   -0.146432   -0.000089   -0.000048    0.000011
   10.729332   -0.787096   -0.787082   -0.786975   -0.000093   -0.000053    0.000007
   11.099309   -1.600897   -1.600883   -1.600776   -0.000095   -0.000056    0.000007
   11.469286   -0.181886   -0.181872   -0.181763   -0.000098   -0.000058    0.000006
   11.839263    0.694056    0.694079    0.694227   -0.000088   -0.000029    0.000027
   12.209240   -0.006323   -0.006288   -0.006093   -0.000074    0.000008    0.000055
   12.579217   -0.937708   -0.937958   -0.938910   -0.000481   -0.000988   -0.000648
   12.949194   -1.477954   -1.477935   -1.477801   -0.000103   -0.000054    0.000013
   13.319171    0.121591    0.121612    0.121756   -0.000102   -0.000048    0.000018
   13.689148   -0.378882   -0.378887   -0.378847   -0.000145   -0.000146   -0.000049
   14.059125    1.045098    1.045106    1.045201   -0.000130   -0.000104   -0.000018
   14.429102   -1.199453   -1.199430   -1.199269   -0.000113   -0.000054    0.000019
   14.799079   -0.807633   -0.807636   -0.807573   -0.000154   -0.000147   -0.000046
   15.169056   -0.041310   -0.041311   -0.041237   -0.000157   -0.000146   -0.000043
   15.539033    0.317791    0.317789    0.317864   -0.000164   -0.000154   -0.000047
   15.909010   -0.441036   -0.441032   -0.440928   -0.000162   -0.000140   -0.000035
   16.278987    0.120705    0.120711    0.120834   -0.000164   -0.000136   -0.000029
   16.648964    0.868640    0.868616    0.868624   -0.000216   -0.000249   -0.000107
   17.018941    1.126175    1.126177    1.126309   -0.000184   -0.000158   -0.000038
   17.388918    0.614915    0.614916    0.615059   -0.000194   -0.000167   -0.000041
   17.758895    0.228919    0.228929    0.229122   -0.000189   -0.000142   -0.000019
   18.128872    0.130124    0.130123    0.130297   -0.000216   -0.000187   -0.000046
   18.498849    0.050100    0.050130    0.050461   -0.000181   -0.000081    0.000035
   18.868826   -0.011375   -0.011394   -0.011212   -0.000275   -0.000263   -0.000091
   19.238803   -0.328203   -0.328117   -0.327453   -0.000121    0.000119    0.000192
   19.608780   -0.549589   -0.549778   -0.550108   -0.000520   -0.000812   -0.000457
   19.978757    0.608660    0.608681    0.609325   -0.000223   -0.000055    0.000095
   20.348734   -0.087251   -0.087297   -0.086673   -0.000307   -0.000207    0.000009
   20.718710   -0.963496   -0.963656   -0.963031   -0.000411   -0.000420   -0.000103
   21.088687   -0.399204   -0.399523   -0.398495   -0.000425   -0.000473   -0.000057
   21.458664   -0.522593   -0.523465   -0.521295   -0.000086   -0.000442    0.000258
   21.828641   -1.345692   -1.343681   -1.347252    0.010003    0.004724    0.004101
[...]
   31.448043    0.282003    0.282019    0.282011    0.000143    0.000094    0.000014
   31.818020    0.305939    0.305953    0.305945    0.000134    0.000092    0.000017
   32.187997    0.328405    0.328419    0.328411    0.000125    0.000090    0.000018
   32.557974    0.349552    0.349565    0.349558    0.000118    0.000088    0.000019
   32.927951    0.369507    0.369519    0.369512    0.000112    0.000085    0.000020
   33.297928    0.388376    0.388387    0.388381    0.000106    0.000083    0.000020
   33.667905    0.406255    0.406265    0.406260    0.000101    0.000080    0.000020
   34.037881    0.423225    0.423235    0.423230    0.000096    0.000078    0.000020
   34.407858    0.439359    0.439368    0.439363    0.000092    0.000075    0.000020
   34.777835    0.454720    0.454729    0.454724    0.000088    0.000073    0.000020
   35.147812    0.469366    0.469374    0.469370    0.000084    0.000071    0.000019
   35.517789    0.483347    0.483355    0.483351    0.000081    0.000069    0.000019
   35.887766    0.496709    0.496716    0.496713    0.000078    0.000067    0.000019
   36.257743    0.509494    0.509501    0.509497    0.000075    0.000065    0.000018
   36.627720    0.521738    0.521745    0.521742    0.000072    0.000063    0.000018

 The outermost node in the dielectric function lies at epsilon=  28.5

 Spin-Orbit-Coupling matrix elements

 Ion:    1  E_soc:     -2.7373694
 l=   1
     0.0000000    -0.1310062    -0.1310071
    -0.1310062     0.0000000    -0.1310064
    -0.1310071    -0.1310064     0.0000000
 l=   2
     0.0000000    -0.0642159     0.0000000    -0.0628354    -0.2610061
    -0.0642159     0.0000000    -0.1967895    -0.0642159    -0.0655966
     0.0000000    -0.1967895     0.0000000    -0.1947189     0.0000000
    -0.0628354    -0.0642159    -0.1947189     0.0000000    -0.0662868
    -0.2610061    -0.0655966     0.0000000    -0.0662868     0.0000000
 l=   3
     0.0000000     0.0000000     0.0000000     0.0000000     0.0000000     0.0000000     0.0000000
     0.0000000     0.0000000     0.0000000     0.0000000     0.0000000     0.0000000     0.0000000
     0.0000000     0.0000000     0.0000000     0.0000000     0.0000000     0.0000000     0.0000000
     0.0000000     0.0000000     0.0000000     0.0000000     0.0000000     0.0000000     0.0000000
     0.0000000     0.0000000     0.0000000     0.0000000     0.0000000     0.0000000     0.0000000
     0.0000000     0.0000000     0.0000000     0.0000000     0.0000000     0.0000000     0.0000000
     0.0000000     0.0000000     0.0000000     0.0000000     0.0000000     0.0000000     0.0000000