 vasp.5.4.4.18Apr17-6-g9f103f2a35 (build Nov 03 2018 10:20:46) complex

 executed on             LinuxIFC date 2018.11.14  11:55:53

 INCAR:
 POTCAR:    PAW Og, JanMewes Oct 18

 POTCAR:    PAW Og, JanMewes Oct 18
   VRHFIN =Og : 10d 2s 6p, PE

   TITEL  = PAW Og, JanMewes Oct 18
   POMASS =    0.010; ZVAL   =   18.000    mass and valenz
   ENMAX  =  339.336; ENMIN  =  254.502 eV
   QCUT   =   -4.994; QGAM   =    9.988    optimization parameters

  PAW Og, JanMewes Oct 18               :

 POSCAR: Og_FCC
  positions in direct lattice
  velocities in cartesian coordinates
 exchange correlation table for  LEXCH =        8
   RHO(1)=    0.500       N(1)  =     2000
   RHO(2)=  100.500       N(2)  =     4000

 ion  position               nearest neighbor table
   1  0.000  0.000  0.000-

IMPORTANT INFORMATION: All symmetrisations will be switched off!
NOSYMM: (Re-)initialisation of all symmetry stuff for point group C_1.

 KPOINTS: k-points

Automatic generation of k-mesh.
Space group operators:
 irot       det(A)        alpha          n_x          n_y          n_z        tau_x        tau_y        tau_z
    1     1.000000     0.000000     1.000000     0.000000     0.000000     0.000000     0.000000     0.000000

 Subroutine IBZKPT returns following result:

 Found     64 irreducible k-points:

 Following reciprocal coordinates:
            Coordinates               Weight
  0.000000  0.000000  0.000000      1.000000
  0.250000  0.000000  0.000000      1.000000
  0.500000  0.000000  0.000000      1.000000
 -0.250000 -0.000000 -0.000000      1.000000
  0.000000  0.250000 -0.000000      1.000000
  0.250000  0.250000  0.000000      1.000000
  0.500000  0.250000  0.000000      1.000000
 -0.250000  0.250000 -0.000000      1.000000
  0.000000  0.500000 -0.000000      1.000000
  0.250000  0.500000  0.000000      1.000000
  0.500000  0.500000  0.000000      1.000000
 -0.250000  0.500000 -0.000000      1.000000
 -0.000000 -0.250000  0.000000      1.000000
  0.250000 -0.250000  0.000000      1.000000
  0.500000 -0.250000  0.000000      1.000000
 -0.250000 -0.250000 -0.000000      1.000000
  0.000000  0.000000  0.250000      1.000000
  0.250000 -0.000000  0.250000      1.000000
  0.500000 -0.000000  0.250000      1.000000
 -0.250000 -0.000000  0.250000      1.000000
 -0.000000  0.250000  0.250000      1.000000
  0.250000  0.250000  0.250000      1.000000
  0.500000  0.250000  0.250000      1.000000
 -0.250000  0.250000  0.250000      1.000000
 -0.000000  0.500000  0.250000      1.000000
  0.250000  0.500000  0.250000      1.000000
  0.500000  0.500000  0.250000      1.000000
 -0.250000  0.500000  0.250000      1.000000
  0.000000 -0.250000  0.250000      1.000000
  0.250000 -0.250000  0.250000      1.000000
  0.500000 -0.250000  0.250000      1.000000
 -0.250000 -0.250000  0.250000      1.000000
  0.000000  0.000000  0.500000      1.000000
  0.250000  0.000000  0.500000      1.000000
  0.500000 -0.000000  0.500000      1.000000
 -0.250000  0.000000  0.500000      1.000000
 -0.000000  0.250000  0.500000      1.000000
  0.250000  0.250000  0.500000      1.000000
  0.500000  0.250000  0.500000      1.000000
 -0.250000  0.250000  0.500000      1.000000
 -0.000000  0.500000  0.500000      1.000000
  0.250000  0.500000  0.500000      1.000000
  0.500000  0.500000  0.500000      1.000000
 -0.250000  0.500000  0.500000      1.000000
  0.000000 -0.250000  0.500000      1.000000
  0.250000 -0.250000  0.500000      1.000000
  0.500000 -0.250000  0.500000      1.000000
 -0.250000 -0.250000  0.500000      1.000000
  0.000000  0.000000 -0.250000      1.000000
  0.250000  0.000000 -0.250000      1.000000
  0.500000  0.000000 -0.250000      1.000000
 -0.250000  0.000000 -0.250000      1.000000
  0.000000  0.250000 -0.250000      1.000000
  0.250000  0.250000 -0.250000      1.000000
  0.500000  0.250000 -0.250000      1.000000
 -0.250000  0.250000 -0.250000      1.000000
  0.000000  0.500000 -0.250000      1.000000
  0.250000  0.500000 -0.250000      1.000000
  0.500000  0.500000 -0.250000      1.000000
 -0.250000  0.500000 -0.250000      1.000000
  0.000000 -0.250000 -0.250000      1.000000
  0.250000 -0.250000 -0.250000      1.000000
  0.500000 -0.250000 -0.250000      1.000000
 -0.250000 -0.250000 -0.250000      1.000000

 Following cartesian coordinates:
            Coordinates               Weight
  0.000000  0.000000  0.000000      1.000000
  0.057573 -0.033240 -0.023504      1.000000
  0.115145 -0.066479 -0.047008      1.000000
 -0.057573  0.033240  0.023504      1.000000
  0.000000  0.066479 -0.023504      1.000000
  0.057573  0.033240 -0.047008      1.000000
  0.115145  0.000000 -0.070512      1.000000
 -0.057573  0.099719  0.000000      1.000000
  0.000000  0.132958 -0.047008      1.000000
  0.057573  0.099719 -0.070512      1.000000
  0.115145  0.066479 -0.094016      1.000000
 -0.057573  0.166198 -0.023504      1.000000
 -0.000000 -0.066479  0.023504      1.000000
  0.057573 -0.099719 -0.000000      1.000000
  0.115145 -0.132958 -0.023504      1.000000
 -0.057573 -0.033240  0.047008      1.000000
 -0.000000  0.000000  0.070512      1.000000
  0.057573 -0.033240  0.047008      1.000000
  0.115145 -0.066479  0.023504      1.000000
 -0.057573  0.033240  0.094016      1.000000
 -0.000000  0.066479  0.047008      1.000000
  0.057573  0.033240  0.023504      1.000000
  0.115145  0.000000 -0.000000      1.000000
 -0.057573  0.099719  0.070512      1.000000
 -0.000000  0.132958  0.023504      1.000000
  0.057573  0.099719  0.000000      1.000000
  0.115145  0.066479 -0.023504      1.000000
 -0.057573  0.166198  0.047008      1.000000
 -0.000000 -0.066479  0.094016      1.000000
  0.057573 -0.099719  0.070512      1.000000
  0.115145 -0.132958  0.047008      1.000000
 -0.057573 -0.033240  0.117520      1.000000
 -0.000000  0.000000  0.141023      1.000000
  0.057573 -0.033240  0.117520      1.000000
  0.115145 -0.066479  0.094016      1.000000
 -0.057573  0.033240  0.164527      1.000000
 -0.000000  0.066479  0.117520      1.000000
  0.057573  0.033240  0.094016      1.000000
  0.115145  0.000000  0.070512      1.000000
 -0.057573  0.099719  0.141023      1.000000
 -0.000000  0.132958  0.094016      1.000000
  0.057573  0.099719  0.070512      1.000000
  0.115145  0.066479  0.047008      1.000000
 -0.057573  0.166198  0.117520      1.000000
 -0.000000 -0.066479  0.164527      1.000000
  0.057573 -0.099719  0.141023      1.000000
  0.115145 -0.132958  0.117520      1.000000
 -0.057573 -0.033240  0.188031      1.000000
  0.000000 -0.000000 -0.070512      1.000000
  0.057573 -0.033240 -0.094016      1.000000
  0.115145 -0.066479 -0.117520      1.000000
 -0.057573  0.033240 -0.047008      1.000000
  0.000000  0.066479 -0.094016      1.000000
  0.057573  0.033240 -0.117520      1.000000
  0.115145 -0.000000 -0.141023      1.000000
 -0.057573  0.099719 -0.070512      1.000000
  0.000000  0.132958 -0.117520      1.000000
  0.057573  0.099719 -0.141023      1.000000
  0.115145  0.066479 -0.164527      1.000000
 -0.057573  0.166198 -0.094016      1.000000
  0.000000 -0.066479 -0.047008      1.000000
  0.057573 -0.099719 -0.070512      1.000000
  0.115145 -0.132958 -0.094016      1.000000
 -0.057573 -0.033240 -0.023504      1.000000

 SYSTEM =  Og_FCC
 POSCAR =  Og_FCC

 Startparameter for this run:
   NWRITE =      2    write-flag & timer
   PREC   = accura    normal or accurate (medium, high low for compatibility)
   ISTART =      1    job   : 0-new  1-cont  2-samecut
   ICHARG =      0    charge: 1-file 2-atom 10-const
   ISPIN  =      1    spin polarized calculation?
   LNONCOLLINEAR =      T non collinear calculations
   LSORBIT =      T    spin-orbit coupling
   INIWAV =      1    electr: 0-lowe 1-rand  2-diag
   LASPH  =      F    aspherical Exc in radial PAW
   METAGGA=      F    non-selfconsistent MetaGGA calc.

 Electronic Relaxation 1
   ENCUT  =  300.0 eV  22.05 Ry    4.70 a.u.   6.13  6.13  6.13*2*pi/ulx,y,z
   ENINI  =  300.0     initial cutoff
   ENAUG  =  361.0 eV  augmentation charge cutoff
   NELM   =     50;   NELMIN=  2; NELMDL= -5     # of ELM steps
   EDIFF  = 0.1E-07   stopping-criterion for ELM
   LREAL  =      F    real-space projection
   NLSPLINE    = F    spline interpolate recip. space projectors
   LCOMPAT=      F    compatible to vasp.4.4
   GGA_COMPAT  = F    GGA compatible to vasp.4.4-vasp.4.6
   LMAXPAW     = -100 max onsite density
   LMAXMIX     =    2 max onsite mixed and CHGCAR
   VOSKOWN=      0    Vosko Wilk Nusair interpolation
   ROPT   =    0.00000
 Ionic relaxation
   EDIFFG = 0.1E-04   stopping-criterion for IOM
   NSW    =      1    number of steps for IOM
   NBLOCK =      1;   KBLOCK =      1    inner block; outer block
   IBRION =     -1    ionic relax: 0-MD 1-quasi-New 2-CG
   NFREE  =      5    steps in history (QN), initial steepest desc. (CG)
   ISIF   =      3    stress and relaxation
   IWAVPR =     10    prediction:  0-non 1-charg 2-wave 3-comb
   ISYM   =      0    0-nonsym 1-usesym 2-fastsym
   LCORR  =      T    Harris-Foulkes like correction to forces

   POTIM  = 0.1000    time-step for ionic-motion
   TEIN   =    0.0    initial temperature
   TEBEG  =    0.0;   TEEND  =   0.0 temperature during run
   SMASS  =  -3.00    Nose mass-parameter (am)
   estimated Nose-frequenzy (Omega)   =  0.10E-29 period in steps =****** mass=  -0.431E-27a.u.
   SCALEE = 1.0000    scale energy and forces
   NPACO  =    256;   APACO  = 16.0  distance and # of slots for P.C.
   PSTRESS=    0.0 pullay stress

  Mass of Ions in am
   POMASS =   0.01
  Ionic Valenz
   ZVAL   =  18.00
  Atomic Wigner-Seitz radii
  virtual crystal weights
   VCA    =   1.00
   NELECT =      18.0000    total number of electrons
   NUPDOWN=      -1.0000    fix difference up-down

 DOS related values:
   EMIN   =  10.00;   EMAX   =-10.00  energy-range for DOS
   EFERMI =   0.00
   ISMEAR =     0;   SIGMA  =   0.00  broadening in eV -4-tet -1-fermi 0-gaus

 Electronic relaxation 2 (details)
   IALGO  =     38    algorithm
   LDIAG  =      T    sub-space diagonalisation (order eigenvalues)
   LSUBROT=      F    optimize rotation matrix (better conditioning)
   TURBO    =      0    0=normal 1=particle mesh
   IRESTART =      0    0=no restart 2=restart with 2 vectors
   NREBOOT  =      0    no. of reboots
   NMIN     =      0    reboot dimension
   EREF     =   0.00    reference energy to select bands
   IMIX   =      4    mixing-type and parameters
     AMIX     =   0.40;   BMIX     =  1.00
     AMIX_MAG =   1.60;   BMIX_MAG =  1.00
     AMIN     =   0.10
     WC   =   100.;   INIMIX=   1;  MIXPRE=   1;  MAXMIX=  50

 Intra band minimization:
   WEIMIN = 0.0000     energy-eigenvalue tresh-hold
   EBREAK =  0.89E-10  absolut break condition
   DEPER  =   0.30     relativ break condition

   TIME   =   0.40     timestep for ELM

  volume/ion in A,a.u.               =      57.90       390.71
  Fermi-wavevector in a.u.,A,eV,Ry     =   1.109038  2.095777 16.734680  1.229964
  Thomas-Fermi vector in A             =   2.245572

 Write flags
   LWAVE        =      T    write WAVECAR
   LDOWNSAMPLE  =      F    k-point downsampling of WAVECAR
   LCHARG       =      F    write CHGCAR
[...]
   26.825691    0.828940    0.828973    0.828955   -0.000021    0.000003   -0.000036
   27.373155    0.798754    0.798785    0.798767   -0.000210   -0.000292   -0.000345
   27.920618    0.745289    0.745317    0.745299   -0.000961   -0.001456   -0.001572
   28.468081    0.833182    0.833204    0.833187   -0.000062   -0.000077   -0.000109
   29.015544    0.777655    0.777662    0.777648   -0.000045   -0.000076   -0.000088
   29.563007    0.882601    0.882531    0.882523    0.000042   -0.000065    0.000007
   30.110470    0.861810    0.862190    0.862141    0.000376    0.001346    0.000806
   30.657933    0.793462    0.793440    0.793418    0.000057    0.000043    0.000047
   31.205396    0.810409    0.810412    0.810388    0.000072    0.000052    0.000110
   31.752859    0.842650    0.842658    0.842652    0.000015    0.000054    0.000036
   32.300322    0.854644    0.854674    0.854659   -0.000001    0.000034   -0.000000
[...]
   46.534363    0.881104    0.881118    0.881111   -0.000002    0.000012   -0.000003
   47.081826    0.887247    0.887259    0.887253   -0.000002    0.000011   -0.000003
   47.629289    0.892019    0.892031    0.892025   -0.000001    0.000011   -0.000003
   48.176752    0.896075    0.896086    0.896081   -0.000001    0.000011   -0.000002
   48.724215    0.899667    0.899678    0.899673   -0.000001    0.000010   -0.000002
   49.271678    0.902923    0.902933    0.902928   -0.000001    0.000010   -0.000002
   49.819141    0.905916    0.905926    0.905920   -0.000001    0.000010   -0.000002
   50.366604    0.908695    0.908705    0.908699   -0.000001    0.000010   -0.000002
   50.914067    0.911294    0.911304    0.911299   -0.000001    0.000010   -0.000002
   51.461531    0.913738    0.913748    0.913743   -0.000001    0.000009   -0.000002
   52.008994    0.916047    0.916056    0.916051   -0.000001    0.000009   -0.000002
   52.556457    0.918234    0.918244    0.918239   -0.000001    0.000009   -0.000002
   53.103920    0.920314    0.920323    0.920318   -0.000001    0.000009   -0.000002
   53.651383    0.922294    0.922303    0.922298   -0.000001    0.000009   -0.000002
   54.198846    0.924185    0.924194    0.924189   -0.000001    0.000008   -0.000002

  frequency dependent IMAGINARY DIELECTRIC FUNCTION (independent particle, no local field effects) current-current (2nd set in vasprun.xml)
     E(ev)      X         Y         Z        XY        YZ        ZX
    0.000000  564.125945  564.013569  564.024223  -78.685076 -119.819840 -128.559855
    0.547463    8.831058    8.824659    8.824016    3.527511    5.355961    5.757203
    1.094926    1.683963    1.679206    1.678456    0.390822    0.587496    0.634588
    1.642389    1.793479    1.783618    1.781977    0.120567    0.168891    0.188634
    2.189852    9.463192    9.292304    9.265079    0.209491    0.075721    0.186249
    2.737315   11.320786   11.023164   10.935723    0.293263    0.062763    0.236152
    3.284779    1.200698    1.204656    1.207536    0.014826    0.031712    0.029338
    3.832242    6.163940    6.034519    6.054619    0.092187   -0.035070    0.101062
    4.379705    3.070981    3.074317    3.074221    0.011805    0.024655    0.020907
    4.927168   19.036154   19.036971   19.040447   -0.155644   -0.288547   -0.240974
    5.474631    8.202768    8.206439    8.146086    0.138040    0.135055    0.124860
    6.022094    2.625307    2.640497    2.631715    0.010171    0.016764    0.011572
    6.569557    4.591900    4.596304    4.602008    0.023495    0.036920    0.042141
    7.117020    2.205352    2.200811    2.194840   -0.116836   -0.238759   -0.195738
    7.664483    5.226437    5.228868    5.229500    0.011237    0.028776    0.019307
    8.211946    1.392153    1.392973    1.391601    0.003541    0.007615    0.003671
    8.759409    0.866556    0.864923    0.865668   -0.002041   -0.003512   -0.002958
    9.306873    2.203837    2.192119    2.183844    0.038055    0.052505    0.049505
    9.854336    1.857200    1.826203    1.825975    0.001070   -0.050121   -0.010462
   10.401799    0.434724    0.435642    0.435664    0.000069    0.001836    0.000390
   10.949262    0.458959    0.459077    0.459080   -0.000237   -0.000018   -0.000373
   11.496725    0.469556    0.469175    0.469152   -0.000267   -0.000817   -0.000768
   12.044188    0.086271    0.086263    0.086265   -0.000097   -0.000069   -0.000177
   12.591651    0.209783    0.209407    0.209470    0.000197    0.000885    0.000114
   13.139114    0.420406    0.420422    0.420422   -0.000195   -0.000256   -0.000316
   13.686577    0.256485    0.256488    0.256487   -0.000210   -0.000288   -0.000351
   14.234040    0.124068    0.124070    0.124070   -0.000236   -0.000329   -0.000388
   14.781503    0.393171    0.393173    0.393174   -0.000120   -0.000140   -0.000201
   15.328967    0.120724    0.120727    0.120729   -0.000161   -0.000206   -0.000265
   15.876430    0.245334    0.245338    0.245343   -0.000281   -0.000426   -0.000452
   16.423893    0.122804    0.122802    0.122823   -0.000099   -0.000140   -0.000140
   16.971356    0.598366    0.596589    0.597620   -0.000881   -0.002410   -0.000936
   17.518819    1.677755    1.683963    1.686086   -0.009057   -0.004116   -0.009300
   18.066282    0.812554    0.813023    0.813150   -0.000194   -0.000402   -0.000099
   18.613745    0.153067    0.153072    0.153087   -0.000559   -0.000881   -0.000873
   19.161208    0.506745    0.506594    0.507135    0.000354    0.001698    0.001426
   19.708671    0.278265    0.278262    0.278268   -0.000405   -0.000643   -0.000648
   20.256134    0.044825    0.044824    0.044825   -0.000274   -0.000406   -0.000447
   20.803597    0.101564    0.101573    0.101570   -0.000295   -0.000447   -0.000484
   21.351061    0.009077    0.009077    0.009077   -0.000340   -0.000506   -0.000556
   21.898524    0.005116    0.005116    0.005116   -0.000420   -0.000629   -0.000688
   22.445987    0.003898    0.003898    0.003898   -0.000554   -0.000833   -0.000906
   22.993450    0.003557    0.003557    0.003557   -0.000811   -0.001225   -0.001327
   23.540913    0.004554    0.004555    0.004554   -0.001488   -0.002255   -0.002432
   24.088376    0.039512    0.039514    0.039513   -0.005057   -0.007683   -0.008262
   24.635839    0.006583    0.006583    0.006583    0.002332    0.003554    0.003807
   25.183302    0.004293    0.004293    0.004293    0.001142    0.001744    0.001864
   25.730765    0.008424    0.008424    0.008424    0.000802    0.001227    0.001309
   26.278228    0.050171    0.050171    0.050171    0.000740    0.001141    0.001206
   26.825691    0.033806    0.033806    0.033806    0.000745    0.001148    0.001213
   27.373155    0.078094    0.078093    0.078093    0.001184    0.001825    0.001929
   27.920618    0.039091    0.039090    0.039091   -0.001341   -0.002073   -0.002185
   28.468081    0.014926    0.014925    0.014925   -0.000263   -0.000409   -0.000430
   29.015544    0.069380    0.069376    0.069376   -0.000115   -0.000186   -0.000190
   29.563007    0.023726    0.023679    0.023683    0.000034   -0.000014    0.000024
   30.110470    0.125922    0.127339    0.127212   -0.001318    0.000222   -0.001254
   30.657933    0.119765    0.119784    0.119777    0.000050    0.000089    0.000083
   31.205396    0.045441    0.045378    0.045482   -0.000026    0.000018    0.000096
   31.752859    0.050144    0.050158    0.050150    0.000082    0.000102    0.000122
   32.300322    0.053876    0.053879    0.053878   -0.000040   -0.000072   -0.000064
[...]
   46.534363    0.000839    0.000838    0.000838    0.000014    0.000021    0.000023
   47.081826    0.000488    0.000488    0.000488    0.000012    0.000019    0.000020
   47.629289    0.000343    0.000343    0.000343    0.000012    0.000018    0.000019
   48.176752    0.000262    0.000262    0.000262    0.000011    0.000017    0.000018
   48.724215    0.000211    0.000211    0.000211    0.000010    0.000016    0.000017
   49.271678    0.000175    0.000175    0.000175    0.000010    0.000016    0.000016
   49.819141    0.000148    0.000148    0.000148    0.000010    0.000015    0.000015
   50.366604    0.000128    0.000128    0.000128    0.000009    0.000015    0.000015
   50.914067    0.000112    0.000112    0.000112    0.000009    0.000014    0.000014
   51.461531    0.000098    0.000098    0.000098    0.000008    0.000013    0.000014
   52.008994    0.000087    0.000087    0.000087    0.000008    0.000013    0.000013
   52.556457    0.000078    0.000078    0.000078    0.000008    0.000013    0.000013
   53.103920    0.000070    0.000070    0.000070    0.000008    0.000012    0.000012
   53.651383    0.000064    0.000064    0.000064    0.000007    0.000012    0.000012
   54.198846    0.000058    0.000058    0.000058    0.000007    0.000011    0.000011

  frequency dependent      REAL DIELECTRIC FUNCTION (independent particle, no local field effects) current-current (2nd set in vasprun.xml)
     E(ev)        X           Y           Z          XY          YZ          ZX
    0.000000   80.434684   80.412925   80.413400   17.393383   26.426856   28.397565
    0.547463  -44.685510  -44.693495  -44.697321   -0.807839   -1.239606   -1.330615
    1.094926   -2.416450   -2.433556   -2.436738   -0.411013   -0.647471   -0.686612
    1.642389    5.649812    5.617368    5.611883   -0.168388   -0.298763   -0.303594
    2.189852   16.574727   16.446022   16.424544    0.031299   -0.113777   -0.068060
    2.737315    2.100836    2.141247    2.159353   -0.155258   -0.232593   -0.222167
    3.284779    0.685915    0.656732    0.654182   -0.028233   -0.077612   -0.064943
    3.832242    4.296721    4.532577    4.496456   -0.160199    0.012017   -0.164770
    4.379705    6.289412    6.281955    6.284567   -0.030685   -0.053056   -0.050355
    4.927168    8.989772    8.988588    8.991730   -0.105143   -0.183899   -0.163303
    5.474631   -2.773705   -2.774218   -2.788671    0.108181    0.139891    0.150697
    6.022094    0.431920    0.407282    0.428997   -0.038143   -0.055969   -0.039547
    6.569557   -3.268000   -3.265485   -3.262970   -0.044345   -0.079045   -0.064162
    7.117020   -0.280016   -0.276743   -0.271916   -0.011610   -0.000989   -0.009680
    7.664483   -2.019618   -2.016602   -2.015355   -0.007166   -0.003667   -0.008182
    8.211946   -3.255841   -3.254802   -3.253785   -0.010341   -0.012726   -0.014669
    8.759409   -0.315710   -0.316830   -0.316093   -0.007261   -0.009480   -0.010929
    9.306873   -0.467450   -0.449004   -0.435827   -0.034978   -0.014265   -0.028231
    9.854336   -1.649813   -1.601400   -1.596690   -0.056460   -0.034430   -0.062019
   10.401799   -0.951402   -0.953425   -0.953472   -0.003750   -0.007757   -0.007067
   10.949262   -0.274075   -0.274334   -0.274329   -0.004425   -0.006931   -0.007299
   11.496725   -0.613360   -0.614082   -0.614108   -0.003672   -0.006461   -0.006430
   12.044188   -0.224528   -0.224421   -0.224400   -0.004013   -0.005949   -0.006438
   12.591651    0.066054    0.066775    0.066638   -0.003476   -0.004770   -0.005828
   13.139114    0.223504    0.223625    0.223644   -0.003443   -0.005083   -0.005517
   13.686577    0.222387    0.222533    0.222550   -0.003142   -0.004608   -0.005020
   14.234040    0.486255    0.486404    0.486421   -0.002884   -0.004205   -0.004601
   14.781503    0.244362    0.244510    0.244529   -0.002654   -0.003852   -0.004227
   15.328967    0.330909    0.331059    0.331083   -0.002507   -0.003632   -0.003977
   15.876430    0.619942    0.620097    0.620136   -0.002356   -0.003396   -0.003710
   16.423893    0.455976    0.456137    0.456225   -0.002295   -0.003256   -0.003547
   16.971356    0.837084    0.838134    0.838033   -0.004179   -0.005414   -0.006346
   17.518819    0.730035    0.718566    0.714702    0.008051    0.000601    0.002710
   18.066282   -0.169690   -0.168986   -0.168773   -0.002349   -0.002148   -0.003206
   18.613745    0.379035    0.379212    0.379202   -0.001456   -0.002035   -0.002325
   19.161208    0.435755    0.435841    0.435996   -0.007447   -0.012131   -0.011667
   19.708671    0.287708    0.287814    0.287806   -0.001447   -0.002092   -0.002325
   20.256134    0.345300    0.345389    0.345392   -0.001424   -0.002070   -0.002274
   20.803597    0.394039    0.394138    0.394137   -0.001328   -0.001915   -0.002124
   21.351061    0.493343    0.493418    0.493422   -0.001269   -0.001846   -0.002025
   21.898524    0.553255    0.553325    0.553329   -0.001197   -0.001742   -0.001911
   22.445987    0.598254    0.598321    0.598324   -0.001123   -0.001633   -0.001792
   22.993450    0.636692    0.636755    0.636758   -0.001028   -0.001494   -0.001641
   23.540913    0.673806    0.673867    0.673869   -0.000808   -0.001163   -0.001284
   24.088376    0.730565    0.730624    0.730625    0.003747    0.005762    0.006154
   24.635839    0.700788    0.700840    0.700843   -0.000471   -0.000656   -0.000736
   25.183302    0.738590    0.738641    0.738643   -0.000828   -0.001203   -0.001321
   25.730765    0.778446    0.778494    0.778496   -0.000849   -0.001236   -0.001356
   26.278228    0.737883    0.737928    0.737931   -0.000810   -0.001177   -0.001296
   26.825691    0.832822    0.832866    0.832868   -0.000834   -0.001222   -0.001335
   27.373155    0.802137    0.802177    0.802180   -0.000996   -0.001476   -0.001600
   27.920618    0.748770    0.748807    0.748808   -0.001697   -0.002565   -0.002747
   28.468081    0.836709    0.836740    0.836742   -0.000777   -0.001154   -0.001251
   29.015544    0.780729    0.780745    0.780748   -0.000735   -0.001118   -0.001191
   29.563007    0.885840    0.885777    0.885786   -0.000621   -0.001068   -0.001053
   30.110470    0.864179    0.864566    0.864534   -0.000267    0.000374   -0.000222
   30.657933    0.795854    0.795842    0.795836   -0.000564   -0.000888   -0.000943
   31.205396    0.813178    0.813190    0.813183   -0.000529   -0.000849   -0.000847
   31.752859    0.845332    0.845349    0.845358   -0.000564   -0.000814   -0.000886
   32.300322    0.857132    0.857170    0.857170   -0.000559   -0.000803   -0.000890
[...]
   46.534363    0.882468    0.882485    0.882486   -0.000270   -0.000392   -0.000431
   47.081826    0.888582    0.888597    0.888598   -0.000264   -0.000384   -0.000421
   47.629289    0.893325    0.893340    0.893341   -0.000258   -0.000375   -0.000412
   48.176752    0.897352    0.897367    0.897367   -0.000252   -0.000367   -0.000402
   48.724215    0.900917    0.900931    0.900931   -0.000246   -0.000358   -0.000393
   49.271678    0.904145    0.904158    0.904159   -0.000241   -0.000350   -0.000385
   49.819141    0.907111    0.907125    0.907125   -0.000235   -0.000343   -0.000376
   50.366604    0.909865    0.909878    0.909878   -0.000230   -0.000335   -0.000368
   50.914067    0.912439    0.912452    0.912453   -0.000225   -0.000328   -0.000360
   51.461531    0.914860    0.914872    0.914872   -0.000220   -0.000321   -0.000352
   52.008994    0.917145    0.917157    0.917157   -0.000216   -0.000315   -0.000345
   52.556457    0.919310    0.919322    0.919322   -0.000211   -0.000308   -0.000338
   53.103920    0.921367    0.921379    0.921379   -0.000207   -0.000302   -0.000331
   53.651383    0.923326    0.923338    0.923338   -0.000203   -0.000296   -0.000324
   54.198846    0.925197    0.925208    0.925208   -0.000199   -0.000290   -0.000318

 The outermost node in the dielectric function lies at epsilon=  18.3

 Spin-Orbit-Coupling matrix elements

 Ion:    1  E_soc:    -33.0198351
 l=   1
     0.0000000    -5.0849984    -5.0849959
    -5.0849984     0.0000000    -5.0849957
    -5.0849959    -5.0849957     0.0000000
 l=   2
     0.0000000    -0.0836663     0.0000000    -0.0836663    -0.3346355
    -0.0836663     0.0000000    -0.2509766    -0.0836736    -0.0836663
     0.0000000    -0.2509766     0.0000000    -0.2509766     0.0000000
    -0.0836663    -0.0836736    -0.2509766     0.0000000    -0.0836663
    -0.3346355    -0.0836663     0.0000000    -0.0836663     0.0000000
 l=   3
     0.0000000     0.0000000     0.0000000     0.0000000     0.0000000     0.0000000     0.0000000
     0.0000000     0.0000000     0.0000000     0.0000000     0.0000000     0.0000000     0.0000000
     0.0000000     0.0000000     0.0000000     0.0000000     0.0000000     0.0000000     0.0000000
     0.0000000     0.0000000     0.0000000     0.0000000     0.0000000     0.0000000     0.0000000
     0.0000000     0.0000000     0.0000000     0.0000000     0.0000000     0.0000000     0.0000000
     0.0000000     0.0000000     0.0000000     0.0000000     0.0000000     0.0000000     0.0000000
     0.0000000     0.0000000     0.0000000     0.0000000     0.0000000     0.0000000     0.0000000