 vasp.5.4.4.18Apr17-6-g9f103f2a35 (build Nov 03 2018 10:20:46) complex

 executed on             LinuxIFC date 2018.12.04  09:46:50

 INCAR:
 POTCAR:    PAW_PBE He_GW 13May2007

 POTCAR:    PAW_PBE He_GW 13May2007
   VRHFIN =He: 1s

   TITEL  = PAW_PBE He_GW 13May2007
   POMASS =    4.000; ZVAL   =    2.000    mass and valenz
   ENMAX  =  405.780; ENMIN  =  304.335 eV

  PAW_PBE He_GW 13May2007               :

 POSCAR: He_FCC
  positions in direct lattice
  velocities in cartesian coordinates
 exchange correlation table for  LEXCH =        8
   RHO(1)=    0.500       N(1)  =     2000
   RHO(2)=  100.500       N(2)  =     4000

 ion  position               nearest neighbor table
   1  0.000  0.000  0.000-

IMPORTANT INFORMATION: All symmetrisations will be switched off!
NOSYMM: (Re-)initialisation of all symmetry stuff for point group C_1.

 KPOINTS: k-points

Automatic generation of k-mesh.
Space group operators:
 irot       det(A)        alpha          n_x          n_y          n_z        tau_x        tau_y        tau_z
    1     1.000000     0.000000     1.000000     0.000000     0.000000     0.000000     0.000000     0.000000

 Subroutine IBZKPT returns following result:

 Found    343 irreducible k-points:

 Following reciprocal coordinates:
            Coordinates               Weight
  0.000000  0.000000  0.000000      1.000000
  0.142857  0.000000  0.000000      1.000000
  0.285714  0.000000  0.000000      1.000000
  0.428571  0.000000  0.000000      1.000000
 -0.428571 -0.000000  0.000000      1.000000
 -0.285714 -0.000000 -0.000000      1.000000
 -0.142857 -0.000000 -0.000000      1.000000
  0.000000  0.142857  0.000000      1.000000
  0.142857  0.142857  0.000000      1.000000
  0.285714  0.142857  0.000000      1.000000
  0.428571  0.142857  0.000000      1.000000
 -0.428571  0.142857  0.000000      1.000000
 -0.285714  0.142857 -0.000000      1.000000
 -0.142857  0.142857  0.000000      1.000000
  0.000000  0.285714  0.000000      1.000000
  0.142857  0.285714  0.000000      1.000000
  0.285714  0.285714  0.000000      1.000000
  0.428571  0.285714 -0.000000      1.000000
 -0.428571  0.285714 -0.000000      1.000000
 -0.285714  0.285714 -0.000000      1.000000
 -0.142857  0.285714 -0.000000      1.000000
  0.000000  0.428571  0.000000      1.000000
  0.142857  0.428571  0.000000      1.000000
  0.285714  0.428571  0.000000      1.000000
  0.428571  0.428571  0.000000      1.000000
 -0.428571  0.428571  0.000000      1.000000
 -0.285714  0.428571 -0.000000      1.000000
 -0.142857  0.428571 -0.000000      1.000000
  0.000000 -0.428571 -0.000000      1.000000
  0.142857 -0.428571  0.000000      1.000000
  0.285714 -0.428571  0.000000      1.000000
  0.428571 -0.428571 -0.000000      1.000000
 -0.428571 -0.428571 -0.000000      1.000000
 -0.285714 -0.428571 -0.000000      1.000000
 -0.142857 -0.428571 -0.000000      1.000000
  0.000000 -0.285714  0.000000      1.000000
  0.142857 -0.285714  0.000000      1.000000
  0.285714 -0.285714  0.000000      1.000000
  0.428571 -0.285714  0.000000      1.000000
 -0.428571 -0.285714  0.000000      1.000000
 -0.285714 -0.285714 -0.000000      1.000000
 -0.142857 -0.285714  0.000000      1.000000
  0.000000 -0.142857  0.000000      1.000000
  0.142857 -0.142857 -0.000000      1.000000
  0.285714 -0.142857  0.000000      1.000000
  0.428571 -0.142857 -0.000000      1.000000
 -0.428571 -0.142857  0.000000      1.000000
 -0.285714 -0.142857 -0.000000      1.000000
 -0.142857 -0.142857 -0.000000      1.000000
  0.000000  0.000000  0.142857      1.000000
  0.142857  0.000000  0.142857      1.000000
  0.285714  0.000000  0.142857      1.000000
  0.428571  0.000000  0.142857      1.000000
 -0.428571 -0.000000  0.142857      1.000000
 -0.285714 -0.000000  0.142857      1.000000
 -0.142857 -0.000000  0.142857      1.000000
  0.000000  0.142857  0.142857      1.000000
  0.142857  0.142857  0.142857      1.000000
  0.285714  0.142857  0.142857      1.000000
  0.428571  0.142857  0.142857      1.000000
[...]
 -0.142857 -0.428571 -0.142857      1.000000
  0.000000 -0.285714 -0.142857      1.000000
  0.142857 -0.285714 -0.142857      1.000000
  0.285714 -0.285714 -0.142857      1.000000
  0.428571 -0.285714 -0.142857      1.000000
 -0.428571 -0.285714 -0.142857      1.000000
 -0.285714 -0.285714 -0.142857      1.000000
 -0.142857 -0.285714 -0.142857      1.000000
  0.000000 -0.142857 -0.142857      1.000000
  0.142857 -0.142857 -0.142857      1.000000
  0.285714 -0.142857 -0.142857      1.000000
  0.428571 -0.142857 -0.142857      1.000000
 -0.428571 -0.142857 -0.142857      1.000000
 -0.285714 -0.142857 -0.142857      1.000000
 -0.142857 -0.142857 -0.142857      1.000000

 Following cartesian coordinates:
            Coordinates               Weight
  0.000000  0.000000  0.000000      1.000000
  0.050211 -0.028990 -0.020499      1.000000
  0.100423 -0.057979 -0.040997      1.000000
  0.150634 -0.086969 -0.061496      1.000000
 -0.150634  0.086969  0.061496      1.000000
 -0.100423  0.057979  0.040997      1.000000
 -0.050211  0.028990  0.020499      1.000000
  0.000000  0.057979 -0.020499      1.000000
  0.050211  0.028990 -0.040997      1.000000
  0.100423  0.000000 -0.061496      1.000000
  0.150634 -0.028990 -0.081995      1.000000
 -0.150634  0.144948  0.040997      1.000000
 -0.100423  0.115958  0.020499      1.000000
 -0.050211  0.086969 -0.000000      1.000000
  0.000000  0.115958 -0.040997      1.000000
  0.050211  0.086969 -0.061496      1.000000
  0.100423  0.057979 -0.081995      1.000000
  0.150634  0.028990 -0.102494      1.000000
 -0.150634  0.202927  0.020499      1.000000
 -0.100423  0.173937 -0.000000      1.000000
 -0.050211  0.144948 -0.020499      1.000000
  0.000000  0.173937 -0.061496      1.000000
  0.050211  0.144948 -0.081995      1.000000
  0.100423  0.115958 -0.102494      1.000000
  0.150634  0.086969 -0.122992      1.000000
 -0.150634  0.260906 -0.000000      1.000000
 -0.100423  0.231916 -0.020499      1.000000
 -0.050211  0.202927 -0.040997      1.000000
  0.000000 -0.173937  0.061496      1.000000
  0.050211 -0.202927  0.040997      1.000000
  0.100423 -0.231916  0.020499      1.000000
  0.150634 -0.260906  0.000000      1.000000
 -0.150634 -0.086969  0.122992      1.000000
 -0.100423 -0.115958  0.102494      1.000000
 -0.050211 -0.144948  0.081995      1.000000
  0.000000 -0.115958  0.040997      1.000000
  0.050211 -0.144948  0.020499      1.000000
  0.100423 -0.173937  0.000000      1.000000
  0.150634 -0.202927 -0.020499      1.000000
 -0.150634 -0.028990  0.102494      1.000000
 -0.100423 -0.057979  0.081995      1.000000
 -0.050211 -0.086969  0.061496      1.000000
  0.000000 -0.057979  0.020499      1.000000
  0.050211 -0.086969  0.000000      1.000000
  0.100423 -0.115958 -0.020499      1.000000
  0.150634 -0.144948 -0.040997      1.000000
 -0.150634  0.028990  0.081995      1.000000
 -0.100423  0.000000  0.061496      1.000000
 -0.050211 -0.028990  0.040997      1.000000
  0.000000  0.000000  0.061496      1.000000
  0.050211 -0.028990  0.040997      1.000000
  0.100423 -0.057979  0.020499      1.000000
  0.150634 -0.086969  0.000000      1.000000
 -0.150634  0.086969  0.122992      1.000000
 -0.100423  0.057979  0.102494      1.000000
 -0.050211  0.028990  0.081995      1.000000
  0.000000  0.057979  0.040997      1.000000
  0.050211  0.028990  0.020499      1.000000
  0.100423  0.000000  0.000000      1.000000
  0.150634 -0.028990 -0.020499      1.000000
[...]
 -0.050211 -0.144948  0.020499      1.000000
  0.000000 -0.115958 -0.020499      1.000000
  0.050211 -0.144948 -0.040997      1.000000
  0.100423 -0.173937 -0.061496      1.000000
  0.150634 -0.202927 -0.081995      1.000000
 -0.150634 -0.028990  0.040997      1.000000
 -0.100423 -0.057979  0.020499      1.000000
 -0.050211 -0.086969  0.000000      1.000000
  0.000000 -0.057979 -0.040997      1.000000
  0.050211 -0.086969 -0.061496      1.000000
  0.100423 -0.115958 -0.081995      1.000000
  0.150634 -0.144948 -0.102494      1.000000
 -0.150634  0.028990  0.020499      1.000000
 -0.100423  0.000000 -0.000000      1.000000
 -0.050211 -0.028990 -0.020499      1.000000

 SYSTEM =  Og_FCC
 POSCAR =  He_FCC

 Startparameter for this run:
   NWRITE =      2    write-flag & timer
   PREC   = accura    normal or accurate (medium, high low for compatibility)
   ISTART =      1    job   : 0-new  1-cont  2-samecut
   ICHARG =      0    charge: 1-file 2-atom 10-const
   ISPIN  =      1    spin polarized calculation?
   LNONCOLLINEAR =      T non collinear calculations
   LSORBIT =      T    spin-orbit coupling
   INIWAV =      1    electr: 0-lowe 1-rand  2-diag
   LASPH  =      F    aspherical Exc in radial PAW
   METAGGA=      F    non-selfconsistent MetaGGA calc.

 Electronic Relaxation 1
   ENCUT  =  300.0 eV  22.05 Ry    4.70 a.u.   4.02  4.02  4.02*2*pi/ulx,y,z
   ENINI  =  300.0     initial cutoff
   ENAUG  = 1514.2 eV  augmentation charge cutoff
   NELM   =     50;   NELMIN=  2; NELMDL= -5     # of ELM steps
   EDIFF  = 0.1E-07   stopping-criterion for ELM
   LREAL  =      F    real-space projection
   NLSPLINE    = F    spline interpolate recip. space projectors
   LCOMPAT=      F    compatible to vasp.4.4
   GGA_COMPAT  = F    GGA compatible to vasp.4.4-vasp.4.6
   LMAXPAW     = -100 max onsite density
   LMAXMIX     =    2 max onsite mixed and CHGCAR
   VOSKOWN=      0    Vosko Wilk Nusair interpolation
   ROPT   =    0.00000
 Ionic relaxation
   EDIFFG = 0.1E-04   stopping-criterion for IOM
   NSW    =      1    number of steps for IOM
   NBLOCK =      1;   KBLOCK =      1    inner block; outer block
   IBRION =     -1    ionic relax: 0-MD 1-quasi-New 2-CG
   NFREE  =      5    steps in history (QN), initial steepest desc. (CG)
   ISIF   =      3    stress and relaxation
   IWAVPR =     10    prediction:  0-non 1-charg 2-wave 3-comb
   ISYM   =      0    0-nonsym 1-usesym 2-fastsym
   LCORR  =      T    Harris-Foulkes like correction to forces

   POTIM  = 0.1000    time-step for ionic-motion
   TEIN   =    0.0    initial temperature
   TEBEG  =    0.0;   TEEND  =   0.0 temperature during run
   SMASS  =  -3.00    Nose mass-parameter (am)
   estimated Nose-frequenzy (Omega)   =  0.10E-29 period in steps =****** mass=  -0.185E-27a.u.
   SCALEE = 1.0000    scale energy and forces
   NPACO  =    256;   APACO  = 16.0  distance and # of slots for P.C.
   PSTRESS=    0.0 pullay stress

  Mass of Ions in am
   POMASS =   4.00
  Ionic Valenz
   ZVAL   =   2.00
  Atomic Wigner-Seitz radii
  virtual crystal weights
   VCA    =   1.00
   NELECT =       2.0000    total number of electrons
   NUPDOWN=      -1.0000    fix difference up-down

 DOS related values:
   EMIN   =  10.00;   EMAX   =-10.00  energy-range for DOS
   EFERMI =   0.00
   ISMEAR =     0;   SIGMA  =   0.00  broadening in eV -4-tet -1-fermi 0-gaus

 Electronic relaxation 2 (details)
   IALGO  =     90    algorithm
   LDIAG  =      T    sub-space diagonalisation (order eigenvalues)
   LSUBROT=      F    optimize rotation matrix (better conditioning)
   TURBO    =      0    0=normal 1=particle mesh
   IRESTART =      0    0=no restart 2=restart with 2 vectors
   NREBOOT  =      0    no. of reboots
[...]
   99.507354    0.982371    0.982371    0.982371   -0.000000   -0.000000   -0.000000
  101.538116    0.980447    0.980447    0.980447   -0.000000   -0.000000   -0.000000
  103.568878    0.983426    0.983426    0.983426   -0.000000   -0.000000   -0.000000
  105.599640    0.982008    0.982008    0.982008   -0.000000   -0.000000   -0.000000
  107.630403    0.986071    0.986071    0.986071    0.000000    0.000000    0.000000
  109.661165    0.984769    0.984769    0.984769   -0.000000   -0.000000   -0.000000
  111.691927    0.981739    0.981739    0.981739    0.000000    0.000000    0.000000
  113.722690    0.984036    0.984036    0.984036   -0.000000   -0.000000   -0.000000
  115.753452    0.986561    0.986561    0.986561   -0.000000   -0.000000   -0.000000
  117.784214    0.987023    0.987023    0.987023   -0.000000   -0.000000   -0.000000
  119.814977    0.987292    0.987292    0.987292   -0.000000   -0.000000   -0.000000
[...]
  172.614797    0.993846    0.993846    0.993846    0.000000    0.000000    0.000000
  174.645559    0.994019    0.994019    0.994019    0.000000    0.000000    0.000000
  176.676322    0.994183    0.994183    0.994183    0.000000    0.000000    0.000000
  178.707084    0.994338    0.994338    0.994338    0.000000    0.000000    0.000000
  180.737846    0.994485    0.994485    0.994485    0.000000    0.000000    0.000000
  182.768609    0.994626    0.994626    0.994626    0.000000    0.000000    0.000000
  184.799371    0.994761    0.994761    0.994761    0.000000    0.000000    0.000000
  186.830133    0.994890    0.994890    0.994890    0.000000    0.000000    0.000000
  188.860895    0.995014    0.995013    0.995013    0.000000    0.000000    0.000000
  190.891658    0.995132    0.995132    0.995132    0.000000    0.000000    0.000000
  192.922420    0.995246    0.995246    0.995246    0.000000    0.000000    0.000000
  194.953182    0.995356    0.995356    0.995356    0.000000    0.000000    0.000000
  196.983945    0.995462    0.995462    0.995462    0.000000    0.000000    0.000000
  199.014707    0.995563    0.995563    0.995563    0.000000    0.000000    0.000000
  201.045469    0.995661    0.995661    0.995661    0.000000    0.000000    0.000000

  frequency dependent IMAGINARY DIELECTRIC FUNCTION (independent particle, no local field effects) current-current (2nd set in vasprun.xml)
     E(ev)      X         Y         Z        XY        YZ        ZX
    0.000000    0.000000    0.000000    0.000000    0.000000    0.000000    0.000000
    2.030762    0.000000    0.000000    0.000000    0.000000    0.000000    0.000000
    4.061525    0.000000    0.000000    0.000000    0.000000    0.000000    0.000000
    6.092287    0.000000    0.000000    0.000000    0.000000    0.000000    0.000000
    8.123049    0.000000    0.000000    0.000000    0.000000    0.000000    0.000000
   10.153812    0.000000    0.000000    0.000000    0.000000    0.000000    0.000000
   12.184574    0.000000    0.000000    0.000000    0.000000    0.000000    0.000000
   14.215336    0.000000    0.000000    0.000000    0.000000    0.000000    0.000000
   16.246099    0.000000    0.000000    0.000000    0.000000    0.000000    0.000000
   18.276861    0.000000    0.000000    0.000000    0.000000    0.000000    0.000000
   20.307623    0.000000    0.000000    0.000000    0.000000    0.000000    0.000000
   22.338385    0.740639    0.740639    0.740639    0.000000    0.000000    0.000000
   24.369148    0.435488    0.435493    0.435494   -0.000004   -0.000002   -0.000003
   26.399910    0.000001    0.000001    0.000001    0.000000   -0.000000   -0.000000
   28.430672    0.000000    0.000000    0.000000    0.000000    0.000000    0.000000
   30.461435    0.000000    0.000000    0.000000    0.000000    0.000000    0.000000
   32.492197    0.339015    0.339015    0.339015   -0.000000   -0.000000   -0.000000
   34.522959    0.000000    0.000000    0.000000    0.000000    0.000000    0.000000
   36.553722    0.049205    0.049205    0.049205   -0.000000   -0.000000   -0.000000
   38.584484    0.000000    0.000000    0.000000    0.000000    0.000000    0.000000
   40.615246    0.141911    0.141911    0.141911   -0.000000   -0.000000   -0.000000
   42.646009    0.130378    0.130378    0.130378   -0.000000   -0.000000   -0.000000
   44.676771    0.000000    0.000000    0.000000    0.000000    0.000000    0.000000
   46.707533    0.006701    0.006701    0.006701   -0.000000   -0.000000   -0.000000
   48.738296    0.029393    0.029393    0.029393   -0.000000   -0.000000   -0.000000
   50.769058    0.045858    0.045858    0.045858   -0.000000   -0.000000   -0.000000
   52.799820    0.122656    0.122656    0.122656   -0.000000   -0.000000   -0.000000
   54.830583    0.038873    0.038873    0.038873    0.000000    0.000000    0.000000
   56.861345    0.048328    0.048325    0.048325    0.000002    0.000001    0.000001
   58.892107    0.002060    0.002060    0.002060   -0.000000   -0.000000   -0.000000
   60.922870    0.048784    0.048784    0.048784   -0.000000   -0.000000   -0.000000
   62.953632    0.009167    0.009167    0.009167   -0.000000   -0.000000   -0.000000
   64.984394    0.075394    0.075394    0.075394   -0.000000   -0.000000   -0.000000
   67.015156    0.005214    0.005214    0.005214    0.000000    0.000000    0.000000
   69.045919    0.000000    0.000000    0.000000   -0.000000   -0.000000   -0.000000
   71.076681    0.012098    0.012098    0.012098   -0.000000   -0.000000   -0.000000
   73.107443    0.001320    0.001320    0.001320    0.000001    0.000000    0.000000
   75.138206    0.015447    0.015447    0.015447   -0.000000   -0.000000   -0.000000
   77.168968    0.015344    0.015344    0.015344   -0.000000   -0.000000   -0.000000
   79.199730    0.010379    0.010379    0.010379    0.000000    0.000000    0.000000
   81.230493    0.005214    0.005214    0.005214    0.000000    0.000000    0.000000
   83.261255    0.001086    0.001086    0.001086    0.000000    0.000000    0.000000
   85.292017    0.016624    0.016624    0.016624   -0.000000   -0.000000   -0.000000
   87.322780    0.002425    0.002425    0.002425    0.000000    0.000000    0.000000
   89.353542    0.007754    0.007754    0.007754    0.000000    0.000000    0.000000
   91.384304    0.000000    0.000000    0.000000    0.000000    0.000000    0.000000
   93.415067    0.001375    0.001375    0.001375    0.000000    0.000000    0.000000
   95.445829    0.009675    0.009675    0.009675   -0.000000   -0.000000   -0.000000
   97.476591    0.009150    0.009150    0.009150    0.000000    0.000000    0.000000
   99.507354    0.004099    0.004099    0.004099   -0.000000   -0.000000   -0.000000
  101.538116    0.000000    0.000000    0.000000    0.000000    0.000000    0.000000
  103.568878    0.004909    0.004909    0.004909    0.000000    0.000000    0.000000
  105.599640    0.002414    0.002414    0.002414   -0.000000   -0.000000   -0.000000
  107.630403    0.001773    0.001773    0.001773    0.000000    0.000000    0.000000
  109.661165    0.002034    0.002035    0.002035   -0.000001   -0.000000   -0.000000
  111.691927    0.001468    0.001468    0.001468   -0.000000   -0.000000   -0.000000
  113.722690    0.000252    0.000252    0.000252   -0.000000   -0.000000   -0.000000
  115.753452    0.000000    0.000000    0.000000    0.000000    0.000000    0.000000
  117.784214    0.001449    0.001449    0.001449   -0.000000   -0.000000   -0.000000
  119.814977    0.003886    0.003886    0.003886   -0.000000   -0.000000   -0.000000
[...]
  172.614797    0.000000    0.000000    0.000000    0.000000    0.000000    0.000000
  174.645559    0.000000    0.000000    0.000000    0.000000    0.000000    0.000000
  176.676322    0.000000    0.000000    0.000000    0.000000    0.000000    0.000000
  178.707084    0.000000    0.000000    0.000000    0.000000    0.000000    0.000000
  180.737846    0.000000    0.000000    0.000000    0.000000    0.000000    0.000000
  182.768609    0.000000    0.000000    0.000000    0.000000    0.000000    0.000000
  184.799371    0.000000    0.000000    0.000000    0.000000    0.000000    0.000000
  186.830133    0.000000    0.000000    0.000000    0.000000    0.000000    0.000000
  188.860895    0.000000    0.000000    0.000000    0.000000    0.000000    0.000000
  190.891658    0.000000    0.000000    0.000000    0.000000    0.000000    0.000000
  192.922420    0.000000    0.000000    0.000000    0.000000    0.000000    0.000000
  194.953182    0.000000    0.000000    0.000000    0.000000    0.000000    0.000000
  196.983945    0.000000    0.000000    0.000000    0.000000    0.000000    0.000000
  199.014707    0.000000    0.000000    0.000000    0.000000    0.000000    0.000000
  201.045469    0.000000    0.000000    0.000000    0.000000    0.000000    0.000000

  frequency dependent      REAL DIELECTRIC FUNCTION (independent particle, no local field effects) current-current (2nd set in vasprun.xml)
     E(ev)        X           Y           Z          XY          YZ          ZX
    0.000000    1.197950    1.197580    1.197950    0.000000    0.000000    0.000000
    2.030762    1.199430    1.199426    1.199426    0.000000    0.000000    0.000000
    4.061525    1.204443    1.204442    1.204443    0.000000    0.000000    0.000000
    6.092287    1.213519    1.213518    1.213519    0.000000    0.000000    0.000000
    8.123049    1.228025    1.228025    1.228025    0.000000    0.000000    0.000000
   10.153812    1.250717    1.250717    1.250717    0.000000    0.000000    0.000000
   12.184574    1.287631    1.287631    1.287631    0.000000    0.000000    0.000000
   14.215336    1.354822    1.354822    1.354822   -0.000000   -0.000000   -0.000000
   16.246099    1.516458    1.516458    1.516458   -0.000000   -0.000000   -0.000000
   18.276861    2.738081    2.738081    2.738081   -0.000000   -0.000000   -0.000000
   20.307623    0.568722    0.568722    0.568722    0.000000    0.000000    0.000000
   22.338385    0.953354    0.953353    0.953353    0.000000    0.000000    0.000000
   24.369148    1.065112    1.065110    1.065110    0.000001    0.000001    0.000001
   26.399910    0.776450    0.776450    0.776450   -0.000000   -0.000000   -0.000000
   28.430672    0.953975    0.953975    0.953975    0.000000    0.000000    0.000000
   30.461435    1.014156    1.014155    1.014155    0.000000    0.000000    0.000000
   32.492197    0.866876    0.866875    0.866875    0.000001    0.000000    0.000001
   34.522959    0.851772    0.851768    0.851767    0.000004    0.000001    0.000002
   36.553722    0.693653    0.693653    0.693653    0.000000    0.000000    0.000000
   38.584484    0.833973    0.833973    0.833973   -0.000000   -0.000000   -0.000000
   40.615246    0.876659    0.876659    0.876659    0.000000    0.000000    0.000000
   42.646009    0.909565    0.909565    0.909565   -0.000000   -0.000000   -0.000000
   44.676771    0.887211    0.887211    0.887211   -0.000000   -0.000000   -0.000000
   46.707533    0.929123    0.929123    0.929123    0.000000    0.000000    0.000000
   48.738296    0.917549    0.917549    0.917549    0.000000    0.000000    0.000000
   50.769058    0.968100    0.968100    0.968100   -0.000000   -0.000000   -0.000000
   52.799820    0.930210    0.930210    0.930210    0.000000    0.000000    0.000000
   54.830583    0.943959    0.943959    0.943959    0.000000    0.000000    0.000000
   56.861345    0.931724    0.931725    0.931725   -0.000001   -0.000000   -0.000000
   58.892107    0.948181    0.948181    0.948181    0.000000    0.000000    0.000000
   60.922870    0.967099    0.967099    0.967099    0.000000    0.000000    0.000000
   62.953632    0.954673    0.954673    0.954673    0.000000    0.000000    0.000000
   64.984394    0.953050    0.953050    0.953050   -0.000000   -0.000000   -0.000000
   67.015156    0.965663    0.965663    0.965663    0.000000    0.000000    0.000000
   69.045919    0.958175    0.958175    0.958175   -0.000000   -0.000000   -0.000000
   71.076681    0.959384    0.959384    0.959384    0.000000    0.000000    0.000000
   73.107443    0.967881    0.967881    0.967881   -0.000000   -0.000000   -0.000000
   75.138206    0.964448    0.964448    0.964448   -0.000000   -0.000000   -0.000000
   77.168968    0.973038    0.973038    0.973038    0.000000    0.000000    0.000000
   79.199730    0.964182    0.964182    0.964182   -0.000000   -0.000000   -0.000000
   81.230493    0.970125    0.970125    0.970125    0.000000    0.000000    0.000000
   83.261255    0.975690    0.975690    0.975690    0.000000    0.000000    0.000000
   85.292017    0.976254    0.976254    0.976254    0.000000    0.000000    0.000000
   87.322780    0.981307    0.981307    0.981307    0.000000    0.000000    0.000000
   89.353542    0.977829    0.977829    0.977829    0.000000    0.000000    0.000000
   91.384304    0.977301    0.977301    0.977301   -0.000000   -0.000000   -0.000000
   93.415067    0.978210    0.978210    0.978210   -0.000000   -0.000000   -0.000000
   95.445829    0.979266    0.979266    0.979266   -0.000000   -0.000000   -0.000000
   97.476591    0.983375    0.983375    0.983375   -0.000000   -0.000000   -0.000000
   99.507354    0.982356    0.982356    0.982356   -0.000000   -0.000000   -0.000000
  101.538116    0.980440    0.980440    0.980440   -0.000000   -0.000000   -0.000000
  103.568878    0.983412    0.983412    0.983412   -0.000000   -0.000000   -0.000000
  105.599640    0.981998    0.981998    0.981998   -0.000000   -0.000000   -0.000000
  107.630403    0.986062    0.986062    0.986062    0.000000    0.000000    0.000000
  109.661165    0.984756    0.984756    0.984756   -0.000000   -0.000000   -0.000000
  111.691927    0.981729    0.981729    0.981729   -0.000000   -0.000000   -0.000000
  113.722690    0.984031    0.984031    0.984031   -0.000000   -0.000000   -0.000000
  115.753452    0.986556    0.986556    0.986556   -0.000000   -0.000000   -0.000000
  117.784214    0.987016    0.987016    0.987016   -0.000000   -0.000000   -0.000000
  119.814977    0.987280    0.987280    0.987280   -0.000000   -0.000000   -0.000000
[...]
  172.614797    0.993844    0.993844    0.993844    0.000000    0.000000    0.000000
  174.645559    0.994017    0.994017    0.994017    0.000000    0.000000    0.000000
  176.676322    0.994181    0.994181    0.994181    0.000000    0.000000    0.000000
  178.707084    0.994336    0.994336    0.994336    0.000000    0.000000    0.000000
  180.737846    0.994484    0.994484    0.994484    0.000000    0.000000    0.000000
  182.768609    0.994625    0.994625    0.994625    0.000000    0.000000    0.000000
  184.799371    0.994759    0.994759    0.994759    0.000000    0.000000    0.000000
  186.830133    0.994888    0.994888    0.994888    0.000000    0.000000    0.000000
  188.860895    0.995012    0.995012    0.995012    0.000000    0.000000    0.000000
  190.891658    0.995131    0.995131    0.995131    0.000000    0.000000    0.000000
  192.922420    0.995245    0.995245    0.995245    0.000000    0.000000    0.000000
  194.953182    0.995354    0.995354    0.995354    0.000000    0.000000    0.000000
  196.983945    0.995460    0.995460    0.995460    0.000000    0.000000    0.000000
  199.014707    0.995562    0.995562    0.995562    0.000000    0.000000    0.000000
  201.045469    0.995660    0.995660    0.995660    0.000000    0.000000    0.000000

 The outermost node in the dielectric function lies at epsilon=  -1.0

 Spin-Orbit-Coupling matrix elements

 Ion:    1  E_soc:     -0.0000000
 l=   1
     0.0000000    -0.0000000    -0.0000000
    -0.0000000     0.0000000    -0.0000000
    -0.0000000    -0.0000000     0.0000000
 l=   2
     0.0000000    -0.0000000     0.0000000    -0.0000000    -0.0000000
    -0.0000000     0.0000000    -0.0000000    -0.0000000    -0.0000000
     0.0000000    -0.0000000     0.0000000    -0.0000000     0.0000000
    -0.0000000    -0.0000000    -0.0000000     0.0000000    -0.0000000
    -0.0000000    -0.0000000     0.0000000    -0.0000000     0.0000000
 l=   3
     0.0000000     0.0000000     0.0000000     0.0000000     0.0000000     0.0000000     0.0000000
     0.0000000     0.0000000     0.0000000     0.0000000     0.0000000     0.0000000     0.0000000
     0.0000000     0.0000000     0.0000000     0.0000000     0.0000000     0.0000000     0.0000000
     0.0000000     0.0000000     0.0000000     0.0000000     0.0000000     0.0000000     0.0000000
     0.0000000     0.0000000     0.0000000     0.0000000     0.0000000     0.0000000     0.0000000
     0.0000000     0.0000000     0.0000000     0.0000000     0.0000000     0.0000000     0.0000000
     0.0000000     0.0000000     0.0000000     0.0000000     0.0000000     0.0000000     0.0000000