 vasp.5.4.4.18Apr17-6-g9f103f2a35 (build Nov 03 2018 10:20:46) complex

 executed on             LinuxIFC date 2018.12.04  15:43:00

 INCAR:
 POTCAR:    PAW_PBE Ne_GW 22Sep2014

 POTCAR:    PAW_PBE Ne_GW 22Sep2014
   VRHFIN =Ne: s2p6

   TITEL  = PAW_PBE Ne_GW 22Sep2014
   POMASS =   20.180; ZVAL   =    8.000    mass and valenz
   ENMAX  =  432.275; ENMIN  =  324.206 eV

  PAW_PBE Ne_GW 22Sep2014               :

 POSCAR: Ne_FCC
  positions in direct lattice
  velocities in cartesian coordinates
 exchange correlation table for  LEXCH =        8
   RHO(1)=    0.500       N(1)  =     2000
   RHO(2)=  100.500       N(2)  =     4000

 ion  position               nearest neighbor table
   1  0.000  0.000  0.000-

IMPORTANT INFORMATION: All symmetrisations will be switched off!
NOSYMM: (Re-)initialisation of all symmetry stuff for point group C_1.

 KPOINTS: k-points

Automatic generation of k-mesh.
Space group operators:
 irot       det(A)        alpha          n_x          n_y          n_z        tau_x        tau_y        tau_z
    1     1.000000     0.000000     1.000000     0.000000     0.000000     0.000000     0.000000     0.000000

 Subroutine IBZKPT returns following result:

 Found     64 irreducible k-points:

 Following reciprocal coordinates:
            Coordinates               Weight
  0.000000  0.000000  0.000000      1.000000
  0.250000  0.000000 -0.000000      1.000000
  0.500000  0.000000 -0.000000      1.000000
 -0.250000 -0.000000  0.000000      1.000000
  0.000000  0.250000  0.000000      1.000000
  0.250000  0.250000 -0.000000      1.000000
  0.500000  0.250000  0.000000      1.000000
 -0.250000  0.250000  0.000000      1.000000
  0.000000  0.500000  0.000000      1.000000
  0.250000  0.500000 -0.000000      1.000000
  0.500000  0.500000 -0.000000      1.000000
 -0.250000  0.500000  0.000000      1.000000
  0.000000 -0.250000 -0.000000      1.000000
  0.250000 -0.250000 -0.000000      1.000000
  0.500000 -0.250000 -0.000000      1.000000
 -0.250000 -0.250000  0.000000      1.000000
  0.000000  0.000000  0.250000      1.000000
  0.250000  0.000000  0.250000      1.000000
  0.500000  0.000000  0.250000      1.000000
 -0.250000 -0.000000  0.250000      1.000000
  0.000000  0.250000  0.250000      1.000000
  0.250000  0.250000  0.250000      1.000000
  0.500000  0.250000  0.250000      1.000000
 -0.250000  0.250000  0.250000      1.000000
  0.000000  0.500000  0.250000      1.000000
  0.250000  0.500000  0.250000      1.000000
  0.500000  0.500000  0.250000      1.000000
 -0.250000  0.500000  0.250000      1.000000
  0.000000 -0.250000  0.250000      1.000000
  0.250000 -0.250000  0.250000      1.000000
  0.500000 -0.250000  0.250000      1.000000
 -0.250000 -0.250000  0.250000      1.000000
  0.000000  0.000000  0.500000      1.000000
  0.250000  0.000000  0.500000      1.000000
  0.500000  0.000000  0.500000      1.000000
 -0.250000 -0.000000  0.500000      1.000000
  0.000000  0.250000  0.500000      1.000000
  0.250000  0.250000  0.500000      1.000000
  0.500000  0.250000  0.500000      1.000000
 -0.250000  0.250000  0.500000      1.000000
  0.000000  0.500000  0.500000      1.000000
  0.250000  0.500000  0.500000      1.000000
  0.500000  0.500000  0.500000      1.000000
 -0.250000  0.500000  0.500000      1.000000
  0.000000 -0.250000  0.500000      1.000000
  0.250000 -0.250000  0.500000      1.000000
  0.500000 -0.250000  0.500000      1.000000
 -0.250000 -0.250000  0.500000      1.000000
  0.000000  0.000000 -0.250000      1.000000
  0.250000  0.000000 -0.250000      1.000000
  0.500000  0.000000 -0.250000      1.000000
 -0.250000 -0.000000 -0.250000      1.000000
  0.000000  0.250000 -0.250000      1.000000
  0.250000  0.250000 -0.250000      1.000000
  0.500000  0.250000 -0.250000      1.000000
 -0.250000  0.250000 -0.250000      1.000000
  0.000000  0.500000 -0.250000      1.000000
  0.250000  0.500000 -0.250000      1.000000
  0.500000  0.500000 -0.250000      1.000000
 -0.250000  0.500000 -0.250000      1.000000
  0.000000 -0.250000 -0.250000      1.000000
  0.250000 -0.250000 -0.250000      1.000000
  0.500000 -0.250000 -0.250000      1.000000
 -0.250000 -0.250000 -0.250000      1.000000

 Following cartesian coordinates:
            Coordinates               Weight
  0.000000  0.000000  0.000000      1.000000
  0.084056 -0.048530 -0.034316      1.000000
  0.168111 -0.097059 -0.068631      1.000000
 -0.084056  0.048530  0.034316      1.000000
  0.000000  0.097059 -0.034316      1.000000
  0.084056  0.048530 -0.068631      1.000000
  0.168111  0.000000 -0.102947      1.000000
 -0.084056  0.145589  0.000000      1.000000
  0.000000  0.194118 -0.068631      1.000000
  0.084056  0.145589 -0.102947      1.000000
  0.168111  0.097059 -0.137262      1.000000
 -0.084056  0.242648 -0.034316      1.000000
  0.000000 -0.097059  0.034316      1.000000
  0.084056 -0.145589 -0.000000      1.000000
  0.168111 -0.194118 -0.034316      1.000000
 -0.084056 -0.048530  0.068631      1.000000
  0.000000  0.000000  0.102947      1.000000
  0.084056 -0.048530  0.068631      1.000000
  0.168111 -0.097059  0.034316      1.000000
 -0.084056  0.048530  0.137262      1.000000
  0.000000  0.097059  0.068631      1.000000
  0.084056  0.048530  0.034316      1.000000
  0.168111  0.000000  0.000000      1.000000
 -0.084056  0.145589  0.102947      1.000000
  0.000000  0.194118  0.034316      1.000000
  0.084056  0.145589  0.000000      1.000000
  0.168111  0.097059 -0.034316      1.000000
 -0.084056  0.242648  0.068631      1.000000
  0.000000 -0.097059  0.137262      1.000000
  0.084056 -0.145589  0.102947      1.000000
  0.168111 -0.194118  0.068631      1.000000
 -0.084056 -0.048530  0.171578      1.000000
  0.000000  0.000000  0.205893      1.000000
  0.084056 -0.048530  0.171578      1.000000
  0.168111 -0.097059  0.137262      1.000000
 -0.084056  0.048530  0.240209      1.000000
  0.000000  0.097059  0.171578      1.000000
  0.084056  0.048530  0.137262      1.000000
  0.168111  0.000000  0.102947      1.000000
 -0.084056  0.145589  0.205893      1.000000
  0.000000  0.194118  0.137262      1.000000
  0.084056  0.145589  0.102947      1.000000
  0.168111  0.097059  0.068631      1.000000
 -0.084056  0.242648  0.171578      1.000000
  0.000000 -0.097059  0.240209      1.000000
  0.084056 -0.145589  0.205893      1.000000
  0.168111 -0.194118  0.171578      1.000000
 -0.084056 -0.048530  0.274525      1.000000
  0.000000  0.000000 -0.102947      1.000000
  0.084056 -0.048530 -0.137262      1.000000
  0.168111 -0.097059 -0.171578      1.000000
 -0.084056  0.048530 -0.068631      1.000000
  0.000000  0.097059 -0.137262      1.000000
  0.084056  0.048530 -0.171578      1.000000
  0.168111  0.000000 -0.205893      1.000000
 -0.084056  0.145589 -0.102947      1.000000
  0.000000  0.194118 -0.171578      1.000000
  0.084056  0.145589 -0.205893      1.000000
  0.168111  0.097059 -0.240209      1.000000
 -0.084056  0.242648 -0.137262      1.000000
  0.000000 -0.097059 -0.068631      1.000000
  0.084056 -0.145589 -0.102947      1.000000
  0.168111 -0.194118 -0.137262      1.000000
 -0.084056 -0.048530 -0.034316      1.000000

 SYSTEM =  Og_FCC
 POSCAR =  Ne_FCC

 Startparameter for this run:
   NWRITE =      2    write-flag & timer
   PREC   = accura    normal or accurate (medium, high low for compatibility)
   ISTART =      1    job   : 0-new  1-cont  2-samecut
   ICHARG =      0    charge: 1-file 2-atom 10-const
   ISPIN  =      1    spin polarized calculation?
   LNONCOLLINEAR =      T non collinear calculations
   LSORBIT =      T    spin-orbit coupling
   INIWAV =      1    electr: 0-lowe 1-rand  2-diag
   LASPH  =      F    aspherical Exc in radial PAW
   METAGGA=      F    non-selfconsistent MetaGGA calc.

 Electronic Relaxation 1
   ENCUT  =  200.0 eV  14.70 Ry    3.83 a.u.   3.43  3.43  3.43*2*pi/ulx,y,z
   ENINI  =  200.0     initial cutoff
   ENAUG  =  755.8 eV  augmentation charge cutoff
   NELM   =     50;   NELMIN=  2; NELMDL= -5     # of ELM steps
   EDIFF  = 0.1E-07   stopping-criterion for ELM
   LREAL  =      F    real-space projection
   NLSPLINE    = F    spline interpolate recip. space projectors
   LCOMPAT=      F    compatible to vasp.4.4
   GGA_COMPAT  = F    GGA compatible to vasp.4.4-vasp.4.6
   LMAXPAW     = -100 max onsite density
   LMAXMIX     =    2 max onsite mixed and CHGCAR
   VOSKOWN=      0    Vosko Wilk Nusair interpolation
   ROPT   =    0.00000
 Ionic relaxation
   EDIFFG = 0.1E-04   stopping-criterion for IOM
   NSW    =      1    number of steps for IOM
   NBLOCK =      1;   KBLOCK =      1    inner block; outer block
   IBRION =     -1    ionic relax: 0-MD 1-quasi-New 2-CG
   NFREE  =      5    steps in history (QN), initial steepest desc. (CG)
   ISIF   =      3    stress and relaxation
   IWAVPR =     10    prediction:  0-non 1-charg 2-wave 3-comb
   ISYM   =      0    0-nonsym 1-usesym 2-fastsym
   LCORR  =      T    Harris-Foulkes like correction to forces

   POTIM  = 0.1000    time-step for ionic-motion
   TEIN   =    0.0    initial temperature
   TEBEG  =    0.0;   TEEND  =   0.0 temperature during run
   SMASS  =  -3.00    Nose mass-parameter (am)
   estimated Nose-frequenzy (Omega)   =  0.10E-29 period in steps =****** mass=  -0.202E-27a.u.
   SCALEE = 1.0000    scale energy and forces
   NPACO  =    256;   APACO  = 16.0  distance and # of slots for P.C.
   PSTRESS=    0.0 pullay stress

  Mass of Ions in am
   POMASS =  20.18
  Ionic Valenz
   ZVAL   =   8.00
  Atomic Wigner-Seitz radii
  virtual crystal weights
   VCA    =   1.00
   NELECT =       8.0000    total number of electrons
   NUPDOWN=      -1.0000    fix difference up-down

 DOS related values:
   EMIN   =  10.00;   EMAX   =-10.00  energy-range for DOS
   EFERMI =   0.00
   ISMEAR =     0;   SIGMA  =   0.00  broadening in eV -4-tet -1-fermi 0-gaus

 Electronic relaxation 2 (details)
   IALGO  =     90    algorithm
   LDIAG  =      T    sub-space diagonalisation (order eigenvalues)
   LSUBROT=      F    optimize rotation matrix (better conditioning)
   TURBO    =      0    0=normal 1=particle mesh
   IRESTART =      0    0=no restart 2=restart with 2 vectors
   NREBOOT  =      0    no. of reboots
   NMIN     =      0    reboot dimension
   EREF     =   0.00    reference energy to select bands
   IMIX   =      4    mixing-type and parameters
     AMIX     =   0.40;   BMIX     =  1.00
     AMIX_MAG =   1.60;   BMIX_MAG =  1.00
     AMIN     =   0.10
     WC   =   100.;   INIMIX=   1;  MIXPRE=   1;  MAXMIX=  50

 Intra band minimization:
   WEIMIN = 0.0000     energy-eigenvalue tresh-hold
   EBREAK =  0.20E-10  absolut break condition
   DEPER  =   0.30     relativ break condition

   TIME   =   0.40     timestep for ELM

  volume/ion in A,a.u.               =      18.60       125.55
  Fermi-wavevector in a.u.,A,eV,Ry     =   1.235672  2.335082 20.774542  1.526886
  Thomas-Fermi vector in A             =   2.370312

 Write flags
   LWAVE        =      T    write WAVECAR
   LDOWNSAMPLE  =      F    k-point downsampling of WAVECAR
   LCHARG       =      F    write CHGCAR
   LVTOT        =      F    write LOCPOT, total local potential
[...]
  101.116956    0.959899    0.959899    0.959899   -0.000000    0.000000   -0.000000
  103.180568    0.948370    0.948370    0.948370   -0.000000   -0.000000   -0.000000
  105.244179    0.958332    0.958332    0.958332    0.000000    0.000000    0.000000
  107.307790    0.974444    0.974444    0.974444    0.000000    0.000000    0.000000
  109.371402    0.968761    0.968761    0.968761   -0.000000   -0.000000   -0.000000
  111.435013    0.933017    0.933017    0.933017    0.000000   -0.000000    0.000000
  113.498624    0.956608    0.956608    0.956608   -0.000000   -0.000000   -0.000000
  115.562236    0.953259    0.953259    0.953259   -0.000000   -0.000000   -0.000000
  117.625847    0.964297    0.964297    0.964297   -0.000000   -0.000000   -0.000000
  119.689458    0.961139    0.961139    0.961139   -0.000000    0.000000   -0.000000
  121.753070    0.965069    0.965069    0.965069   -0.000000    0.000000   -0.000000
[...]
  175.406965    0.984028    0.984028    0.984028   -0.000000    0.000000   -0.000000
  177.470576    0.984537    0.984537    0.984537   -0.000000   -0.000000   -0.000000
  179.534188    0.985008    0.985008    0.985008   -0.000000   -0.000000   -0.000000
  181.597799    0.985447    0.985447    0.985447   -0.000000   -0.000000   -0.000000
  183.661410    0.985861    0.985861    0.985861   -0.000000   -0.000000   -0.000000
  185.725022    0.986251    0.986251    0.986251   -0.000000   -0.000000   -0.000000
  187.788633    0.986621    0.986621    0.986621   -0.000000   -0.000000   -0.000000
  189.852244    0.986972    0.986972    0.986972   -0.000000   -0.000000   -0.000000
  191.915856    0.987308    0.987308    0.987308   -0.000000   -0.000000   -0.000000
  193.979467    0.987628    0.987628    0.987628   -0.000000   -0.000000   -0.000000
  196.043078    0.987934    0.987934    0.987934   -0.000000   -0.000000   -0.000000
  198.106690    0.988227    0.988227    0.988227   -0.000000   -0.000000   -0.000000
  200.170301    0.988508    0.988508    0.988508   -0.000000   -0.000000   -0.000000
  202.233912    0.988778    0.988778    0.988778   -0.000000   -0.000000   -0.000000
  204.297524    0.989038    0.989038    0.989038   -0.000000   -0.000000   -0.000000

  frequency dependent IMAGINARY DIELECTRIC FUNCTION (independent particle, no local field effects) current-current (2nd set in vasprun.xml)
     E(ev)      X         Y         Z        XY        YZ        ZX
    0.000000    0.000000    0.000000    0.000000    0.000000    0.000000    0.000000
    2.063611    0.000000    0.000000    0.000000    0.000000    0.000000    0.000000
    4.127223    0.000000    0.000000    0.000000    0.000000    0.000000    0.000000
    6.190834    0.000000    0.000000    0.000000    0.000000    0.000000    0.000000
    8.254445    0.000000    0.000000    0.000000    0.000000    0.000000    0.000000
   10.318057    0.339107    0.339118    0.339177   -0.000013   -0.000006   -0.000009
   12.381668    0.000000    0.000000    0.000000    0.000000    0.000000    0.000000
   14.445279    0.000000    0.000000    0.000000    0.000000    0.000000    0.000000
   16.508891    0.000000    0.000000    0.000000    0.000000    0.000000    0.000000
   18.572502    0.352773    0.352775    0.352776   -0.000002   -0.000001   -0.000001
   20.636114    0.000000    0.000000    0.000000    0.000000    0.000000    0.000000
   22.699725    0.000000    0.000000    0.000000    0.000000    0.000000    0.000000
   24.763336    0.015250    0.015249    0.015249    0.000000    0.000000    0.000000
   26.826948    3.216875    3.216858    3.216847    0.000015    0.000006    0.000011
   28.890559    0.000000    0.000000    0.000000    0.000000    0.000000    0.000000
   30.954170    0.000000    0.000000    0.000000    0.000000    0.000000    0.000000
   33.017782    0.149152    0.149150    0.149150    0.000001    0.000000    0.000001
   35.081393    0.000000    0.000000    0.000000    0.000000    0.000000    0.000000
   37.145004    0.002772    0.002773    0.002773   -0.000000   -0.000000   -0.000000
   39.208616    0.055877    0.055873    0.055863    0.000003    0.000001    0.000002
   41.272227    0.538471    0.538475    0.538486   -0.000006   -0.000004   -0.000005
   43.335838    0.034852    0.034852    0.034853   -0.000000   -0.000000   -0.000000
   45.399450    0.639658    0.639527    0.639415   -0.000476   -0.000594   -0.000338
   47.463061    0.511482    0.511494    0.511522   -0.000030   -0.000036   -0.000025
   49.526672    0.000000    0.000000    0.000000    0.000000    0.000000    0.000000
   51.590284    0.034934    0.034933    0.034933   -0.000000   -0.000001    0.000000
   53.653895    0.281562    0.281563    0.281566   -0.000001   -0.000001   -0.000001
   55.717506    0.045742    0.045743    0.045744   -0.000000   -0.000000   -0.000000
   57.781118    0.177881    0.177919    0.177904   -0.000027   -0.000013   -0.000019
   59.844729    0.135827    0.135827    0.135827   -0.000000   -0.000000   -0.000000
   61.908341    0.000431    0.000431    0.000431   -0.000000   -0.000000   -0.000000
   63.971952    0.172318    0.172319    0.172319   -0.000001   -0.000000   -0.000000
   66.035563    0.038995    0.038995    0.038995   -0.000000   -0.000000   -0.000000
   68.099175    0.114387    0.114388    0.114388   -0.000001   -0.000000   -0.000001
   70.162786    0.085102    0.085103    0.085103   -0.000001   -0.000000   -0.000000
   72.226397    0.038565    0.038565    0.038567   -0.000001   -0.000000   -0.000000
   74.290009    0.025892    0.025892    0.025892   -0.000000    0.000000   -0.000000
   76.353620    0.050606    0.050607    0.050609   -0.000001   -0.000000   -0.000001
   78.417231    0.000000    0.000000    0.000000    0.000000   -0.000000    0.000000
   80.480843    0.161462    0.161462    0.161463   -0.000000    0.000000   -0.000000
   82.544454    0.037019    0.037019    0.037018    0.000000   -0.000000    0.000000
   84.608065    0.017068    0.017068    0.017068   -0.000000   -0.000000   -0.000000
   86.671677    0.147986    0.147988    0.147992   -0.000002   -0.000001   -0.000001
   88.735288    0.020646    0.020646    0.020646    0.000000    0.000000    0.000000
   90.798899    0.058391    0.058391    0.058390    0.000000    0.000000    0.000000
   92.862511    0.002480    0.002480    0.002480    0.000000   -0.000000    0.000000
   94.926122    0.000000    0.000000    0.000000    0.000000   -0.000000   -0.000000
   96.989733    0.005170    0.005168    0.005152   -0.000003   -0.000008   -0.000002
   99.053345    0.000000    0.000000    0.000000    0.000000    0.000000    0.000000
  101.116956    0.016844    0.016842    0.016844    0.000001    0.000001    0.000001
  103.180568    0.000113    0.000113    0.000113    0.000000   -0.000000    0.000000
  105.244179    0.000000    0.000000    0.000000    0.000000   -0.000000   -0.000000
  107.307790    0.036436    0.036435    0.036434    0.000000   -0.000000    0.000000
  109.371402    0.001063    0.001063    0.001063   -0.000000   -0.000000   -0.000000
  111.435013    0.006660    0.006659    0.006660    0.000000    0.000000    0.000000
  113.498624    0.051778    0.051778    0.051778    0.000000   -0.000000    0.000000
  115.562236    0.003286    0.003286    0.003286   -0.000000    0.000000   -0.000000
  117.625847    0.000306    0.000306    0.000306   -0.000000   -0.000000   -0.000000
  119.689458    0.000093    0.000093    0.000093    0.000000    0.000000    0.000000
  121.753070    0.007130    0.007130    0.007130    0.000000    0.000000    0.000000
[...]
  175.406965    0.000000    0.000000    0.000000    0.000000    0.000000    0.000000
  177.470576    0.000000    0.000000    0.000000    0.000000    0.000000    0.000000
  179.534188    0.000000    0.000000    0.000000    0.000000    0.000000    0.000000
  181.597799    0.000000    0.000000    0.000000    0.000000    0.000000    0.000000
  183.661410    0.000000    0.000000    0.000000    0.000000    0.000000    0.000000
  185.725022    0.000000    0.000000    0.000000    0.000000    0.000000    0.000000
  187.788633    0.000000    0.000000    0.000000    0.000000    0.000000    0.000000
  189.852244    0.000000    0.000000    0.000000    0.000000    0.000000    0.000000
  191.915856    0.000000    0.000000    0.000000    0.000000    0.000000    0.000000
  193.979467    0.000000    0.000000    0.000000    0.000000    0.000000    0.000000
  196.043078    0.000000    0.000000    0.000000    0.000000    0.000000    0.000000
  198.106690    0.000000    0.000000    0.000000    0.000000    0.000000    0.000000
  200.170301    0.000000    0.000000    0.000000    0.000000    0.000000    0.000000
  202.233912    0.000000    0.000000    0.000000    0.000000    0.000000    0.000000
  204.297524    0.000000    0.000000    0.000000    0.000000    0.000000    0.000000

  frequency dependent      REAL DIELECTRIC FUNCTION (independent particle, no local field effects) current-current (2nd set in vasprun.xml)
     E(ev)        X           Y           Z          XY          YZ          ZX
    0.000000    1.341115    1.341832    1.341115    0.000000    0.000000    0.000000
    2.063611    1.344390    1.344397    1.344390    0.000000    0.000000    0.000000
    4.127223    1.354489    1.354491    1.354489    0.000000    0.000000    0.000000
    6.190834    1.374693    1.374693    1.374692    0.000000    0.000000    0.000000
    8.254445    1.418050    1.418050    1.418049    0.000000    0.000000    0.000000
   10.318057    1.239468    1.239471    1.239486   -0.000003   -0.000001   -0.000002
   12.381668    1.515283    1.515283    1.515282    0.000000    0.000000    0.000000
   14.445279    1.235612    1.235611    1.235610    0.000001    0.000000    0.000000
   16.508891    1.304005    1.304004    1.304000    0.000001    0.000001    0.000001
   18.572502    1.299312    1.299313    1.299313   -0.000000   -0.000000   -0.000000
   20.636114    0.623717    0.623719    0.623719   -0.000001   -0.000001   -0.000001
   22.699725    1.298089    1.298088    1.298086    0.000001    0.000001    0.000001
   24.763336    1.597082    1.597077    1.597070    0.000004    0.000001    0.000003
   26.826948    0.900139    0.900138    0.900136    0.000001    0.000001    0.000001
   28.890559    1.147644    1.147643    1.147643    0.000001    0.000001    0.000001
   30.954170    1.451862    1.451862    1.451867    0.000001    0.000001    0.000000
   33.017782    0.715091    0.715091    0.715092   -0.000001   -0.000000   -0.000000
   35.081393    1.090268    1.090266    1.090266    0.000001    0.000000    0.000001
   37.145004    0.833714    0.833714    0.833715    0.000000    0.000000    0.000000
   39.208616    1.108342    1.108342    1.108345   -0.000001   -0.000000   -0.000000
   41.272227    1.025429    1.025430    1.025430   -0.000001   -0.000001   -0.000001
   43.335838    1.041458    1.041458    1.041458    0.000002    0.000002    0.000001
   45.399450    0.933896    0.933861    0.933832   -0.000122   -0.000152   -0.000087
   47.463061    0.502049    0.502069    0.502069   -0.000007    0.000004   -0.000004
   49.526672    0.955317    0.955316    0.955316    0.000000    0.000000    0.000000
   51.590284    0.980092    0.980091    0.980092   -0.000000   -0.000001   -0.000000
   53.653895    0.793490    0.793489    0.793486    0.000001    0.000000    0.000000
   55.717506    0.896171    0.896171    0.896171   -0.000000   -0.000000   -0.000000
   57.781118    0.869708    0.869719    0.869716   -0.000008   -0.000004   -0.000005
   59.844729    0.839188    0.839187    0.839188    0.000000    0.000000    0.000000
   61.908341    0.879193    0.879191    0.879189    0.000001    0.000000    0.000001
   63.971952    0.985710    0.985710    0.985710    0.000000    0.000000    0.000000
   66.035563    0.963160    0.963160    0.963160   -0.000000   -0.000000   -0.000000
   68.099175    0.904141    0.904139    0.904137    0.000001    0.000000    0.000001
   70.162786    0.953907    0.953907    0.953907    0.000000   -0.000000    0.000000
   72.226397    0.868901    0.868900    0.868901    0.000001    0.000000    0.000000
   74.290009    0.866751    0.866751    0.866751   -0.000000   -0.000000   -0.000000
   76.353620    0.882698    0.882698    0.882698    0.000000    0.000000    0.000000
   78.417231    0.940231    0.940231    0.940231   -0.000000   -0.000000   -0.000000
   80.480843    0.896831    0.896831    0.896831    0.000000    0.000000    0.000000
   82.544454    0.918326    0.918326    0.918326    0.000000   -0.000000    0.000000
   84.608065    0.935893    0.935893    0.935893    0.000000    0.000000    0.000000
   86.671677    0.971633    0.971633    0.971634   -0.000000    0.000000   -0.000000
   88.735288    0.950529    0.950529    0.950529    0.000000    0.000000    0.000000
   90.798899    0.928255    0.928255    0.928255    0.000000    0.000000    0.000000
   92.862511    0.939254    0.939254    0.939253    0.000000    0.000000    0.000000
   94.926122    0.948113    0.948111    0.948111    0.000002    0.000001    0.000001
   96.989733    0.950748    0.950748    0.950743   -0.000001   -0.000002   -0.000001
   99.053345    0.939953    0.939953    0.939953    0.000000    0.000000    0.000000
  101.116956    0.959846    0.959846    0.959845   -0.000000    0.000000   -0.000000
  103.180568    0.948336    0.948336    0.948336   -0.000000   -0.000000   -0.000000
  105.244179    0.958315    0.958315    0.958315    0.000000    0.000000    0.000000
  107.307790    0.974384    0.974384    0.974384    0.000000    0.000000    0.000000
  109.371402    0.968715    0.968715    0.968715   -0.000000   -0.000000   -0.000000
  111.435013    0.932961    0.932961    0.932961    0.000000   -0.000000    0.000000
  113.498624    0.956533    0.956533    0.956533   -0.000000   -0.000000   -0.000000
  115.562236    0.953244    0.953244    0.953244   -0.000000   -0.000000   -0.000000
  117.625847    0.964281    0.964281    0.964281   -0.000000   -0.000000   -0.000000
  119.689458    0.961117    0.961117    0.961118   -0.000000    0.000000   -0.000000
  121.753070    0.965045    0.965045    0.965045   -0.000000    0.000000   -0.000000
[...]
  175.406965    0.984023    0.984023    0.984023   -0.000000   -0.000000   -0.000000
  177.470576    0.984532    0.984532    0.984532   -0.000000   -0.000000   -0.000000
  179.534188    0.985003    0.985003    0.985003   -0.000000   -0.000000   -0.000000
  181.597799    0.985442    0.985442    0.985442   -0.000000   -0.000000   -0.000000
  183.661410    0.985856    0.985856    0.985856   -0.000000   -0.000000   -0.000000
  185.725022    0.986246    0.986246    0.986246   -0.000000   -0.000000   -0.000000
  187.788633    0.986616    0.986616    0.986616   -0.000000   -0.000000   -0.000000
  189.852244    0.986968    0.986968    0.986968   -0.000000   -0.000000   -0.000000
  191.915856    0.987303    0.987303    0.987303   -0.000000   -0.000000   -0.000000
  193.979467    0.987623    0.987623    0.987623   -0.000000   -0.000000   -0.000000
  196.043078    0.987930    0.987930    0.987930   -0.000000   -0.000000   -0.000000
  198.106690    0.988223    0.988223    0.988223   -0.000000   -0.000000   -0.000000
  200.170301    0.988504    0.988504    0.988504   -0.000000   -0.000000   -0.000000
  202.233912    0.988774    0.988774    0.988774   -0.000000   -0.000000   -0.000000
  204.297524    0.989034    0.989034    0.989034   -0.000000   -0.000000   -0.000000

 The outermost node in the dielectric function lies at epsilon=  -1.0

 Spin-Orbit-Coupling matrix elements

 Ion:    1  E_soc:     -0.0001191
 l=   1
     0.0000000    -0.0000198    -0.0000198
    -0.0000198     0.0000000    -0.0000198
    -0.0000198    -0.0000198     0.0000000
 l=   2
     0.0000000     0.0000000     0.0000000     0.0000000    -0.0000000
     0.0000000     0.0000000    -0.0000000     0.0000000     0.0000000
     0.0000000    -0.0000000     0.0000000    -0.0000000     0.0000000
     0.0000000     0.0000000    -0.0000000     0.0000000     0.0000000
    -0.0000000     0.0000000     0.0000000     0.0000000     0.0000000
 l=   3
     0.0000000     0.0000000     0.0000000     0.0000000     0.0000000     0.0000000     0.0000000
     0.0000000     0.0000000     0.0000000     0.0000000     0.0000000     0.0000000     0.0000000
     0.0000000     0.0000000     0.0000000     0.0000000     0.0000000     0.0000000     0.0000000
     0.0000000     0.0000000     0.0000000     0.0000000     0.0000000     0.0000000     0.0000000
     0.0000000     0.0000000     0.0000000     0.0000000     0.0000000     0.0000000     0.0000000
     0.0000000     0.0000000     0.0000000     0.0000000     0.0000000     0.0000000     0.0000000
     0.0000000     0.0000000     0.0000000     0.0000000     0.0000000     0.0000000     0.0000000