 vasp.5.4.4.18Apr17-6-g9f103f2a35 (build Jul 09 2018 16:43:14) complex

 executed on             LinuxIFC date 2018.11.29  02:16:28

 INCAR:
 POTCAR:    PAW Og, JanMewes Oct 18

 POTCAR:    PAW Og, JanMewes Oct 18
   VRHFIN =Og : 10d 2s 6p, PE

   TITEL  = PAW Og, JanMewes Oct 18
   POMASS =    0.010; ZVAL   =   18.000    mass and valenz
   ENMAX  =  339.336; ENMIN  =  254.502 eV
   QCUT   =   -4.994; QGAM   =    9.988    optimization parameters

  PAW Og, JanMewes Oct 18               :

 POSCAR: Og_FCC
  positions in direct lattice
  velocities in cartesian coordinates

 METAGGA = SCAN     LMAXTAU =  0    LMIXTAU =  F

 ion  position               nearest neighbor table
   1  0.000  0.000  0.000-

IMPORTANT INFORMATION: All symmetrisations will be switched off!
NOSYMM: (Re-)initialisation of all symmetry stuff for point group C_1.

 KPOINTS: k-points

Automatic generation of k-mesh.
Space group operators:
 irot       det(A)        alpha          n_x          n_y          n_z        tau_x        tau_y        tau_z
    1     1.000000     0.000000     1.000000     0.000000     0.000000     0.000000     0.000000     0.000000

 Subroutine IBZKPT returns following result:

 Found    216 irreducible k-points:

 Following reciprocal coordinates:
            Coordinates               Weight
  0.000000  0.000000  0.000000      1.000000
  0.166667  0.000000  0.000000      1.000000
  0.333333  0.000000  0.000000      1.000000
  0.500000  0.000000  0.000000      1.000000
 -0.333333 -0.000000  0.000000      1.000000
 -0.166667 -0.000000 -0.000000      1.000000
 -0.000000  0.166667 -0.000000      1.000000
  0.166667  0.166667  0.000000      1.000000
  0.333333  0.166667 -0.000000      1.000000
  0.500000  0.166667  0.000000      1.000000
 -0.333333  0.166667 -0.000000      1.000000
 -0.166667  0.166667 -0.000000      1.000000
  0.000000  0.333333 -0.000000      1.000000
  0.166667  0.333333  0.000000      1.000000
  0.333333  0.333333  0.000000      1.000000
  0.500000  0.333333  0.000000      1.000000
 -0.333333  0.333333 -0.000000      1.000000
 -0.166667  0.333333 -0.000000      1.000000
  0.000000  0.500000 -0.000000      1.000000
  0.166667  0.500000  0.000000      1.000000
  0.333333  0.500000  0.000000      1.000000
  0.500000  0.500000  0.000000      1.000000
 -0.333333  0.500000 -0.000000      1.000000
 -0.166667  0.500000 -0.000000      1.000000
 -0.000000 -0.333333  0.000000      1.000000
  0.166667 -0.333333  0.000000      1.000000
  0.333333 -0.333333  0.000000      1.000000
  0.500000 -0.333333  0.000000      1.000000
 -0.333333 -0.333333 -0.000000      1.000000
 -0.166667 -0.333333  0.000000      1.000000
  0.000000 -0.166667  0.000000      1.000000
  0.166667 -0.166667  0.000000      1.000000
  0.333333 -0.166667  0.000000      1.000000
  0.500000 -0.166667  0.000000      1.000000
 -0.333333 -0.166667  0.000000      1.000000
 -0.166667 -0.166667  0.000000      1.000000
  0.000000  0.000000  0.166667      1.000000
  0.166667  0.000000  0.166667      1.000000
  0.333333 -0.000000  0.166667      1.000000
  0.500000 -0.000000  0.166667      1.000000
 -0.333333 -0.000000  0.166667      1.000000
 -0.166667  0.000000  0.166667      1.000000
 -0.000000  0.166667  0.166667      1.000000
  0.166667  0.166667  0.166667      1.000000
  0.333333  0.166667  0.166667      1.000000
  0.500000  0.166667  0.166667      1.000000
 -0.333333  0.166667  0.166667      1.000000
 -0.166667  0.166667  0.166667      1.000000
 -0.000000  0.333333  0.166667      1.000000
  0.166667  0.333333  0.166667      1.000000
  0.333333  0.333333  0.166667      1.000000
  0.500000  0.333333  0.166667      1.000000
 -0.333333  0.333333  0.166667      1.000000
 -0.166667  0.333333  0.166667      1.000000
 -0.000000  0.500000  0.166667      1.000000
  0.166667  0.500000  0.166667      1.000000
  0.333333  0.500000  0.166667      1.000000
  0.500000  0.500000  0.166667      1.000000
 -0.333333  0.500000  0.166667      1.000000
 -0.166667  0.500000  0.166667      1.000000
[...]
  0.500000  0.500000 -0.166667      1.000000
 -0.333333  0.500000 -0.166667      1.000000
 -0.166667  0.500000 -0.166667      1.000000
  0.000000 -0.333333 -0.166667      1.000000
  0.166667 -0.333333 -0.166667      1.000000
  0.333333 -0.333333 -0.166667      1.000000
  0.500000 -0.333333 -0.166667      1.000000
 -0.333333 -0.333333 -0.166667      1.000000
 -0.166667 -0.333333 -0.166667      1.000000
  0.000000 -0.166667 -0.166667      1.000000
  0.166667 -0.166667 -0.166667      1.000000
  0.333333 -0.166667 -0.166667      1.000000
  0.500000 -0.166667 -0.166667      1.000000
 -0.333333 -0.166667 -0.166667      1.000000
 -0.166667 -0.166667 -0.166667      1.000000

 Following cartesian coordinates:
            Coordinates               Weight
  0.000000  0.000000  0.000000      1.000000
  0.038382 -0.022160 -0.015669      1.000000
  0.076763 -0.044319 -0.031339      1.000000
  0.115145 -0.066479 -0.047008      1.000000
 -0.076763  0.044319  0.031339      1.000000
 -0.038382  0.022160  0.015669      1.000000
  0.000000  0.044319 -0.015669      1.000000
  0.038382  0.022160 -0.031339      1.000000
  0.076763  0.000000 -0.047008      1.000000
  0.115145 -0.022160 -0.062677      1.000000
 -0.076763  0.088639  0.015669      1.000000
 -0.038382  0.066479 -0.000000      1.000000
  0.000000  0.088639 -0.031339      1.000000
  0.038382  0.066479 -0.047008      1.000000
  0.076763  0.044319 -0.062677      1.000000
  0.115145  0.022160 -0.078346      1.000000
 -0.076763  0.132958  0.000000      1.000000
 -0.038382  0.110798 -0.015669      1.000000
  0.000000  0.132958 -0.047008      1.000000
  0.038382  0.110798 -0.062677      1.000000
  0.076763  0.088639 -0.078346      1.000000
  0.115145  0.066479 -0.094016      1.000000
 -0.076763  0.177278 -0.015669      1.000000
 -0.038382  0.155118 -0.031339      1.000000
 -0.000000 -0.088639  0.031339      1.000000
  0.038382 -0.110798  0.015669      1.000000
  0.076763 -0.132958 -0.000000      1.000000
  0.115145 -0.155118 -0.015669      1.000000
 -0.076763 -0.044319  0.062677      1.000000
 -0.038382 -0.066479  0.047008      1.000000
 -0.000000 -0.044319  0.015669      1.000000
  0.038382 -0.066479 -0.000000      1.000000
  0.076763 -0.088639 -0.015669      1.000000
  0.115145 -0.110798 -0.031339      1.000000
 -0.076763  0.000000  0.047008      1.000000
 -0.038382 -0.022160  0.031339      1.000000
 -0.000000  0.000000  0.047008      1.000000
  0.038382 -0.022160  0.031339      1.000000
  0.076763 -0.044319  0.015669      1.000000
  0.115145 -0.066479  0.000000      1.000000
 -0.076763  0.044319  0.078346      1.000000
 -0.038382  0.022160  0.062677      1.000000
 -0.000000  0.044319  0.031339      1.000000
  0.038382  0.022160  0.015669      1.000000
  0.076763  0.000000  0.000000      1.000000
  0.115145 -0.022160 -0.015669      1.000000
 -0.076763  0.088639  0.062677      1.000000
 -0.038382  0.066479  0.047008      1.000000
 -0.000000  0.088639  0.015669      1.000000
  0.038382  0.066479  0.000000      1.000000
  0.076763  0.044319 -0.015669      1.000000
  0.115145  0.022160 -0.031339      1.000000
 -0.076763  0.132958  0.047008      1.000000
 -0.038382  0.110798  0.031339      1.000000
 -0.000000  0.132958  0.000000      1.000000
  0.038382  0.110798 -0.015669      1.000000
  0.076763  0.088639 -0.031339      1.000000
  0.115145  0.066479 -0.047008      1.000000
 -0.076763  0.177278  0.031339      1.000000
 -0.038382  0.155118  0.015669      1.000000
[...]
  0.115145  0.066479 -0.141023      1.000000
 -0.076763  0.177278 -0.062677      1.000000
 -0.038382  0.155118 -0.078346      1.000000
  0.000000 -0.088639 -0.015669      1.000000
  0.038382 -0.110798 -0.031339      1.000000
  0.076763 -0.132958 -0.047008      1.000000
  0.115145 -0.155118 -0.062677      1.000000
 -0.076763 -0.044319  0.015669      1.000000
 -0.038382 -0.066479  0.000000      1.000000
  0.000000 -0.044319 -0.031339      1.000000
  0.038382 -0.066479 -0.047008      1.000000
  0.076763 -0.088639 -0.062677      1.000000
  0.115145 -0.110798 -0.078346      1.000000
 -0.076763  0.000000  0.000000      1.000000
 -0.038382 -0.022160 -0.015669      1.000000

 SYSTEM =  Og_FCC
 POSCAR =  Og_FCC

 Startparameter for this run:
   NWRITE =      2    write-flag & timer
   PREC   = accura    normal or accurate (medium, high low for compatibility)
   ISTART =      1    job   : 0-new  1-cont  2-samecut
   ICHARG =      0    charge: 1-file 2-atom 10-const
   ISPIN  =      1    spin polarized calculation?
   LNONCOLLINEAR =      T non collinear calculations
   LSORBIT =      T    spin-orbit coupling
   INIWAV =      1    electr: 0-lowe 1-rand  2-diag
   LASPH  =      F    aspherical Exc in radial PAW
   METAGGA=      F    non-selfconsistent MetaGGA calc.

 Electronic Relaxation 1
   ENCUT  =  300.0 eV  22.05 Ry    4.70 a.u.   6.13  6.13  6.13*2*pi/ulx,y,z
   ENINI  =  300.0     initial cutoff
   ENAUG  =  361.0 eV  augmentation charge cutoff
   NELM   =     50;   NELMIN=  2; NELMDL= -5     # of ELM steps
   EDIFF  = 0.1E-07   stopping-criterion for ELM
   LREAL  =      F    real-space projection
   NLSPLINE    = F    spline interpolate recip. space projectors
   LCOMPAT=      F    compatible to vasp.4.4
   GGA_COMPAT  = F    GGA compatible to vasp.4.4-vasp.4.6
   LMAXPAW     = -100 max onsite density
   LMAXMIX     =    2 max onsite mixed and CHGCAR
   VOSKOWN=      0    Vosko Wilk Nusair interpolation
   ROPT   =    0.00000
 Ionic relaxation
   EDIFFG = 0.1E-04   stopping-criterion for IOM
   NSW    =      1    number of steps for IOM
   NBLOCK =      1;   KBLOCK =      1    inner block; outer block
   IBRION =     -1    ionic relax: 0-MD 1-quasi-New 2-CG
   NFREE  =      5    steps in history (QN), initial steepest desc. (CG)
   ISIF   =      3    stress and relaxation
   IWAVPR =     10    prediction:  0-non 1-charg 2-wave 3-comb
   ISYM   =      0    0-nonsym 1-usesym 2-fastsym
   LCORR  =      T    Harris-Foulkes like correction to forces

   POTIM  = 0.1000    time-step for ionic-motion
   TEIN   =    0.0    initial temperature
   TEBEG  =    0.0;   TEEND  =   0.0 temperature during run
   SMASS  =  -3.00    Nose mass-parameter (am)
   estimated Nose-frequenzy (Omega)   =  0.10E-29 period in steps =****** mass=  -0.431E-27a.u.
   SCALEE = 1.0000    scale energy and forces
   NPACO  =    256;   APACO  = 16.0  distance and # of slots for P.C.
   PSTRESS=    0.0 pullay stress

  Mass of Ions in am
   POMASS =   0.01
  Ionic Valenz
   ZVAL   =  18.00
  Atomic Wigner-Seitz radii
  virtual crystal weights
   VCA    =   1.00
   NELECT =      18.0000    total number of electrons
   NUPDOWN=      -1.0000    fix difference up-down

 DOS related values:
   EMIN   =  10.00;   EMAX   =-10.00  energy-range for DOS
   EFERMI =   0.00
   ISMEAR =     0;   SIGMA  =   0.00  broadening in eV -4-tet -1-fermi 0-gaus

 Electronic relaxation 2 (details)
   IALGO  =     38    algorithm
   LDIAG  =      T    sub-space diagonalisation (order eigenvalues)
   LSUBROT=      F    optimize rotation matrix (better conditioning)
   TURBO    =      0    0=normal 1=particle mesh
   IRESTART =      0    0=no restart 2=restart with 2 vectors
   NREBOOT  =      0    no. of reboots
[...]
   27.161145    0.779052    0.779050    0.779051    0.000001   -0.000001    0.000000
   27.715454    0.771091    0.771089    0.771090    0.000001   -0.000001    0.000000
   28.269764    0.800739    0.800737    0.800738    0.000001   -0.000001    0.000000
   28.824073    0.849332    0.849331    0.849331    0.000001   -0.000001    0.000000
   29.378382    0.835308    0.835306    0.835307    0.000001   -0.000001    0.000000
   29.932691    0.839407    0.839405    0.839406    0.000001   -0.000001    0.000000
   30.487000    0.896180    0.896179    0.896180    0.000001   -0.000001    0.000000
   31.041309    0.804752    0.804751    0.804751    0.000001   -0.000001    0.000000
   31.595618    0.851350    0.851349    0.851350    0.000001   -0.000001    0.000000
   32.149927    0.827198    0.827197    0.827197    0.000000   -0.000001    0.000000
   32.704236    0.895491    0.895490    0.895491    0.000000   -0.000001    0.000000
[...]
   47.116273    0.891331    0.891331    0.891331    0.000000    0.000001    0.000000
   47.670582    0.896077    0.896077    0.896076    0.000000    0.000001    0.000000
   48.224891    0.900057    0.900057    0.900057    0.000000    0.000001    0.000000
   48.779200    0.903565    0.903565    0.903565    0.000000    0.000001    0.000000
   49.333509    0.906735    0.906735    0.906735    0.000000    0.000000    0.000000
   49.887818    0.909645    0.909644    0.909644    0.000000    0.000000    0.000000
   50.442127    0.912342    0.912342    0.912342    0.000000    0.000000    0.000000
   50.996436    0.914863    0.914863    0.914863    0.000000    0.000000    0.000000
   51.550745    0.917231    0.917231    0.917231    0.000000    0.000000    0.000000
   52.105054    0.919466    0.919466    0.919466    0.000000    0.000000    0.000000
   52.659363    0.921583    0.921583    0.921583    0.000000    0.000000    0.000000
   53.213673    0.923594    0.923593    0.923593    0.000000    0.000000    0.000000
   53.767982    0.925508    0.925508    0.925508    0.000000    0.000000    0.000000
   54.322291    0.927335    0.927335    0.927335    0.000000    0.000000    0.000000
   54.876600    0.929082    0.929082    0.929082    0.000000    0.000000    0.000000

  frequency dependent IMAGINARY DIELECTRIC FUNCTION (independent particle, no local field effects) current-current (2nd set in vasprun.xml)
     E(ev)      X         Y         Z        XY        YZ        ZX
    0.000000 1037.246296 1037.248330 1037.248728   -0.001814   -0.000733   -0.001314
    0.554309    3.296267    3.296273    3.296274   -0.000006   -0.000003   -0.000007
    1.108618    1.096931    1.096933    1.096933   -0.000002   -0.000001   -0.000003
    1.662927    1.443716    1.443720    1.443720   -0.000003   -0.000002   -0.000003
    2.217236    2.696737    2.696744    2.696745   -0.000007   -0.000002   -0.000006
    2.771545    1.882059    1.882064    1.882064   -0.000005   -0.000002   -0.000004
    3.325855    3.908429    3.908416    3.908421    0.000011    0.000004    0.000007
    3.880164    2.054782    2.054786    2.054787   -0.000004   -0.000002   -0.000003
    4.434473    3.594208    3.594217    3.594218   -0.000008   -0.000003   -0.000006
    4.988782    5.342826    5.342841    5.342841   -0.000012   -0.000004   -0.000009
    5.543091    2.824703    2.824766    2.824764   -0.000050   -0.000018   -0.000035
    6.097400    3.748304    3.748305    3.748306   -0.000001   -0.000003   -0.000001
    6.651709    7.293300    7.293309    7.293308   -0.000008    0.000029   -0.000011
    7.206018    3.873593    3.873598    3.873598   -0.000004   -0.000004   -0.000003
    7.760327    2.371416    2.371411    2.371411    0.000005    0.000002    0.000003
    8.314636    2.369658    2.369662    2.369664   -0.000004   -0.000002   -0.000004
    8.868945    3.259443    3.259439    3.259443    0.000001   -0.000002   -0.000001
    9.423255    0.631153    0.631150    0.631150    0.000002    0.000000    0.000001
    9.977564    0.924844    0.924841    0.924840    0.000003    0.000001    0.000001
   10.531873    0.950921    0.950985    0.950995   -0.000056   -0.000025   -0.000040
   11.086182    0.726391    0.726390    0.726390    0.000000    0.000000   -0.000000
   11.640491    0.397814    0.397813    0.397812    0.000001    0.000000   -0.000001
   12.194800    0.427863    0.427848    0.427846    0.000013    0.000003    0.000008
   12.749109    0.356975    0.356973    0.356973    0.000002   -0.000000   -0.000001
   13.303418    0.247682    0.247679    0.247682   -0.000004   -0.000004   -0.000009
   13.857727    0.493335    0.493336    0.493337    0.000003   -0.000004    0.000005
   14.412036    0.386207    0.386207    0.386207    0.000004   -0.000003    0.000003
   14.966345    0.234236    0.234255    0.234246    0.000009    0.000004    0.000003
   15.520654    0.295525    0.295527    0.295526   -0.000004    0.000006    0.000001
   16.074964    1.030200    1.030200    1.030200   -0.000001    0.000003    0.000001
   16.629273    0.707000    0.706998    0.706998    0.000001    0.000003    0.000002
   17.183582    0.331267    0.331267    0.331266    0.000000    0.000001    0.000001
   17.737891    0.683139    0.683138    0.683138   -0.000000    0.000002    0.000001
   18.292200    0.373581    0.373581    0.373581   -0.000001    0.000001    0.000001
   18.846509    0.449273    0.449271    0.449271    0.000001    0.000003    0.000001
   19.400818    0.095759    0.095759    0.095759   -0.000000    0.000000    0.000001
   19.955127    0.207064    0.207063    0.207063    0.000000    0.000001    0.000001
   20.509436    0.076617    0.076618    0.076618   -0.000001    0.000001    0.000001
   21.063745    0.040491    0.040492    0.040492   -0.000001    0.000001    0.000001
   21.618054    0.016768    0.016769    0.016768   -0.000001    0.000002    0.000002
   22.172364    0.005569    0.005571    0.005570   -0.000002    0.000005    0.000004
   22.726673    0.003753    0.003771    0.003762    0.000002    0.000005   -0.000007
   23.280982    0.002996    0.002996    0.002996    0.000001   -0.000002   -0.000002
   23.835291    0.002671    0.002672    0.002672    0.000000   -0.000001   -0.000001
   24.389600    0.002672    0.002672    0.002672    0.000000   -0.000001   -0.000001
   24.943909    0.003256    0.003256    0.003256    0.000000   -0.000000   -0.000001
   25.498218    0.008727    0.008727    0.008727    0.000000   -0.000000   -0.000000
   26.052527    0.015947    0.015947    0.015947    0.000000   -0.000000   -0.000000
   26.606836    0.019861    0.019861    0.019861    0.000000   -0.000000   -0.000000
   27.161145    0.100991    0.100991    0.100991   -0.000000   -0.000000   -0.000000
   27.715454    0.023913    0.023913    0.023913    0.000000   -0.000000   -0.000000
   28.269764    0.009909    0.009909    0.009909    0.000000   -0.000000   -0.000000
   28.824073    0.024579    0.024579    0.024579    0.000000   -0.000000   -0.000000
   29.378382    0.069877    0.069878    0.069878    0.000000   -0.000000   -0.000000
   29.932691    0.053841    0.053841    0.053841    0.000000   -0.000000   -0.000000
   30.487000    0.043123    0.043123    0.043123    0.000000   -0.000000   -0.000000
   31.041309    0.096349    0.096349    0.096349    0.000000    0.000000   -0.000000
   31.595618    0.075632    0.075633    0.075633   -0.000001   -0.000000   -0.000001
   32.149927    0.055149    0.055149    0.055149    0.000001    0.000000    0.000000
   32.704236    0.054048    0.054048    0.054048    0.000000    0.000000   -0.000000
[...]
   47.116273    0.000503    0.000503    0.000503    0.000001    0.000000   -0.000000
   47.670582    0.000339    0.000339    0.000339    0.000000    0.000000   -0.000000
   48.224891    0.000256    0.000256    0.000256    0.000000    0.000000   -0.000000
   48.779200    0.000204    0.000204    0.000204    0.000000    0.000000   -0.000000
   49.333509    0.000169    0.000169    0.000169    0.000000    0.000000   -0.000000
   49.887818    0.000142    0.000142    0.000142    0.000000    0.000000   -0.000000
   50.442127    0.000122    0.000122    0.000122    0.000000    0.000000   -0.000000
   50.996436    0.000106    0.000106    0.000106    0.000000    0.000000   -0.000000
   51.550745    0.000094    0.000094    0.000094    0.000000    0.000000   -0.000000
   52.105054    0.000083    0.000083    0.000083    0.000000    0.000000   -0.000000
   52.659363    0.000074    0.000074    0.000074    0.000000    0.000000   -0.000000
   53.213673    0.000067    0.000067    0.000067    0.000000    0.000000   -0.000000
   53.767982    0.000060    0.000060    0.000060    0.000000    0.000000   -0.000000
   54.322291    0.000055    0.000055    0.000055    0.000000    0.000000   -0.000000
   54.876600    0.000050    0.000050    0.000050    0.000000    0.000000   -0.000000

  frequency dependent      REAL DIELECTRIC FUNCTION (independent particle, no local field effects) current-current (2nd set in vasprun.xml)
     E(ev)        X           Y           Z          XY          YZ          ZX
    0.000000  -35.246063  -35.246136  -35.246151    0.000077    0.000008    0.000058
    0.554309  -30.508841  -30.508904  -30.508917    0.000055    0.000025    0.000039
    1.108618   -2.260865   -2.260872   -2.260875    0.000007    0.000003    0.000005
    1.662927    3.903991    3.903997    3.903997   -0.000005   -0.000002   -0.000004
    2.217236   -0.097335   -0.097343   -0.097343    0.000007    0.000004    0.000005
    2.771545    5.872077    5.872086    5.872086   -0.000007   -0.000003   -0.000005
    3.325855    1.425695    1.425685    1.425686    0.000008    0.000005    0.000006
    3.880164    2.834609    2.834611    2.834610   -0.000001    0.000000   -0.000000
    4.434473    2.980368    2.980369    2.980368   -0.000000    0.000000   -0.000000
    4.988782   -0.606770   -0.606774   -0.606775    0.000004    0.000001    0.000002
    5.543091    2.583137    2.583153    2.583152   -0.000015   -0.000009   -0.000013
    6.097400    0.784313    0.784318    0.784317   -0.000003    0.000001   -0.000002
    6.651709    2.324336    2.324317    2.324324    0.000008    0.000017    0.000004
    7.206018   -2.064449   -2.064456   -2.064458    0.000005    0.000006    0.000003
    7.760327   -0.959154   -0.959159   -0.959161    0.000004    0.000002    0.000003
    8.314636   -0.682584   -0.682597   -0.682599    0.000010    0.000004    0.000007
    8.868945   -0.454316   -0.454322   -0.454319    0.000003    0.000003    0.000002
    9.423255   -1.946001   -1.945996   -1.945997   -0.000002   -0.000000   -0.000001
    9.977564   -0.449415   -0.449419   -0.449421    0.000004    0.000002    0.000003
   10.531873   -0.742510   -0.742493   -0.742491   -0.000015   -0.000002   -0.000010
   11.086182   -0.800694   -0.800695   -0.800696    0.000002    0.000001    0.000001
   11.640491   -0.549297   -0.549297   -0.549298    0.000001    0.000001    0.000001
   12.194800   -0.067349   -0.067323   -0.067320   -0.000021   -0.000010   -0.000015
   12.749109   -0.010507   -0.010502   -0.010500   -0.000004   -0.000004   -0.000002
   13.303418    0.214063    0.214063    0.214067   -0.000002   -0.000006    0.000000
   13.857727    0.452172    0.452187    0.452182   -0.000003    0.000006   -0.000000
   14.412036    0.142359    0.142369    0.142364   -0.000001    0.000006    0.000000
   14.966345    0.395874    0.395895    0.395885   -0.000010    0.000025    0.000002
   15.520654    0.740258    0.740251    0.740254   -0.000001   -0.000004   -0.000000
   16.074964    0.544290    0.544287    0.544288    0.000000   -0.000001    0.000000
   16.629273    0.300342    0.300341    0.300341    0.000000   -0.000001    0.000000
   17.183582    0.544228    0.544228    0.544228   -0.000000    0.000000   -0.000001
   17.737891    0.278921    0.278921    0.278921   -0.000000   -0.000000   -0.000000
   18.292200    0.549839    0.549840    0.549840   -0.000001   -0.000000   -0.000000
   18.846509    0.169963    0.169965    0.169964   -0.000001   -0.000000   -0.000001
   19.400818    0.255311    0.255311    0.255312    0.000001    0.000000    0.000001
   19.955127    0.535956    0.535957    0.535956    0.000000    0.000001    0.000000
   20.509436    0.383466    0.383468    0.383468    0.000000   -0.000000    0.000000
   21.063745    0.463304    0.463306    0.463305   -0.000000    0.000001   -0.000000
   21.618054    0.491318    0.491322    0.491320   -0.000000    0.000002    0.000000
   22.172364    0.561836    0.561845    0.561841   -0.000000    0.000005   -0.000000
   22.726673    0.607132    0.607112    0.607122    0.000004   -0.000022   -0.000009
   23.280982    0.643558    0.643552    0.643555    0.000000   -0.000005   -0.000001
   23.835291    0.675115    0.675112    0.675114    0.000000   -0.000003   -0.000000
   24.389600    0.704008    0.704005    0.704007    0.000000   -0.000002   -0.000000
   24.943909    0.732588    0.732586    0.732587    0.000000   -0.000002   -0.000000
   25.498218    0.768924    0.768923    0.768923    0.000000   -0.000001   -0.000000
   26.052527    0.777405    0.777404    0.777405    0.000000   -0.000001   -0.000000
   26.606836    0.796205    0.796204    0.796205    0.000000   -0.000001   -0.000000
   27.161145    0.786477    0.786476    0.786476    0.000000   -0.000001   -0.000000
   27.715454    0.778770    0.778768    0.778769    0.000000   -0.000001   -0.000000
   28.269764    0.808224    0.808223    0.808224    0.000000   -0.000001   -0.000000
   28.824073    0.856449    0.856448    0.856449    0.000000   -0.000001   -0.000000
   29.378382    0.841812    0.841811    0.841812    0.000000   -0.000001   -0.000000
   29.932691    0.845755    0.845754    0.845755    0.000000   -0.000001   -0.000000
   30.487000    0.902373    0.902372    0.902373    0.000000   -0.000001   -0.000000
   31.041309    0.810380    0.810379    0.810380    0.000000   -0.000001   -0.000000
   31.595618    0.856880    0.856879    0.856880    0.000000   -0.000001   -0.000000
   32.149927    0.832704    0.832704    0.832704   -0.000000   -0.000001   -0.000000
   32.704236    0.900779    0.900778    0.900779    0.000000   -0.000001   -0.000000
[...]
   47.116273    0.894049    0.894049    0.894048   -0.000000    0.000001    0.000000
   47.670582    0.898733    0.898733    0.898732   -0.000000    0.000001    0.000000
   48.224891    0.902653    0.902654    0.902653   -0.000000    0.000001    0.000000
   48.779200    0.906103    0.906103    0.906103   -0.000000    0.000000    0.000000
   49.333509    0.909217    0.909217    0.909217   -0.000000    0.000000    0.000000
   49.887818    0.912072    0.912072    0.912071   -0.000000    0.000000    0.000000
   50.442127    0.914717    0.914717    0.914716   -0.000000    0.000000    0.000000
   50.996436    0.917186    0.917186    0.917186   -0.000000    0.000000    0.000000
   51.550745    0.919505    0.919505    0.919504   -0.000000    0.000000    0.000000
   52.105054    0.921692    0.921692    0.921691   -0.000000    0.000000    0.000000
   52.659363    0.923762    0.923762    0.923762   -0.000000    0.000000    0.000000
   53.213673    0.925727    0.925727    0.925727   -0.000000    0.000000    0.000000
   53.767982    0.927598    0.927598    0.927598   -0.000000    0.000000    0.000000
   54.322291    0.929383    0.929383    0.929383   -0.000000    0.000000    0.000000
   54.876600    0.931089    0.931089    0.931089   -0.000000    0.000000    0.000000

 The outermost node in the dielectric function lies at epsilon=  12.9

 Spin-Orbit-Coupling matrix elements

 Ion:    1  E_soc:    -32.5512340
 l=   1
     0.0000000    -5.0054259    -5.0054256
    -5.0054259     0.0000000    -5.0054256
    -5.0054256    -5.0054256     0.0000000
 l=   2
     0.0000000    -0.0839610     0.0000000    -0.0839610    -0.3358105
    -0.0839610     0.0000000    -0.2518579    -0.0839694    -0.0839610
     0.0000000    -0.2518579     0.0000000    -0.2518579     0.0000000
    -0.0839610    -0.0839694    -0.2518579     0.0000000    -0.0839610
    -0.3358105    -0.0839610     0.0000000    -0.0839610     0.0000000
 l=   3
     0.0000000     0.0000000     0.0000000     0.0000000     0.0000000     0.0000000     0.0000000
     0.0000000     0.0000000     0.0000000     0.0000000     0.0000000     0.0000000     0.0000000
     0.0000000     0.0000000     0.0000000     0.0000000     0.0000000     0.0000000     0.0000000
     0.0000000     0.0000000     0.0000000     0.0000000     0.0000000     0.0000000     0.0000000
     0.0000000     0.0000000     0.0000000     0.0000000     0.0000000     0.0000000     0.0000000
     0.0000000     0.0000000     0.0000000     0.0000000     0.0000000     0.0000000     0.0000000
     0.0000000     0.0000000     0.0000000     0.0000000     0.0000000     0.0000000     0.0000000