 vasp.5.4.4.18Apr17-6-g9f103f2a35 (build Jul 09 2018 16:43:14) complex

 executed on             LinuxIFC date 2018.11.21  22:35:00

 INCAR:
 POTCAR:    PAW_PBE He_GW 13May2007

 POTCAR:    PAW_PBE He_GW 13May2007
   VRHFIN =He: 1s

   TITEL  = PAW_PBE He_GW 13May2007
   POMASS =    4.000; ZVAL   =    2.000    mass and valenz
   ENMAX  =  405.780; ENMIN  =  304.335 eV

  PAW_PBE He_GW 13May2007               :

 POSCAR: He_FCC
  positions in direct lattice
  velocities in cartesian coordinates
 exchange correlation table for  LEXCH =        8
   RHO(1)=    0.500       N(1)  =     2000
   RHO(2)=  100.500       N(2)  =     4000

 ion  position               nearest neighbor table
   1  0.000  0.000  0.000-

IMPORTANT INFORMATION: All symmetrisations will be switched off!
NOSYMM: (Re-)initialisation of all symmetry stuff for point group C_1.

 KPOINTS: k-points

Automatic generation of k-mesh.
Space group operators:
 irot       det(A)        alpha          n_x          n_y          n_z        tau_x        tau_y        tau_z
    1     1.000000     0.000000     1.000000     0.000000     0.000000     0.000000     0.000000     0.000000

 Subroutine IBZKPT returns following result:

 Found    216 irreducible k-points:

 Following reciprocal coordinates:
            Coordinates               Weight
  0.000000  0.000000  0.000000      1.000000
  0.166667 -0.000000  0.000000      1.000000
  0.333333 -0.000000  0.000000      1.000000
  0.500000 -0.000000  0.000000      1.000000
 -0.333333  0.000000 -0.000000      1.000000
 -0.166667  0.000000 -0.000000      1.000000
  0.000000  0.166667 -0.000000      1.000000
  0.166667  0.166667  0.000000      1.000000
  0.333333  0.166667  0.000000      1.000000
  0.500000  0.166667  0.000000      1.000000
 -0.333333  0.166667 -0.000000      1.000000
 -0.166667  0.166667 -0.000000      1.000000
  0.000000  0.333333  0.000000      1.000000
  0.166667  0.333333  0.000000      1.000000
  0.333333  0.333333  0.000000      1.000000
  0.500000  0.333333  0.000000      1.000000
 -0.333333  0.333333 -0.000000      1.000000
 -0.166667  0.333333  0.000000      1.000000
  0.000000  0.500000  0.000000      1.000000
  0.166667  0.500000  0.000000      1.000000
  0.333333  0.500000  0.000000      1.000000
  0.500000  0.500000  0.000000      1.000000
 -0.333333  0.500000 -0.000000      1.000000
 -0.166667  0.500000 -0.000000      1.000000
  0.000000 -0.333333  0.000000      1.000000
  0.166667 -0.333333 -0.000000      1.000000
  0.333333 -0.333333  0.000000      1.000000
  0.500000 -0.333333 -0.000000      1.000000
 -0.333333 -0.333333 -0.000000      1.000000
 -0.166667 -0.333333  0.000000      1.000000
  0.000000 -0.166667  0.000000      1.000000
  0.166667 -0.166667  0.000000      1.000000
  0.333333 -0.166667  0.000000      1.000000
  0.500000 -0.166667  0.000000      1.000000
 -0.333333 -0.166667 -0.000000      1.000000
 -0.166667 -0.166667 -0.000000      1.000000
  0.000000  0.000000  0.166667      1.000000
  0.166667 -0.000000  0.166667      1.000000
  0.333333 -0.000000  0.166667      1.000000
  0.500000 -0.000000  0.166667      1.000000
 -0.333333  0.000000  0.166667      1.000000
 -0.166667  0.000000  0.166667      1.000000
  0.000000  0.166667  0.166667      1.000000
  0.166667  0.166667  0.166667      1.000000
  0.333333  0.166667  0.166667      1.000000
  0.500000  0.166667  0.166667      1.000000
 -0.333333  0.166667  0.166667      1.000000
 -0.166667  0.166667  0.166667      1.000000
  0.000000  0.333333  0.166667      1.000000
  0.166667  0.333333  0.166667      1.000000
  0.333333  0.333333  0.166667      1.000000
  0.500000  0.333333  0.166667      1.000000
 -0.333333  0.333333  0.166667      1.000000
 -0.166667  0.333333  0.166667      1.000000
  0.000000  0.500000  0.166667      1.000000
  0.166667  0.500000  0.166667      1.000000
  0.333333  0.500000  0.166667      1.000000
  0.500000  0.500000  0.166667      1.000000
 -0.333333  0.500000  0.166667      1.000000
 -0.166667  0.500000  0.166667      1.000000
[...]
  0.500000  0.500000 -0.166667      1.000000
 -0.333333  0.500000 -0.166667      1.000000
 -0.166667  0.500000 -0.166667      1.000000
  0.000000 -0.333333 -0.166667      1.000000
  0.166667 -0.333333 -0.166667      1.000000
  0.333333 -0.333333 -0.166667      1.000000
  0.500000 -0.333333 -0.166667      1.000000
 -0.333333 -0.333333 -0.166667      1.000000
 -0.166667 -0.333333 -0.166667      1.000000
  0.000000 -0.166667 -0.166667      1.000000
  0.166667 -0.166667 -0.166667      1.000000
  0.333333 -0.166667 -0.166667      1.000000
  0.500000 -0.166667 -0.166667      1.000000
 -0.333333 -0.166667 -0.166667      1.000000
 -0.166667 -0.166667 -0.166667      1.000000

 Following cartesian coordinates:
            Coordinates               Weight
  0.000000  0.000000  0.000000      1.000000
  0.058580 -0.033821 -0.023915      1.000000
  0.117160 -0.067642 -0.047830      1.000000
  0.175740 -0.101463 -0.071745      1.000000
 -0.117160  0.067642  0.047830      1.000000
 -0.058580  0.033821  0.023915      1.000000
  0.000000  0.067642 -0.023915      1.000000
  0.058580  0.033821 -0.047830      1.000000
  0.117160  0.000000 -0.071745      1.000000
  0.175740 -0.033821 -0.095661      1.000000
 -0.117160  0.135285  0.023915      1.000000
 -0.058580  0.101463 -0.000000      1.000000
  0.000000  0.135285 -0.047830      1.000000
  0.058580  0.101463 -0.071745      1.000000
  0.117160  0.067642 -0.095661      1.000000
  0.175740  0.033821 -0.119576      1.000000
 -0.117160  0.202927 -0.000000      1.000000
 -0.058580  0.169106 -0.023915      1.000000
  0.000000  0.202927 -0.071745      1.000000
  0.058580  0.169106 -0.095661      1.000000
  0.117160  0.135285 -0.119576      1.000000
  0.175740  0.101463 -0.143491      1.000000
 -0.117160  0.270569 -0.023915      1.000000
 -0.058580  0.236748 -0.047830      1.000000
  0.000000 -0.135285  0.047830      1.000000
  0.058580 -0.169106  0.023915      1.000000
  0.117160 -0.202927  0.000000      1.000000
  0.175740 -0.236748 -0.023915      1.000000
 -0.117160 -0.067642  0.095661      1.000000
 -0.058580 -0.101463  0.071745      1.000000
  0.000000 -0.067642  0.023915      1.000000
  0.058580 -0.101463  0.000000      1.000000
  0.117160 -0.135285 -0.023915      1.000000
  0.175740 -0.169106 -0.047830      1.000000
 -0.117160 -0.000000  0.071745      1.000000
 -0.058580 -0.033821  0.047830      1.000000
  0.000000  0.000000  0.071745      1.000000
  0.058580 -0.033821  0.047830      1.000000
  0.117160 -0.067642  0.023915      1.000000
  0.175740 -0.101463  0.000000      1.000000
 -0.117160  0.067642  0.119576      1.000000
 -0.058580  0.033821  0.095661      1.000000
  0.000000  0.067642  0.047830      1.000000
  0.058580  0.033821  0.023915      1.000000
  0.117160  0.000000  0.000000      1.000000
  0.175740 -0.033821 -0.023915      1.000000
 -0.117160  0.135285  0.095661      1.000000
 -0.058580  0.101463  0.071745      1.000000
  0.000000  0.135285  0.023915      1.000000
  0.058580  0.101463 -0.000000      1.000000
  0.117160  0.067642 -0.023915      1.000000
  0.175740  0.033821 -0.047830      1.000000
 -0.117160  0.202927  0.071745      1.000000
 -0.058580  0.169106  0.047830      1.000000
  0.000000  0.202927 -0.000000      1.000000
  0.058580  0.169106 -0.023915      1.000000
  0.117160  0.135285 -0.047830      1.000000
  0.175740  0.101463 -0.071745      1.000000
 -0.117160  0.270569  0.047830      1.000000
 -0.058580  0.236748  0.023915      1.000000
[...]
  0.175740  0.101463 -0.215236      1.000000
 -0.117160  0.270569 -0.095661      1.000000
 -0.058580  0.236748 -0.119576      1.000000
  0.000000 -0.135285 -0.023915      1.000000
  0.058580 -0.169106 -0.047830      1.000000
  0.117160 -0.202927 -0.071745      1.000000
  0.175740 -0.236748 -0.095661      1.000000
 -0.117160 -0.067642  0.023915      1.000000
 -0.058580 -0.101463  0.000000      1.000000
  0.000000 -0.067642 -0.047830      1.000000
  0.058580 -0.101463 -0.071745      1.000000
  0.117160 -0.135285 -0.095661      1.000000
  0.175740 -0.169106 -0.119576      1.000000
 -0.117160 -0.000000 -0.000000      1.000000
 -0.058580 -0.033821 -0.023915      1.000000

 SYSTEM =  Og_FCC
 POSCAR =  He_FCC

 Startparameter for this run:
   NWRITE =      2    write-flag & timer
   PREC   = accura    normal or accurate (medium, high low for compatibility)
   ISTART =      1    job   : 0-new  1-cont  2-samecut
   ICHARG =      0    charge: 1-file 2-atom 10-const
   ISPIN  =      1    spin polarized calculation?
   LNONCOLLINEAR =      T non collinear calculations
   LSORBIT =      T    spin-orbit coupling
   INIWAV =      1    electr: 0-lowe 1-rand  2-diag
   LASPH  =      F    aspherical Exc in radial PAW
   METAGGA=      F    non-selfconsistent MetaGGA calc.

 Electronic Relaxation 1
   ENCUT  =  300.0 eV  22.05 Ry    4.70 a.u.   4.02  4.02  4.02*2*pi/ulx,y,z
   ENINI  =  300.0     initial cutoff
   ENAUG  = 1514.2 eV  augmentation charge cutoff
   NELM   =     50;   NELMIN=  2; NELMDL= -5     # of ELM steps
   EDIFF  = 0.1E-07   stopping-criterion for ELM
   LREAL  =      F    real-space projection
   NLSPLINE    = F    spline interpolate recip. space projectors
   LCOMPAT=      F    compatible to vasp.4.4
   GGA_COMPAT  = F    GGA compatible to vasp.4.4-vasp.4.6
   LMAXPAW     = -100 max onsite density
   LMAXMIX     =    2 max onsite mixed and CHGCAR
   VOSKOWN=      0    Vosko Wilk Nusair interpolation
   ROPT   =    0.00000
 Ionic relaxation
   EDIFFG = 0.1E-04   stopping-criterion for IOM
   NSW    =      1    number of steps for IOM
   NBLOCK =      1;   KBLOCK =      1    inner block; outer block
   IBRION =     -1    ionic relax: 0-MD 1-quasi-New 2-CG
   NFREE  =      5    steps in history (QN), initial steepest desc. (CG)
   ISIF   =      3    stress and relaxation
   IWAVPR =     10    prediction:  0-non 1-charg 2-wave 3-comb
   ISYM   =      0    0-nonsym 1-usesym 2-fastsym
   LCORR  =      T    Harris-Foulkes like correction to forces

   POTIM  = 0.1000    time-step for ionic-motion
   TEIN   =    0.0    initial temperature
   TEBEG  =    0.0;   TEEND  =   0.0 temperature during run
   SMASS  =  -3.00    Nose mass-parameter (am)
   estimated Nose-frequenzy (Omega)   =  0.10E-29 period in steps =****** mass=  -0.185E-27a.u.
   SCALEE = 1.0000    scale energy and forces
   NPACO  =    256;   APACO  = 16.0  distance and # of slots for P.C.
   PSTRESS=    0.0 pullay stress

  Mass of Ions in am
   POMASS =   4.00
  Ionic Valenz
   ZVAL   =   2.00
  Atomic Wigner-Seitz radii
  virtual crystal weights
   VCA    =   1.00
   NELECT =       2.0000    total number of electrons
   NUPDOWN=      -1.0000    fix difference up-down

 DOS related values:
   EMIN   =  10.00;   EMAX   =-10.00  energy-range for DOS
   EFERMI =   0.00
   ISMEAR =     0;   SIGMA  =   0.00  broadening in eV -4-tet -1-fermi 0-gaus

 Electronic relaxation 2 (details)
   IALGO  =     90    algorithm
   LDIAG  =      T    sub-space diagonalisation (order eigenvalues)
   LSUBROT=      F    optimize rotation matrix (better conditioning)
   TURBO    =      0    0=normal 1=particle mesh
   IRESTART =      0    0=no restart 2=restart with 2 vectors
   NREBOOT  =      0    no. of reboots
[...]
   97.969415    0.982285    0.982285    0.982285   -0.000000   -0.000000   -0.000000
   99.968791    0.978583    0.978583    0.978583   -0.000000   -0.000000   -0.000000
  101.968167    0.982195    0.982196    0.982196   -0.000000   -0.000000   -0.000000
  103.967542    0.982597    0.982597    0.982597   -0.000000   -0.000000   -0.000000
  105.966918    0.981861    0.981861    0.981861    0.000000    0.000000    0.000000
  107.966294    0.985302    0.985302    0.985302   -0.000000   -0.000000   -0.000000
  109.965670    0.986819    0.986819    0.986819   -0.000000   -0.000000   -0.000000
  111.965046    0.985666    0.985666    0.985666    0.000000    0.000000    0.000000
  113.964421    0.986163    0.986163    0.986163    0.000000    0.000000    0.000000
  115.963797    0.984403    0.984403    0.984403    0.000000    0.000000    0.000000
  117.963173    0.985728    0.985728    0.985728   -0.000000   -0.000000   -0.000000
[...]
  169.946944    0.993611    0.993611    0.993611   -0.000000   -0.000000   -0.000000
  171.946320    0.993794    0.993794    0.993794   -0.000000   -0.000000   -0.000000
  173.945696    0.993966    0.993966    0.993966   -0.000000   -0.000000   -0.000000
  175.945072    0.994129    0.994129    0.994129   -0.000000   -0.000000   -0.000000
  177.944448    0.994284    0.994284    0.994284   -0.000000   -0.000000   -0.000000
  179.943823    0.994431    0.994431    0.994431   -0.000000   -0.000000   -0.000000
  181.943199    0.994572    0.994572    0.994572   -0.000000   -0.000000   -0.000000
  183.942575    0.994707    0.994707    0.994707   -0.000000   -0.000000   -0.000000
  185.941951    0.994836    0.994836    0.994836   -0.000000   -0.000000   -0.000000
  187.941327    0.994960    0.994960    0.994960   -0.000000   -0.000000   -0.000000
  189.940702    0.995078    0.995078    0.995078   -0.000000   -0.000000   -0.000000
  191.940078    0.995193    0.995193    0.995193   -0.000000   -0.000000   -0.000000
  193.939454    0.995303    0.995303    0.995303   -0.000000   -0.000000   -0.000000
  195.938830    0.995408    0.995408    0.995408   -0.000000   -0.000000   -0.000000
  197.938206    0.995510    0.995510    0.995510   -0.000000   -0.000000   -0.000000

  frequency dependent IMAGINARY DIELECTRIC FUNCTION (independent particle, no local field effects) current-current (2nd set in vasprun.xml)
     E(ev)      X         Y         Z        XY        YZ        ZX
    0.000000    0.000000    0.000000    0.000000    0.000000    0.000000    0.000000
    1.999376    0.000000    0.000000    0.000000    0.000000    0.000000    0.000000
    3.998752    0.000000    0.000000    0.000000    0.000000    0.000000    0.000000
    5.998127    0.000000    0.000000    0.000000    0.000000    0.000000    0.000000
    7.997503    0.000000    0.000000    0.000000    0.000000    0.000000    0.000000
    9.996879    0.000000    0.000000    0.000000    0.000000    0.000000    0.000000
   11.996255    0.000000    0.000000    0.000000    0.000000    0.000000    0.000000
   13.995631    0.000000    0.000000    0.000000    0.000000    0.000000    0.000000
   15.995007    0.000000    0.000000    0.000000    0.000000    0.000000    0.000000
   17.994382    0.413354    0.413354    0.413354   -0.000000   -0.000000    0.000000
   19.993758    0.802196    0.802197    0.802197   -0.000001   -0.000000   -0.000000
   21.993134    0.000000    0.000000    0.000000    0.000000    0.000000    0.000000
   23.992510    0.925400    0.925400    0.925399    0.000000    0.000000    0.000000
   25.991886    0.688913    0.688912    0.688912    0.000000    0.000000    0.000000
   27.991261    0.001625    0.001625    0.001625    0.000000    0.000000    0.000000
   29.990637    0.000000    0.000000    0.000000    0.000000    0.000000    0.000000
   31.990013    0.128408    0.128408    0.128408   -0.000000   -0.000000   -0.000000
   33.989389    0.000000    0.000000    0.000000    0.000000    0.000000    0.000000
   35.988765    0.000000    0.000000    0.000000    0.000000    0.000000    0.000000
   37.988140    0.041775    0.041775    0.041775   -0.000000   -0.000000   -0.000000
   39.987516    0.000000    0.000000    0.000000    0.000000    0.000000    0.000000
   41.986892    0.000000    0.000000    0.000000    0.000000    0.000000    0.000000
   43.986268    0.000000    0.000000    0.000000    0.000000    0.000000    0.000000
   45.985644    0.211154    0.211155    0.211155   -0.000001   -0.000000   -0.000000
   47.985020    0.012032    0.012032    0.012032   -0.000000   -0.000000   -0.000000
   49.984395    0.000000    0.000000    0.000000    0.000000    0.000000    0.000000
   51.983771    0.000000    0.000000    0.000000    0.000000    0.000000    0.000000
   53.983147    0.061481    0.061481    0.061481   -0.000000   -0.000000   -0.000000
   55.982523    0.081057    0.081057    0.081057    0.000000    0.000000    0.000000
   57.981899    0.038886    0.038876    0.038873    0.000009    0.000004    0.000006
   59.981274    0.009492    0.009492    0.009492    0.000000    0.000000    0.000000
   61.980650    0.049248    0.049248    0.049248   -0.000000   -0.000000   -0.000000
   63.980026    0.061613    0.061614    0.061614   -0.000000   -0.000000   -0.000000
   65.979402    0.000000    0.000000    0.000000    0.000000   -0.000000    0.000000
   67.978778    0.000000    0.000000    0.000000    0.000000    0.000000    0.000000
   69.978154    0.004192    0.004192    0.004192    0.000000    0.000000    0.000000
   71.977529    0.007007    0.007007    0.007007   -0.000000   -0.000000   -0.000000
   73.976905    0.000000    0.000000    0.000000   -0.000000   -0.000000   -0.000000
   75.976281    0.063294    0.063294    0.063294    0.000000    0.000000    0.000000
   77.975657    0.000000    0.000000    0.000000    0.000000    0.000000    0.000000
   79.975033    0.008344    0.008344    0.008344    0.000000    0.000000    0.000000
   81.974408    0.002381    0.002381    0.002381   -0.000000   -0.000000   -0.000000
   83.973784    0.000000    0.000000    0.000000    0.000000    0.000000    0.000000
   85.973160    0.015390    0.015390    0.015390   -0.000000   -0.000000   -0.000000
   87.972536    0.000000    0.000000    0.000000   -0.000000   -0.000000   -0.000000
   89.971912    0.000000    0.000000    0.000000    0.000000    0.000000    0.000000
   91.971288    0.000000    0.000000    0.000000    0.000000    0.000000    0.000000
   93.970663    0.010371    0.010371    0.010371    0.000000    0.000000    0.000000
   95.970039    0.005811    0.005811    0.005811   -0.000000   -0.000000   -0.000000
   97.969415    0.011747    0.011747    0.011747    0.000000    0.000000    0.000000
   99.968791    0.000019    0.000019    0.000019   -0.000000   -0.000000   -0.000000
  101.968167    0.000425    0.000424    0.000424    0.000001    0.000000    0.000001
  103.967542    0.000000    0.000000    0.000000    0.000000    0.000000    0.000000
  105.966918    0.001717    0.001717    0.001717    0.000000    0.000000    0.000000
  107.966294    0.001717    0.001717    0.001717    0.000000    0.000000    0.000000
  109.965670    0.009370    0.009369    0.009369    0.000000    0.000000    0.000000
  111.965046    0.002266    0.002266    0.002266   -0.000000   -0.000000   -0.000000
  113.964421    0.001407    0.001407    0.001407   -0.000000   -0.000000   -0.000000
  115.963797    0.018250    0.018250    0.018250   -0.000000   -0.000000   -0.000000
  117.963173    0.000561    0.000561    0.000561    0.000000    0.000000    0.000000
[...]
  169.946944    0.000000    0.000000    0.000000    0.000000    0.000000    0.000000
  171.946320    0.000000    0.000000    0.000000    0.000000    0.000000    0.000000
  173.945696    0.000000    0.000000    0.000000    0.000000    0.000000    0.000000
  175.945072    0.000000    0.000000    0.000000    0.000000    0.000000    0.000000
  177.944448    0.000000    0.000000    0.000000    0.000000    0.000000    0.000000
  179.943823    0.000000    0.000000    0.000000    0.000000    0.000000    0.000000
  181.943199    0.000000    0.000000    0.000000    0.000000    0.000000    0.000000
  183.942575    0.000000    0.000000    0.000000    0.000000    0.000000    0.000000
  185.941951    0.000000    0.000000    0.000000    0.000000    0.000000    0.000000
  187.941327    0.000000    0.000000    0.000000    0.000000    0.000000    0.000000
  189.940702    0.000000    0.000000    0.000000    0.000000    0.000000    0.000000
  191.940078    0.000000    0.000000    0.000000    0.000000    0.000000    0.000000
  193.939454    0.000000    0.000000    0.000000    0.000000    0.000000    0.000000
  195.938830    0.000000    0.000000    0.000000    0.000000    0.000000    0.000000
  197.938206    0.000000    0.000000    0.000000    0.000000    0.000000    0.000000

  frequency dependent      REAL DIELECTRIC FUNCTION (independent particle, no local field effects) current-current (2nd set in vasprun.xml)
     E(ev)        X           Y           Z          XY          YZ          ZX
    0.000000    1.197343    1.197343    1.197343   -0.000000   -0.000000   -0.000000
    1.999376    1.198805    1.198805    1.198805   -0.000000   -0.000000   -0.000000
    3.998752    1.203631    1.203631    1.203631   -0.000000   -0.000000   -0.000000
    5.998127    1.212337    1.212337    1.212337   -0.000000   -0.000000   -0.000000
    7.997503    1.226182    1.226181    1.226181   -0.000000   -0.000000   -0.000000
    9.996879    1.247656    1.247656    1.247656   -0.000000   -0.000000   -0.000000
   11.996255    1.282096    1.282096    1.282096   -0.000000   -0.000000   -0.000000
   13.995631    1.343114    1.343114    1.343114   -0.000000   -0.000000   -0.000000
   15.995007    1.480459    1.480459    1.480459   -0.000000   -0.000000   -0.000000
   17.994382    2.160863    2.160863    2.160863   -0.000000   -0.000000   -0.000000
   19.993758    0.128276    0.128276    0.128276    0.000000    0.000000    0.000000
   21.993134    0.940208    0.940208    0.940208    0.000000    0.000000    0.000000
   23.992510    1.080484    1.080484    1.080484   -0.000000   -0.000000   -0.000000
   25.991886    0.919096    0.919096    0.919096    0.000000    0.000000    0.000000
   27.991261    0.855374    0.855373    0.855373    0.000001    0.000000    0.000000
   29.990637    0.896538    0.896538    0.896538   -0.000000   -0.000000   -0.000000
   31.990013    0.949143    0.949143    0.949143   -0.000000   -0.000000   -0.000000
   33.989389    0.750463    0.750463    0.750463   -0.000000   -0.000000   -0.000000
   35.988765    0.995615    0.995615    0.995615   -0.000000   -0.000000   -0.000000
   37.988140    0.774617    0.774617    0.774617    0.000000    0.000000    0.000000
   39.987516    0.867944    0.867941    0.867940    0.000002    0.000001    0.000002
   41.986892    0.917476    0.917476    0.917476    0.000000    0.000000    0.000000
   43.986268    0.860100    0.860100    0.860100    0.000000    0.000000    0.000000
   45.985644    0.878107    0.878107    0.878107   -0.000000   -0.000000   -0.000000
   47.985020    0.910983    0.910983    0.910983    0.000000    0.000000    0.000000
   49.984395    0.936980    0.936980    0.936980   -0.000000   -0.000000   -0.000000
   51.983771    0.968556    0.968556    0.968556   -0.000000   -0.000000   -0.000000
   53.983147    0.904263    0.904263    0.904263    0.000000    0.000000    0.000000
   55.982523    0.919210    0.919210    0.919210    0.000000    0.000000    0.000000
   57.981899    0.948786    0.948788    0.948789   -0.000002   -0.000001   -0.000002
   59.981274    0.937263    0.937263    0.937263    0.000000    0.000000    0.000000
   61.980650    0.934899    0.934899    0.934898    0.000000    0.000000    0.000000
   63.980026    0.967294    0.967293    0.967293    0.000000    0.000000    0.000000
   65.979402    0.964685    0.964685    0.964685    0.000000    0.000000    0.000000
   67.978778    0.942057    0.942057    0.942057    0.000000    0.000000    0.000000
   69.978154    0.961973    0.961973    0.961973    0.000000    0.000000    0.000000
   71.977529    0.982319    0.982319    0.982319    0.000000    0.000000    0.000000
   73.976905    0.953188    0.953188    0.953188   -0.000000   -0.000000   -0.000000
   75.976281    0.964515    0.964515    0.964515    0.000000    0.000000    0.000000
   77.975657    0.965541    0.965541    0.965541    0.000000    0.000000    0.000000
   79.975033    0.963394    0.963394    0.963394    0.000000    0.000000    0.000000
   81.974408    0.974388    0.974388    0.974388    0.000000    0.000000    0.000000
   83.973784    0.968265    0.968265    0.968265    0.000000    0.000000    0.000000
   85.973160    0.970001    0.970001    0.970001    0.000000    0.000000    0.000000
   87.972536    0.974809    0.974809    0.974809   -0.000000   -0.000000   -0.000000
   89.971912    0.970703    0.970703    0.970703   -0.000000   -0.000000   -0.000000
   91.971288    0.977159    0.977159    0.977159   -0.000000   -0.000000   -0.000000
   93.970663    0.980331    0.980331    0.980331   -0.000000   -0.000000   -0.000000
   95.970039    0.982512    0.982512    0.982512   -0.000000   -0.000000   -0.000000
   97.969415    0.982285    0.982285    0.982285   -0.000000   -0.000000   -0.000000
   99.968791    0.978592    0.978592    0.978592   -0.000000   -0.000000   -0.000000
  101.968167    0.982202    0.982202    0.982203   -0.000000   -0.000000   -0.000000
  103.967542    0.982609    0.982609    0.982609   -0.000000   -0.000000   -0.000000
  105.966918    0.981874    0.981874    0.981874    0.000000    0.000000    0.000000
  107.966294    0.985311    0.985311    0.985311   -0.000000   -0.000000   -0.000000
  109.965670    0.986823    0.986823    0.986823   -0.000000   -0.000000   -0.000000
  111.965046    0.985674    0.985674    0.985674    0.000000    0.000000    0.000000
  113.964421    0.986176    0.986176    0.986176    0.000000    0.000000    0.000000
  115.963797    0.984392    0.984392    0.984392    0.000000    0.000000    0.000000
  117.963173    0.985740    0.985740    0.985740   -0.000000   -0.000000   -0.000000
[...]
  169.946944    0.993617    0.993617    0.993617   -0.000000   -0.000000   -0.000000
  171.946320    0.993799    0.993800    0.993800   -0.000000   -0.000000   -0.000000
  173.945696    0.993972    0.993972    0.993972   -0.000000   -0.000000   -0.000000
  175.945072    0.994134    0.994134    0.994134   -0.000000   -0.000000   -0.000000
  177.944448    0.994289    0.994289    0.994289   -0.000000   -0.000000   -0.000000
  179.943823    0.994436    0.994436    0.994436   -0.000000   -0.000000   -0.000000
  181.943199    0.994577    0.994577    0.994577   -0.000000   -0.000000   -0.000000
  183.942575    0.994712    0.994712    0.994712   -0.000000   -0.000000   -0.000000
  185.941951    0.994841    0.994841    0.994841   -0.000000   -0.000000   -0.000000
  187.941327    0.994964    0.994964    0.994964   -0.000000   -0.000000   -0.000000
  189.940702    0.995083    0.995083    0.995083   -0.000000   -0.000000   -0.000000
  191.940078    0.995197    0.995197    0.995197   -0.000000   -0.000000   -0.000000
  193.939454    0.995307    0.995307    0.995307   -0.000000   -0.000000   -0.000000
  195.938830    0.995413    0.995413    0.995413   -0.000000   -0.000000   -0.000000
  197.938206    0.995515    0.995515    0.995515   -0.000000   -0.000000   -0.000000

 The outermost node in the dielectric function lies at epsilon=  -1.0

 Spin-Orbit-Coupling matrix elements

 Ion:    1  E_soc:     -0.0000000
 l=   1
     0.0000000    -0.0000000    -0.0000000
    -0.0000000     0.0000000    -0.0000000
    -0.0000000    -0.0000000     0.0000000
 l=   2
     0.0000000    -0.0000000     0.0000000    -0.0000000    -0.0000000
    -0.0000000     0.0000000    -0.0000000    -0.0000000    -0.0000000
     0.0000000    -0.0000000     0.0000000    -0.0000000     0.0000000
    -0.0000000    -0.0000000    -0.0000000     0.0000000    -0.0000000
    -0.0000000    -0.0000000     0.0000000    -0.0000000     0.0000000
 l=   3
     0.0000000     0.0000000     0.0000000     0.0000000     0.0000000     0.0000000     0.0000000
     0.0000000     0.0000000     0.0000000     0.0000000     0.0000000     0.0000000     0.0000000
     0.0000000     0.0000000     0.0000000     0.0000000     0.0000000     0.0000000     0.0000000
     0.0000000     0.0000000     0.0000000     0.0000000     0.0000000     0.0000000     0.0000000
     0.0000000     0.0000000     0.0000000     0.0000000     0.0000000     0.0000000     0.0000000
     0.0000000     0.0000000     0.0000000     0.0000000     0.0000000     0.0000000     0.0000000
     0.0000000     0.0000000     0.0000000     0.0000000     0.0000000     0.0000000     0.0000000