 vasp.5.4.4.18Apr17-6-g9f103f2a35 (build Nov 03 2018 10:20:46) complex

 executed on             LinuxIFC date 2018.12.05  10:22:12

 INCAR:
 POTCAR:    PAW Og, JanMewes Oct 18

 POTCAR:    PAW Og, JanMewes Oct 18

  PAW Og, JanMewes Oct 18               :

 POSCAR: Og_FCC
  positions in direct lattice
  velocities in cartesian coordinates
 exchange correlation table for  LEXCH =        8
   RHO(1)=    0.500       N(1)  =     2000
   RHO(2)=  100.500       N(2)  =     4000

 ion  position               nearest neighbor table
   1  0.000  0.000  0.000-

IMPORTANT INFORMATION: All symmetrisations will be switched off!
NOSYMM: (Re-)initialisation of all symmetry stuff for point group C_1.

 KPOINTS: k-points for bandstructure L-G-X
  interpolating k-points between supplied coordinates
  k-points in reciprocal lattice
Space group operators:
 irot       det(A)        alpha          n_x          n_y          n_z        tau_x        tau_y        tau_z
    1     1.000000     0.000000     1.000000     0.000000     0.000000     0.000000     0.000000     0.000000

 SYSTEM =  Og_FCC
 POSCAR =  Og_FCC

 Startparameter for this run:
   NWRITE =      1    write-flag & timer
   PREC   = accura    normal or accurate (medium, high low for compatibility)
   ISTART =      1    job   : 0-new  1-cont  2-samecut
   ICHARG =     11    charge: 1-file 2-atom 10-const
   ISPIN  =      1    spin polarized calculation?
   LNONCOLLINEAR =      T non collinear calculations
   LSORBIT =      T    spin-orbit coupling
   INIWAV =      1    electr: 0-lowe 1-rand  2-diag
   LASPH  =      F    aspherical Exc in radial PAW
   METAGGA=      F    non-selfconsistent MetaGGA calc.

 Electronic Relaxation 1
   ENCUT  =  300.0 eV  22.05 Ry    4.70 a.u.   6.13  6.13  6.13*2*pi/ulx,y,z
   ENINI  =  300.0     initial cutoff
   ENAUG  =  361.0 eV  augmentation charge cutoff
   NELM   =      1;   NELMIN=  2; NELMDL=  0     # of ELM steps
   EDIFF  = 0.1E-07   stopping-criterion for ELM
   LREAL  =      F    real-space projection
   NLSPLINE    = F    spline interpolate recip. space projectors
   LCOMPAT=      F    compatible to vasp.4.4
   GGA_COMPAT  = F    GGA compatible to vasp.4.4-vasp.4.6
   LMAXPAW     = -100 max onsite density
   LMAXMIX     =    2 max onsite mixed and CHGCAR
   VOSKOWN=      0    Vosko Wilk Nusair interpolation
   ROPT   =    0.00000
 Ionic relaxation
   EDIFFG = 0.1E-04   stopping-criterion for IOM
   NSW    =      1    number of steps for IOM
   NBLOCK =      1;   KBLOCK =      1    inner block; outer block
   IBRION =     -1    ionic relax: 0-MD 1-quasi-New 2-CG
   NFREE  =      5    steps in history (QN), initial steepest desc. (CG)
   ISIF   =      3    stress and relaxation
   IWAVPR =     10    prediction:  0-non 1-charg 2-wave 3-comb
   ISYM   =      0    0-nonsym 1-usesym 2-fastsym
   LCORR  =      T    Harris-Foulkes like correction to forces

   POTIM  = 0.1000    time-step for ionic-motion
   TEIN   =    0.0    initial temperature
   TEBEG  =    0.0;   TEEND  =   0.0 temperature during run
   SMASS  =  -3.00    Nose mass-parameter (am)
   estimated Nose-frequenzy (Omega)   =  0.10E-29 period in steps =****** mass=  -0.431E-27a.u.
   SCALEE = 1.0000    scale energy and forces
   NPACO  =    256;   APACO  = 16.0  distance and # of slots for P.C.
   PSTRESS=    0.0 pullay stress

  Mass of Ions in am
   POMASS =   0.01
  Ionic Valenz
   ZVAL   =  18.00
  Atomic Wigner-Seitz radii
  virtual crystal weights
   VCA    =   1.00
   NELECT =      18.0000    total number of electrons
   NUPDOWN=      -1.0000    fix difference up-down

 DOS related values:
   EMIN   =  10.00;   EMAX   =-10.00  energy-range for DOS
   EFERMI =   0.00
   ISMEAR =     0;   SIGMA  =   0.00  broadening in eV -4-tet -1-fermi 0-gaus

 Electronic relaxation 2 (details)
   IALGO  =     38    algorithm
   LDIAG  =      T    sub-space diagonalisation (order eigenvalues)
   LSUBROT=      F    optimize rotation matrix (better conditioning)
   TURBO    =      0    0=normal 1=particle mesh
   IRESTART =      0    0=no restart 2=restart with 2 vectors
   NREBOOT  =      0    no. of reboots
   NMIN     =      0    reboot dimension
   EREF     =   0.00    reference energy to select bands
   IMIX   =      4    mixing-type and parameters
     AMIX     =   0.40;   BMIX     =  1.00
     AMIX_MAG =   1.60;   BMIX_MAG =  1.00
     AMIN     =   0.10
     WC   =   100.;   INIMIX=   1;  MIXPRE=   1;  MAXMIX=  50

 Intra band minimization:
   WEIMIN = 0.0000     energy-eigenvalue tresh-hold
   EBREAK =  0.89E-10  absolut break condition
   DEPER  =   0.30     relativ break condition

   TIME   =   0.40     timestep for ELM

  volume/ion in A,a.u.               =      57.90       390.71
  Fermi-wavevector in a.u.,A,eV,Ry     =   1.109038  2.095777 16.734680  1.229964
  Thomas-Fermi vector in A             =   2.245572

 Write flags
   LWAVE        =      F    write WAVECAR
   LDOWNSAMPLE  =      F    k-point downsampling of WAVECAR
   LCHARG       =      F    write CHGCAR
   LVTOT        =      F    write LOCPOT, total local potential
   LVHAR        =      F    write LOCPOT, Hartree potential only
   LELF         =      F    write electronic localiz. function (ELF)
   LORBIT       =      0    0 simple, 1 ext, 2 COOP (PROOUT), +10 PAW based schemes

 Dipole corrections
   LMONO  =      F    monopole corrections only (constant potential shift)
   LDIPOL =      F    correct potential (dipole corrections)
   IDIPOL =      0    1-x, 2-y, 3-z, 4-all directions
   EPSILON=  1.0000000 bulk dielectric constant

 Exchange correlation treatment:
   GGA     =    PE    GGA type
   VOSKOWN=      0    Vosko Wilk Nusair interpolation
   LHFCALC =     F    Hartree Fock is set to
   LHFONE  =     F    Hartree Fock one center treatment
   AEXX    =    0.0000 exact exchange contribution

 Linear response parameters
   LEPSILON=     F    determine dielectric tensor
   LRPA    =     F    only Hartree local field effects (RPA)
   LNABLA  =     F    use nabla operator in PAW spheres
   LVEL    =     F    velocity operator in full k-point grid
   LINTERFAST=   F  fast interpolation
   KINTER  =     0    interpolate to denser k-point grid
   CSHIFT  =0.1000    complex shift for real part using Kramers Kronig
   OMEGAMAX=  -1.0    maximum frequency
   DEG_THRESHOLD= 0.2000000E-02 threshold for treating states as degnerate
   RTIME   =   -0.100 relaxation time in fs
  (WPLASMAI=    0.000 imaginary part of plasma frequency in eV, 0.658/RTIME)
   DFIELD  = 0.0000000 0.0000000 0.0000000 field for delta impulse in time

 Orbital magnetization related:
   ORBITALMAG=     F  switch on orbital magnetization
   LCHIMAG   =     F  perturbation theory with respect to B field
   DQ        =  0.001000  dq finite difference perturbation B field
   LLRAUG    =     F  two centre corrections for induced B field

 Static calculation
 charge density and potential remain constant during run
 non collinear spin polarized calculation
 Variant of blocked Davidson
 Davidson routine will perform the subspace rotation
 perform sub-space diagonalisation
    after iterative eigenvector-optimisation
 no mixing
 using additional bands           19
 reciprocal scheme for non local part
 use partial core corrections
 calculate Harris-corrections to forces
   (improved forces if not selfconsistent)
 use gradient corrections
 WARNING: stress and forces are not correct
  (second derivative of E(xc) not defined)
 use of overlap-Matrix (Vanderbilt PP)
 Gauss-broadening in eV      SIGMA  =   0.00

  energy-cutoff  :      300.00
  volume of cell :       57.90
      direct lattice vectors                 reciprocal lattice vectors
     4.342345876  0.000000000  0.000000000     0.230290269 -0.132958149 -0.094015609
     2.171172938  3.760581840 -0.000000000     0.000000000  0.265916298 -0.094015609
     2.171172938  1.253527280  3.545510561    -0.000000000  0.000000000  0.282046826

  length of vectors
     4.342345876  4.342345876  4.342345876     0.282046826  0.282046826  0.282046826

 old parameters found on file WAVECAR:
  energy-cutoff  :      300.00
  volume of cell :       57.90
      direct lattice vectors                 reciprocal lattice vectors
     4.342345876  0.000000000  0.000000000     0.230290269 -0.132958149 -0.094015609
     2.171172938  3.760581840 -0.000000000     0.000000000  0.265916298 -0.094015609
     2.171172938  1.253527280  3.545510561    -0.000000000  0.000000000  0.282046826

  length of vectors

 k-points in units of 2pi/SCALE and weight: k-points for bandstructure L-G-X
   0.11514513  0.06647907  0.04700780       0.062
   0.09869583  0.05698206  0.04029240       0.062
   0.08224652  0.04748505  0.03357700       0.062
   0.06579722  0.03798804  0.02686160       0.062
   0.04934791  0.02849103  0.02014620       0.062
   0.03289861  0.01899402  0.01343080       0.062
   0.01644930  0.00949701  0.00671540       0.062
   0.00000000  0.00000000  0.00000000       0.062
   0.00000000  0.00000000  0.00000000       0.062
  -0.00000000  0.01899402  0.01343080       0.062
  -0.00000000  0.03798804  0.02686160       0.062
  -0.00000000  0.05698206  0.04029240       0.062
  -0.00000000  0.07597609  0.05372320       0.062
  -0.00000000  0.09497011  0.06715401       0.062
  -0.00000000  0.11396413  0.08058481       0.062
  -0.00000000  0.13295815  0.09401561       0.062

 k-points in reciprocal lattice and weights: k-points for bandstructure L-G-X
   0.50000000  0.50000000  0.50000000       0.062
   0.42857143  0.42857143  0.42857143       0.062
   0.35714286  0.35714286  0.35714286       0.062
   0.28571429  0.28571429  0.28571429       0.062
   0.21428571  0.21428571  0.21428571       0.062
   0.14285714  0.14285714  0.14285714       0.062
   0.07142857  0.07142857  0.07142857       0.062
   0.00000000  0.00000000  0.00000000       0.062
   0.00000000  0.00000000  0.00000000       0.062
   0.00000000  0.07142857  0.07142857       0.062
   0.00000000  0.14285714  0.14285714       0.062
   0.00000000  0.21428571  0.21428571       0.062
   0.00000000  0.28571429  0.28571429       0.062
   0.00000000  0.35714286  0.35714286       0.062
   0.00000000  0.42857143  0.42857143       0.062
   0.00000000  0.50000000  0.50000000       0.062

 position of ions in fractional coordinates (direct lattice)
   0.00000000  0.00000000  0.00000000

 position of ions in cartesian coordinates  (Angst):
   0.00000000  0.00000000  0.00000000

 Euler angles ALPHA=     0.0000000  BETA=     0.0000000

 transformation matrix from SAXIS to cartesian coordinates
     1.0000000 m_x     0.0000000 m_y     0.0000000 m_z
     0.0000000 m_x     1.0000000 m_y     0.0000000 m_z
     0.0000000 m_x     0.0000000 m_y     1.0000000 m_z

 transformation matrix from cartesian coordinates to SAXIS
     1.0000000 m_x     0.0000000 m_y     0.0000000 m_z
     0.0000000 m_x     1.0000000 m_y     0.0000000 m_z
     0.0000000 m_x     0.0000000 m_y     1.0000000 m_z

 k-point  1 :   0.5000 0.5000 0.5000  plane waves:    1400
 k-point  2 :   0.4286 0.4286 0.4286  plane waves:    1364
 k-point  3 :   0.3571 0.3571 0.3571  plane waves:    1352
 k-point  4 :   0.2857 0.2857 0.2857  plane waves:    1364
 k-point  5 :   0.2143 0.2143 0.2143  plane waves:    1346
 k-point  6 :   0.1429 0.1429 0.1429  plane waves:    1346
 k-point  7 :   0.0714 0.0714 0.0714  plane waves:    1370
 k-point  8 :   0.0000 0.0000 0.0000  plane waves:    1402
 k-point  9 :   0.0000 0.0000 0.0000  plane waves:    1402
 k-point 10 :   0.0000 0.0714 0.0714  plane waves:    1362
 k-point 11 :   0.0000 0.1429 0.1429  plane waves:    1354
 k-point 12 :   0.0000 0.2143 0.2143  plane waves:    1362
 k-point 13 :   0.0000 0.2857 0.2857  plane waves:    1370
 k-point 14 :   0.0000 0.3571 0.3571  plane waves:    1368
 k-point 15 :   0.0000 0.4286 0.4286  plane waves:    1368
 k-point 16 :   0.0000 0.5000 0.5000  plane waves:    1384

 maximum and minimum number of plane-waves per node :      1402     1346

 maximum number of plane-waves:      1402
 maximum index in each direction:
   IXMAX=    6   IYMAX=    6   IZMAX=    6
   IXMIN=   -6   IYMIN=   -6   IZMIN=   -6

 serial   3D FFT for wavefunctions
 parallel 3D FFT for charge:
    minimum data exchange during FFTs selected (reduces bandwidth)

 initial charge density was supplied:
 number of electron      18.0000000 magnetization      -0.0005685      0.0000897      0.0000388
 keeping initial charge density in first step

 Maximum index for augmentation-charges        44167 (set IRDMAX)

 First call to EWALD:  gamma=   0.458
 Maximum number of real-space cells 3x 3x 3
 Maximum number of reciprocal cells 3x 3x 3

--------------------------------------- Iteration      1(   1)  ---------------------------------------

 eigenvalue-minimisations  :  1416
 total energy-change (2. order) :-0.6436581E+01  (-0.4275472E+02)
 number of electron      18.0000000 magnetization      -0.0005685      0.0000897      0.0000388
 augmentation part       18.0000000 magnetization      -0.0005685      0.0000897      0.0000388

 Free energy of the ion-electron system (eV)
  alpha Z        PSCENC =        65.89697999
  Ewald energy   TEWEN  =     -1741.63824267
  -Hartree energ DENC   =      -672.04789813
  -exchange      EXHF   =         0.00000000
  -V(xc)+E(xc)   XCENC  =       -68.73281984
  PAW double counting   =      2336.10829606    -2260.71252966
  entropy T*S    EENTRO =        -0.00003208
  eigenvalues    EBANDS =      -305.21525845
  atomic energy  EATOM  =      2639.90492407
  Solvation  Ediel_sol  =         0.00000000
  free energy    TOTEN  =        -6.43658073 eV

  energy without entropy =       -6.43654865  energy(sigma->0) =       -6.43656469

 average (electrostatic) potential at core
  the test charge radii are     1.2024
  (the norm of the test charge is              1.0000)
       1-110.0729

 E-fermi :   4.3102     XC(G=0):  -8.2296     alpha+bet : -7.5793

 k-point     1 :       0.5000    0.5000    0.5000
  band No.  band energies     occupation
      1     -30.3932      1.00000
      2     -30.3929      1.00000
      3     -30.2098      1.00000
      4     -30.2090      1.00000
      5     -23.6417      1.00000
      6     -23.6384      1.00000
      7     -23.5542      1.00000
      8     -23.5518      1.00000
      9     -23.4296      1.00000
     10     -23.4241      1.00000
     11     -19.8905      1.00000
     12     -19.8901      1.00000
     13      -6.7844      1.00000
     14      -6.7841      1.00000
     15       1.5951      1.00000
     16       1.5958      1.00000
     17       3.4545      1.00000
     18       3.4555      1.00000
     19       6.4561      0.00000
     20       6.4566      0.00000
     21      10.4542      0.00000
     22      10.4544      0.00000
     23      11.4071      0.00000
     24      11.4076      0.00000
     25      11.9680      0.00000
     26      11.9700      0.00000
     27      14.9522      0.00000
     28      14.9530      0.00000

[...]

 k-point    16 :       0.0000    0.5000    0.5000
  band No.  band energies     occupation
      1     -30.4070      1.00000
      2     -30.4063      1.00000
      3     -30.3423      1.00000
      4     -30.3421      1.00000
      5     -23.7671      1.00000
      6     -23.7662      1.00000
      7     -23.7170      1.00000
      8     -23.7163      1.00000
      9     -23.6009      1.00000
     10     -23.6001      1.00000
     11     -19.9096      1.00000
     12     -19.9094      1.00000
     13      -6.7894      1.00000
     14      -6.7891      1.00000
     15       1.1122      1.00000
     16       1.1131      1.00000
     17       2.7373      1.00000
     18       2.7386      1.00000
     19       6.5395      0.00000
     20       6.5397      0.00000
     21       7.8954      0.00000
     22       7.8954      0.00000
     23      11.2708      0.00000
     24      11.2716      0.00000
     25      16.3570      0.00000
     26      16.3576      0.00000
     27      17.4550      0.00000
     28      17.4556      0.00000

 soft charge-density along one line, spin component           1
         0         1         2         3         4         5         6         7         8         9
 total charge-density along one line

[...]

 soft charge-density along one line, spin component           4
         0         1         2         3         4         5         6         7         8         9
 total charge-density along one line

------------------------ aborting loop because EDIFF is reached ----------------------------------------

         DFTD3 V3.0 Rev 1
 IVDW         = 12
 DF pbe
 parameters
 VDW_S6       =    1.0000
 VDW_S8       =    0.7875
 VDW_A1       =    0.4289
 VDW_A2       =    4.4407
 k1-k3        =   16.0000    1.3333   -4.0000
 VDW_RADIUS   =   50.2022 A
 VDW_CNRADIUS =   21.1671 A
 Edisp (eV)   -0.43996

 E6    (eV) :    -0.2176
 E8    (eV) :    -0.2224
 % E8        : 50.54

  FORCE on cell =-STRESS in cart. coord.  units (eV):
  Direction    XX          YY          ZZ          XY          YZ          ZX
  Alpha Z    65.89698    65.89698    65.89698
  Ewald    -580.54610  -580.54610  -580.54610     0.00000    -0.00000    -0.00000
  Hartree   227.39176   225.51866   224.58353     1.79072    -1.17237     1.56179
  E(xc)    -111.20586  -111.17370  -111.18707     0.05087     0.01512     0.02363
  Local    -156.68326  -152.77192  -152.66664    -1.41128     5.79681    -1.91940
  n-local   106.87704   105.16015   106.27490    -2.03808    -1.21067    -0.93017
  augment    79.06800    78.93865    78.52202     0.06257     1.16058     0.02748
  Kinetic   394.87009   394.37315   396.81725    -0.00744    -2.69545     0.18890
  Fock        0.00000     0.00000     0.00000     0.00000     0.00000     0.00000
  vdW        -0.44923    -0.44923    -0.44923     0.00000    -0.00000    -0.00000
  Total      25.21942    24.94663    27.24563    -1.55263     1.89403    -1.04776
  in kB     697.89069   690.34199   753.96158   -42.96566    52.41290   -28.99452

 VOLUME and BASIS-vectors are now :
  energy-cutoff  :      300.00
  volume of cell :       57.90
      direct lattice vectors                 reciprocal lattice vectors
     4.342345876  0.000000000  0.000000000     0.230290269 -0.132958149 -0.094015609
     2.171172938  3.760581840 -0.000000000     0.000000000  0.265916298 -0.094015609
     2.171172938  1.253527280  3.545510561    -0.000000000  0.000000000  0.282046826

  length of vectors
     4.342345876  4.342345876  4.342345876     0.282046826  0.282046826  0.282046826

 FORCES acting on ions
    electron-ion (+dipol)            ewald-force                    non-local-force                 convergence-correction
   0.132E-02 0.257E-01 -.488E-01   0.498E-15 0.105E-14 0.672E-15   0.293E-03 0.206E-01 0.480E-01   -.178E-02 0.493E-02 0.155E-04
   0.132E-02 0.257E-01 -.488E-01   0.498E-15 0.105E-14 0.672E-15   0.293E-03 0.206E-01 0.480E-01   -.178E-02 0.493E-02 0.155E-04

 POSITION                                       TOTAL-FORCE (eV/Angst)
      0.00000      0.00000      0.00000        -0.000170      0.051175     -0.000729
    total drift:                               -0.000170      0.051175     -0.000729

  FREE ENERGIE OF THE ION-ELECTRON SYSTEM (eV)
  free  energy   TOTEN  =        -6.87654282 eV

  energy  without entropy=       -6.87651074  energy(sigma->0) =       -6.87652678

 Spin-Orbit-Coupling matrix elements

 Ion:    1  E_soc:    -32.5966076
 l=   1
     0.0000000    -5.0559157    -5.0214495
    -5.0559157     0.0000000    -5.0098048
    -5.0214495    -5.0098048     0.0000000
 l=   2
     0.0000000    -0.0793839     0.0000000    -0.0806525    -0.3284218
    -0.0793839     0.0000000    -0.2442491    -0.0821775    -0.0794090
     0.0000000    -0.2442491     0.0000000    -0.2364103     0.0000000
    -0.0806525    -0.0821775    -0.2364103     0.0000000    -0.0804298
    -0.3284218    -0.0794090     0.0000000    -0.0804298     0.0000000
 l=   3
     0.0000000     0.0000000     0.0000000     0.0000000     0.0000000     0.0000000     0.0000000
     0.0000000     0.0000000     0.0000000     0.0000000     0.0000000     0.0000000     0.0000000
     0.0000000     0.0000000     0.0000000     0.0000000     0.0000000     0.0000000     0.0000000
     0.0000000     0.0000000     0.0000000     0.0000000     0.0000000     0.0000000     0.0000000
     0.0000000     0.0000000     0.0000000     0.0000000     0.0000000     0.0000000     0.0000000
     0.0000000     0.0000000     0.0000000     0.0000000     0.0000000     0.0000000     0.0000000
     0.0000000     0.0000000     0.0000000     0.0000000     0.0000000     0.0000000     0.0000000