 vasp.5.4.4.18Apr17-6-g9f103f2a35 (build Jul 09 2018 16:43:14) complex

 executed on             LinuxIFC date 2018.11.21  22:33:48

 INCAR:
 POTCAR:    PAW_PBE He_GW 13May2007

 POTCAR:    PAW_PBE He_GW 13May2007
   VRHFIN =He: 1s

   TITEL  = PAW_PBE He_GW 13May2007
   POMASS =    4.000; ZVAL   =    2.000    mass and valenz
   ENMAX  =  405.780; ENMIN  =  304.335 eV

  PAW_PBE He_GW 13May2007               :

 POSCAR: He_FCC
  positions in direct lattice
  velocities in cartesian coordinates
 exchange correlation table for  LEXCH =        8
   RHO(1)=    0.500       N(1)  =     2000
   RHO(2)=  100.500       N(2)  =     4000

 ion  position               nearest neighbor table
   1  0.000  0.000  0.000-

  LATTYP: Found a face centered cubic cell.
 ALAT       =     4.0236002575

  Lattice vectors:

 A1 = (   2.8451150268,   0.0000000000,   0.0000000000)
 A2 = (   1.4225575134,   2.4639418899,   0.0000000000)
 A3 = (   1.4225575134,   0.8213139633,   2.3230266918)

Analysis of symmetry for initial positions (statically):
 Subroutine PRICEL returns:
 Original cell was already a primitive cell.

 Routine SETGRP: Setting up the symmetry group for a
 face centered cubic supercell.

 Subroutine GETGRP returns: Found 48 space group operations
 (whereof 48 operations were pure point group operations)
 out of a pool of 48 trial point group operations.

The static configuration has the point symmetry O_h .

Analysis of symmetry for dynamics (positions and initial velocities):
 Subroutine PRICEL returns:
 Original cell was already a primitive cell.

 Routine SETGRP: Setting up the symmetry group for a
 face centered cubic supercell.

 Subroutine GETGRP returns: Found 48 space group operations
 (whereof 48 operations were pure point group operations)
 out of a pool of 48 trial point group operations.

The dynamic configuration has the point symmetry O_h .

 Subroutine INISYM returns: Found 48 space group operations
 (whereof 48 operations are pure point group operations),
 and found     1 'primitive' translations

Automatic generation of k-mesh.
 generate k-points for:   10   10   10
Space group operators:
 irot       det(A)        alpha          n_x          n_y          n_z        tau_x        tau_y        tau_z
    1     1.000000     0.000000     1.000000     0.000000     0.000000     0.000000     0.000000     0.000000
    2    -1.000000     0.000000     1.000000     0.000000     0.000000     0.000000     0.000000     0.000000
    3     1.000000   120.000000    -0.816497    -0.471405    -0.333333     0.000000     0.000000     0.000000
    4    -1.000000   120.000000    -0.816497    -0.471405    -0.333333     0.000000     0.000000     0.000000
    5     1.000000   120.000000     0.816497     0.471405     0.333333     0.000000     0.000000     0.000000
    6    -1.000000   120.000000     0.816497     0.471405     0.333333     0.000000     0.000000     0.000000
    7     1.000000    90.000000    -0.707107    -0.408248     0.577350     0.000000     0.000000     0.000000
    8    -1.000000    90.000000    -0.707107    -0.408248     0.577350     0.000000     0.000000     0.000000
    9     1.000000   180.000000     1.000000     0.000000     0.000000     0.000000     0.000000     0.000000
   10    -1.000000   180.000000     1.000000     0.000000     0.000000     0.000000     0.000000     0.000000
   11     1.000000    90.000000     0.707107    -0.408248     0.577350     0.000000     0.000000     0.000000
   12    -1.000000    90.000000     0.707107    -0.408248     0.577350     0.000000     0.000000     0.000000
   13     1.000000   180.000000     0.707107     0.408248    -0.577350     0.000000     0.000000     0.000000
   14    -1.000000   180.000000     0.707107     0.408248    -0.577350     0.000000     0.000000     0.000000
   15     1.000000   120.000000     0.816497    -0.471405    -0.333333     0.000000     0.000000     0.000000
   16    -1.000000   120.000000     0.816497    -0.471405    -0.333333     0.000000     0.000000     0.000000
   17     1.000000   120.000000     0.000000    -0.942809     0.333333     0.000000     0.000000     0.000000
   18    -1.000000   120.000000     0.000000    -0.942809     0.333333     0.000000     0.000000     0.000000
   19     1.000000    90.000000     0.707107     0.408248    -0.577350     0.000000     0.000000     0.000000
   20    -1.000000    90.000000     0.707107     0.408248    -0.577350     0.000000     0.000000     0.000000
   21     1.000000    90.000000    -0.000000    -0.816497    -0.577350     0.000000     0.000000     0.000000
   22    -1.000000    90.000000    -0.000000    -0.816497    -0.577350     0.000000     0.000000     0.000000
   23     1.000000   180.000000     0.500000     0.866025    -0.000000     0.000000     0.000000     0.000000
   24    -1.000000   180.000000     0.500000     0.866025    -0.000000     0.000000     0.000000     0.000000
   25     1.000000   120.000000     0.000000     0.942809    -0.333333     0.000000     0.000000     0.000000
   26    -1.000000   120.000000     0.000000     0.942809    -0.333333     0.000000     0.000000     0.000000
   27     1.000000   120.000000     0.000000    -0.000000    -1.000000     0.000000     0.000000     0.000000
   28    -1.000000   120.000000     0.000000    -0.000000    -1.000000     0.000000     0.000000     0.000000
   29     1.000000   180.000000     0.000000    -0.816497    -0.577350     0.000000     0.000000     0.000000
   30    -1.000000   180.000000     0.000000    -0.816497    -0.577350     0.000000     0.000000     0.000000
   31     1.000000    90.000000    -0.707107     0.408248    -0.577350     0.000000     0.000000     0.000000
   32    -1.000000    90.000000    -0.707107     0.408248    -0.577350     0.000000     0.000000     0.000000
   33     1.000000   180.000000     0.500000     0.288675     0.816497     0.000000     0.000000     0.000000
   34    -1.000000   180.000000     0.500000     0.288675     0.816497     0.000000     0.000000     0.000000
   35     1.000000    90.000000    -0.000000     0.816497     0.577350     0.000000     0.000000     0.000000
   36    -1.000000    90.000000    -0.000000     0.816497     0.577350     0.000000     0.000000     0.000000
   37     1.000000   120.000000    -0.816497     0.471405     0.333333     0.000000     0.000000     0.000000
   38    -1.000000   120.000000    -0.816497     0.471405     0.333333     0.000000     0.000000     0.000000
   39     1.000000   179.999999    -0.707107     0.408248    -0.577350     0.000000     0.000000     0.000000
   40    -1.000000   179.999999    -0.707107     0.408248    -0.577350     0.000000     0.000000     0.000000
   41     1.000000   120.000000     0.000000     0.000000     1.000000     0.000000     0.000000     0.000000
   42    -1.000000   120.000000     0.000000     0.000000     1.000000     0.000000     0.000000     0.000000
   43     1.000000   180.000000     0.000000    -0.577350     0.816497     0.000000     0.000000     0.000000
   44    -1.000000   180.000000     0.000000    -0.577350     0.816497     0.000000     0.000000     0.000000
   45     1.000000   180.000000    -0.500000     0.866025    -0.000000     0.000000     0.000000     0.000000
   46    -1.000000   180.000000    -0.500000     0.866025    -0.000000     0.000000     0.000000     0.000000
   47     1.000000   180.000000     0.500000    -0.288675    -0.816497     0.000000     0.000000     0.000000
   48    -1.000000   180.000000     0.500000    -0.288675    -0.816497     0.000000     0.000000     0.000000

 Subroutine IBZKPT returns following result:

 Found     47 irreducible k-points:

 Following reciprocal coordinates:
            Coordinates               Weight
  0.000000  0.000000  0.000000      1.000000
  0.100000 -0.000000  0.000000      8.000000
  0.200000  0.000000  0.000000      8.000000
  0.300000 -0.000000 -0.000000      8.000000
  0.400000  0.000000  0.000000      8.000000
  0.500000 -0.000000 -0.000000      4.000000
  0.100000  0.100000  0.000000      6.000000
  0.200000  0.100000  0.000000     24.000000
  0.300000  0.100000  0.000000     24.000000
  0.400000  0.100000 -0.000000     24.000000
  0.500000  0.100000 -0.000000     24.000000
 -0.400000  0.100000  0.000000     24.000000
 -0.300000  0.100000  0.000000     24.000000
 -0.200000  0.100000  0.000000     24.000000
 -0.100000  0.100000 -0.000000     12.000000
  0.200000  0.200000 -0.000000      6.000000
  0.300000  0.200000 -0.000000     24.000000
  0.400000  0.200000  0.000000     24.000000
  0.500000  0.200000 -0.000000     24.000000
 -0.400000  0.200000  0.000000     24.000000
 -0.300000  0.200000  0.000000     24.000000
 -0.200000  0.200000  0.000000     12.000000
  0.300000  0.300000  0.000000      6.000000
  0.400000  0.300000  0.000000     24.000000
  0.500000  0.300000  0.000000     24.000000
 -0.400000  0.300000  0.000000     24.000000
 -0.300000  0.300000  0.000000     12.000000
  0.400000  0.400000 -0.000000      6.000000
  0.500000  0.400000  0.000000     24.000000
 -0.400000  0.400000  0.000000     12.000000
  0.500000  0.500000 -0.000000      3.000000
  0.300000  0.200000  0.100000     24.000000
  0.400000  0.200000  0.100000     48.000000
  0.500000  0.200000  0.100000     48.000000
 -0.400000  0.200000  0.100000     24.000000
  0.400000  0.300000  0.100000     24.000000
  0.500000  0.300000  0.100000     48.000000
 -0.400000  0.300000  0.100000     48.000000
 -0.300000  0.300000  0.100000     48.000000
 -0.200000  0.300000  0.100000     24.000000
  0.500000  0.400000  0.100000     24.000000
 -0.400000  0.400000  0.100000     48.000000
 -0.300000  0.400000  0.100000     24.000000
 -0.400000  0.500000  0.100000     12.000000
 -0.400000  0.400000  0.200000     24.000000
 -0.300000  0.400000  0.200000     24.000000
 -0.300000  0.500000  0.200000     12.000000

 Following cartesian coordinates:
            Coordinates               Weight
  0.000000  0.000000  0.000000      1.000000
  0.035148 -0.020293 -0.014349      8.000000
  0.070296 -0.040585 -0.028698      8.000000
  0.105444 -0.060878 -0.043047      8.000000
  0.140592 -0.081171 -0.057396      8.000000
  0.175740 -0.101463 -0.071745      4.000000
  0.035148  0.020293 -0.028698      6.000000
  0.070296 -0.000000 -0.043047     24.000000
  0.105444 -0.020293 -0.057396     24.000000
  0.140592 -0.040585 -0.071745     24.000000
  0.175740 -0.060878 -0.086095     24.000000
 -0.140592  0.121756  0.043047     24.000000
 -0.105444  0.101463  0.028698     24.000000
 -0.070296  0.081171  0.014349     24.000000
 -0.035148  0.060878  0.000000     12.000000
  0.070296  0.040585 -0.057396      6.000000
  0.105444  0.020293 -0.071745     24.000000
  0.140592  0.000000 -0.086095     24.000000
  0.175740 -0.020293 -0.100444     24.000000
 -0.140592  0.162341  0.028698     24.000000
 -0.105444  0.142049  0.014349     24.000000
 -0.070296  0.121756 -0.000000     12.000000
  0.105444  0.060878 -0.086095      6.000000
  0.140592  0.040585 -0.100444     24.000000
  0.175740  0.020293 -0.114793     24.000000
 -0.140592  0.202927  0.014349     24.000000
 -0.105444  0.182634 -0.000000     12.000000
  0.140592  0.081171 -0.114793      6.000000
  0.175740  0.060878 -0.129142     24.000000
[...]
 calculate Harris-corrections to forces
   (improved forces if not selfconsistent)
 use gradient corrections
 use of overlap-Matrix (Vanderbilt PP)
 Methfessel and Paxton  Order N= 1 SIGMA  =   0.05

  energy-cutoff  :      600.00
  volume of cell :       16.28
      direct lattice vectors                 reciprocal lattice vectors
     2.845115027  0.000000000  0.000000000     0.351479638 -0.202926864 -0.143490961
     1.422557513  2.463941890  0.000000000     0.000000000  0.405853727 -0.143490961
     1.422557513  0.821313963  2.323026692     0.000000000  0.000000000  0.430472884

  length of vectors
     2.845115027  2.845115027  2.845115027     0.430472884  0.430472884  0.430472884

 k-points in units of 2pi/SCALE and weight: read from INCAR
   0.00000000  0.00000000  0.00000000       0.001
   0.03514796 -0.02029269 -0.01434910       0.008
   0.07029593 -0.04058537 -0.02869819       0.008
   0.10544389 -0.06087806 -0.04304729       0.008
   0.14059186 -0.08117075 -0.05739638       0.008
   0.17573982 -0.10146343 -0.07174548       0.004
   0.03514796  0.02029269 -0.02869819       0.006
   0.07029593 -0.00000000 -0.04304729       0.024
   0.10544389 -0.02029269 -0.05739638       0.024
   0.14059186 -0.04058537 -0.07174548       0.024
   0.17573982 -0.06087806 -0.08609458       0.024
  -0.14059186  0.12175612  0.04304729       0.024
  -0.10544389  0.10146343  0.02869819       0.024
  -0.07029593  0.08117075  0.01434910       0.024
  -0.03514796  0.06087806  0.00000000       0.012
   0.07029593  0.04058537 -0.05739638       0.006
   0.10544389  0.02029269 -0.07174548       0.024
   0.14059186  0.00000000 -0.08609458       0.024
   0.17573982 -0.02029269 -0.10044367       0.024
  -0.14059186  0.16234149  0.02869819       0.024
  -0.10544389  0.14204880  0.01434910       0.024
  -0.07029593  0.12175612 -0.00000000       0.012
   0.10544389  0.06087806 -0.08609458       0.006
   0.14059186  0.04058537 -0.10044367       0.024
   0.17573982  0.02029269 -0.11479277       0.024
  -0.14059186  0.20292686  0.01434910       0.024
  -0.10544389  0.18263418 -0.00000000       0.012
   0.14059186  0.08117075 -0.11479277       0.006
   0.17573982  0.06087806 -0.12914187       0.024
  -0.14059186  0.24351224 -0.00000000       0.012
   0.17573982  0.10146343 -0.14349096       0.003
   0.10544389  0.02029269 -0.02869819       0.024
   0.14059186  0.00000000 -0.04304729       0.048
   0.17573982 -0.02029269 -0.05739638       0.048
  -0.14059186  0.16234149  0.07174548       0.024
   0.14059186  0.04058537 -0.05739638       0.024
   0.17573982  0.02029269 -0.07174548       0.048
  -0.14059186  0.20292686  0.05739638       0.048
  -0.10544389  0.18263418  0.04304729       0.048
  -0.07029593  0.16234149  0.02869819       0.024
   0.17573982  0.06087806 -0.08609458       0.024
  -0.14059186  0.24351224  0.04304729       0.048
  -0.10544389  0.22321955  0.02869819       0.024
  -0.14059186  0.28409761  0.02869819       0.012
  -0.14059186  0.24351224  0.08609458       0.024
  -0.10544389  0.22321955  0.07174548       0.024
  -0.10544389  0.26380492  0.05739638       0.012

 k-points in reciprocal lattice and weights: read from INCAR
   0.00000000  0.00000000  0.00000000       0.001
   0.10000000 -0.00000000  0.00000000       0.008
   0.20000000  0.00000000  0.00000000       0.008
   0.30000000 -0.00000000 -0.00000000       0.008
   0.40000000  0.00000000  0.00000000       0.008
   0.50000000 -0.00000000 -0.00000000       0.004
   0.10000000  0.10000000  0.00000000       0.006
   0.20000000  0.10000000  0.00000000       0.024
   0.30000000  0.10000000  0.00000000       0.024
   0.40000000  0.10000000 -0.00000000       0.024
   0.50000000  0.10000000 -0.00000000       0.024
  -0.40000000  0.10000000  0.00000000       0.024
  -0.30000000  0.10000000  0.00000000       0.024
  -0.20000000  0.10000000  0.00000000       0.024
  -0.10000000  0.10000000 -0.00000000       0.012
   0.20000000  0.20000000 -0.00000000       0.006
   0.30000000  0.20000000 -0.00000000       0.024
   0.40000000  0.20000000  0.00000000       0.024
   0.50000000  0.20000000 -0.00000000       0.024
  -0.40000000  0.20000000  0.00000000       0.024
  -0.30000000  0.20000000  0.00000000       0.024
  -0.20000000  0.20000000  0.00000000       0.012
   0.30000000  0.30000000  0.00000000       0.006
   0.40000000  0.30000000  0.00000000       0.024
   0.50000000  0.30000000  0.00000000       0.024
  -0.40000000  0.30000000  0.00000000       0.024
  -0.30000000  0.30000000  0.00000000       0.012
   0.40000000  0.40000000 -0.00000000       0.006
   0.50000000  0.40000000  0.00000000       0.024
  -0.40000000  0.40000000  0.00000000       0.012
   0.50000000  0.50000000 -0.00000000       0.003
   0.30000000  0.20000000  0.10000000       0.024
   0.40000000  0.20000000  0.10000000       0.048
   0.50000000  0.20000000  0.10000000       0.048
  -0.40000000  0.20000000  0.10000000       0.024
   0.40000000  0.30000000  0.10000000       0.024
   0.50000000  0.30000000  0.10000000       0.048
  -0.40000000  0.30000000  0.10000000       0.048
  -0.30000000  0.30000000  0.10000000       0.048
  -0.20000000  0.30000000  0.10000000       0.024
   0.50000000  0.40000000  0.10000000       0.024
  -0.40000000  0.40000000  0.10000000       0.048
  -0.30000000  0.40000000  0.10000000       0.024
  -0.40000000  0.50000000  0.10000000       0.012
  -0.40000000  0.40000000  0.20000000       0.024
  -0.30000000  0.40000000  0.20000000       0.024
  -0.30000000  0.50000000  0.20000000       0.012

 position of ions in fractional coordinates (direct lattice)
   0.00000000  0.00000000  0.00000000

 position of ions in cartesian coordinates  (Angst):
   0.00000000  0.00000000  0.00000000

 k-point  1 :   0.0000 0.0000 0.0000  plane waves:     537
 k-point  2 :   0.1000-0.0000 0.0000  plane waves:     537
 k-point  3 :   0.2000 0.0000 0.0000  plane waves:     552
 k-point  4 :   0.3000-0.0000-0.0000  plane waves:     537
 k-point  5 :   0.4000 0.0000 0.0000  plane waves:     547
 k-point  6 :   0.5000-0.0000-0.0000  plane waves:     544
 k-point  7 :   0.1000 0.1000 0.0000  plane waves:     540
 k-point  8 :   0.2000 0.1000 0.0000  plane waves:     551
 k-point  9 :   0.3000 0.1000 0.0000  plane waves:     549
 k-point 10 :   0.4000 0.1000-0.0000  plane waves:     546
 k-point 11 :   0.5000 0.1000-0.0000  plane waves:     547
 k-point 12 :  -0.4000 0.1000 0.0000  plane waves:     545
 k-point 13 :  -0.3000 0.1000 0.0000  plane waves:     546
 k-point 14 :  -0.2000 0.1000 0.0000  plane waves:     542
 k-point 15 :  -0.1000 0.1000-0.0000  plane waves:     545
 k-point 16 :   0.2000 0.2000-0.0000  plane waves:     540
 k-point 17 :   0.3000 0.2000-0.0000  plane waves:     545
 k-point 18 :   0.4000 0.2000 0.0000  plane waves:     543
 k-point 19 :   0.5000 0.2000-0.0000  plane waves:     545
 k-point 20 :  -0.4000 0.2000 0.0000  plane waves:     540
 k-point 21 :  -0.3000 0.2000 0.0000  plane waves:     543
 k-point 22 :  -0.2000 0.2000 0.0000  plane waves:     550
 k-point 23 :   0.3000 0.3000 0.0000  plane waves:     552
 k-point 24 :   0.4000 0.3000 0.0000  plane waves:     543
 k-point 25 :   0.5000 0.3000 0.0000  plane waves:     544
 k-point 26 :  -0.4000 0.3000 0.0000  plane waves:     541
 k-point 27 :  -0.3000 0.3000 0.0000  plane waves:     542
 k-point 28 :   0.4000 0.4000-0.0000  plane waves:     552
 k-point 29 :   0.5000 0.4000 0.0000  plane waves:     546
 k-point 30 :  -0.4000 0.4000 0.0000  plane waves:     542
 k-point 31 :   0.5000 0.5000-0.0000  plane waves:     524
 k-point 32 :   0.3000 0.2000 0.1000  plane waves:     548
 k-point 33 :   0.4000 0.2000 0.1000  plane waves:     543
 k-point 34 :   0.5000 0.2000 0.1000  plane waves:     546
 k-point 35 :  -0.4000 0.2000 0.1000  plane waves:     548
 k-point 36 :   0.4000 0.3000 0.1000  plane waves:     543
 k-point 37 :   0.5000 0.3000 0.1000  plane waves:     542
 k-point 38 :  -0.4000 0.3000 0.1000  plane waves:     545
 k-point 39 :  -0.3000 0.3000 0.1000  plane waves:     541
 k-point 40 :  -0.2000 0.3000 0.1000  plane waves:     548
 k-point 41 :   0.5000 0.4000 0.1000  plane waves:     537
 k-point 42 :  -0.4000 0.4000 0.1000  plane waves:     541
 k-point 43 :  -0.3000 0.4000 0.1000  plane waves:     539
 k-point 44 :  -0.4000 0.5000 0.1000  plane waves:     540
 k-point 45 :  -0.4000 0.4000 0.2000  plane waves:     540
 k-point 46 :  -0.3000 0.4000 0.2000  plane waves:     534
 k-point 47 :  -0.3000 0.5000 0.2000  plane waves:     534

 maximum and minimum number of plane-waves per node :       143      125

 maximum number of plane-waves:       552
 maximum index in each direction:
   IXMAX=    6   IYMAX=    5   IZMAX=    5
   IXMIN=   -6   IYMIN=   -6   IZMIN=   -5

 parallel 3D FFT for wavefunctions:
    minimum data exchange during FFTs selected (reduces bandwidth)
 parallel 3D FFT for charge:
    minimum data exchange during FFTs selected (reduces bandwidth)

 Broyden mixing: mesh for mixing (old mesh)
   NGX = 11   NGY = 11   NGZ = 11
  (NGX  = 48   NGY  = 48   NGZ  = 48)
  gives a total of   1331 points

 initial charge density was supplied:
 charge density of overlapping atoms calculated
 number of electron       2.0000000 magnetization
 keeping initial charge density in first step

 Maximum index for augmentation-charges        11429 (set IRDMAX)

 First call to EWALD:  gamma=   0.699
 Maximum number of real-space cells 3x 3x 3
 Maximum number of reciprocal cells 3x 3x 3

--------------------------------------- Iteration      1(   1)  ---------------------------------------

 eigenvalue-minimisations  :   470
 total energy-change (2. order) : 0.3765700E+00  (-0.4268324E+02)
 number of electron       2.0000000 magnetization
 augmentation part        2.0000000 magnetization

 Free energy of the ion-electron system (eV)
  alpha Z        PSCENC =         0.62263337
  Ewald energy   TEWEN  =       -32.81689722
  -Hartree energ DENC   =       -23.23826789
  -exchange      EXHF   =         0.00000000
  -V(xc)+E(xc)   XCENC  =         7.73038852
  PAW double counting   =        45.69252117      -47.19906635
  entropy T*S    EENTRO =         0.00006958
  eigenvalues    EBANDS =       -29.13673610
  atomic energy  EATOM  =        78.72192494
  Solvation  Ediel_sol  =         0.00000000
  free energy    TOTEN  =         0.37657001 eV

  energy without entropy =        0.37650044  energy(sigma->0) =        0.37654682

[...]

 eigenvalue-minimisations  :   640
 total energy-change (2. order) :-0.3860215E+00  (-0.3863282E+00)
 number of electron       2.0000000 magnetization
 augmentation part        2.0000000 magnetization

[...]

 Broyden mixing:
  rms(total) = 0.57541E-02    rms(broyden)= 0.47677E-02
  rms(prec ) = 0.73029E-02
  weight for this iteration     100.00
  WARNING: grid for Broyden might be to small

[...]

 Broyden mixing:
  rms(total) = 0.28268E-02    rms(broyden)= 0.27530E-02
  rms(prec ) = 0.40361E-02
  weight for this iteration     100.00

 eigenvalues of (default mixing * dielectric matrix)
  average eigenvalue GAMMA=   2.3343
  2.3343

[...]

 Broyden mixing:
  rms(total) = 0.38029E-03    rms(broyden)= 0.35946E-03
  rms(prec ) = 0.62462E-03
  weight for this iteration     100.00

[...]

 eigenvalue-minimisations  :   525
 total energy-change (2. order) : 0.3129155E-06  (-0.3826474E-07)
 number of electron       2.0000000 magnetization
 augmentation part        0.2919881 magnetization

[...]

 Broyden mixing:
  rms(total) = 0.85567E-05    rms(broyden)= 0.72778E-05
  rms(prec ) = 0.15021E-04
  weight for this iteration     100.00
  WARNING: grid for Broyden might be to small

 eigenvalues of (default mixing * dielectric matrix)
  average eigenvalue GAMMA=   2.0208
  1.0103  2.1606  2.4560  2.4560

[...]

--------------------------------------- Iteration      1(  10)  ---------------------------------------

 eigenvalue-minimisations  :   275
 total energy-change (2. order) :-0.7221118E-08  (-0.3430701E-10)
 number of electron       2.0000000 magnetization
 augmentation part        0.2919882 magnetization

 Free energy of the ion-electron system (eV)
  alpha Z        PSCENC =         0.62263337
  Ewald energy   TEWEN  =       -32.81689722
  -Hartree energ DENC   =       -23.25561893
  -exchange      EXHF   =         0.00000000
  -V(xc)+E(xc)   XCENC  =         7.73250200
  PAW double counting   =        45.55776173      -47.06758079
  entropy T*S    EENTRO =         0.00068900
  eigenvalues    EBANDS =       -29.50598433
  atomic energy  EATOM  =        78.72192494
  Solvation  Ediel_sol  =         0.00000000
  free energy    TOTEN  =        -0.01057022 eV

  energy without entropy =       -0.01125922  energy(sigma->0) =       -0.01079989

 average (electrostatic) potential at core
  the test charge radii are     0.5871
  (the norm of the test charge is              1.0000)
       1 -50.5270

 E-fermi : -14.4267     XC(G=0):  -5.2686     alpha+bet : -0.9963

 k-point     1 :       0.0000    0.0000    0.0000
  band No.  band energies     occupation
      1     -15.6706      2.00000
      2       3.6096      0.00000
      3      20.6987      0.00000
      4      20.6987      0.00000
      5      20.6987      0.00000

[...]

 k-point    47 :      -0.3000    0.5000    0.2000
  band No.  band energies     occupation
      1     -14.4464      1.61256
      2       6.4686      0.00000
      3       8.2877      0.00000
      4       8.2942      0.00000
      5      17.4112      0.00000

 soft charge-density along one line, spin component           1
         0         1         2         3         4         5         6         7         8         9
 total charge-density along one line

------------------------ aborting loop because EDIFF is reached ----------------------------------------

         DFTD3 V3.0 Rev 1
 IVDW         = 12
 DF pbe
 parameters
 VDW_S6       =    1.0000
 VDW_S8       =    0.7875
 VDW_A1       =    0.4289
 VDW_A2       =    4.4407
 k1-k3        =   16.0000    1.3333   -4.0000
 VDW_RADIUS   =   50.2022 A
 VDW_CNRADIUS =   21.1671 A
 Edisp (eV)   -0.00765

 E6    (eV) :    -0.0066
 E8    (eV) :    -0.0010
 % E8        : 13.29

  FORCE on cell =-STRESS in cart. coord.  units (eV):
  Direction    XX          YY          ZZ          XY          YZ          ZX
  Alpha Z     0.62263     0.62263     0.62263
  Ewald     -10.93897   -10.93897   -10.93897     0.00000    -0.00000     0.00000
  Hartree     7.75186     7.75186     7.75186     0.00000    -0.00000     0.00000
  E(xc)      -8.78655    -8.78655    -8.78655    -0.00000    -0.00000    -0.00000
  Local     -10.40542   -10.40543   -10.40543     0.00000     0.00000     0.00000
  n-local   -11.59991   -11.63340   -11.64770    -0.01217     0.00383    -0.03139
  augment     3.51459     3.51459     3.51459    -0.00000    -0.00000    -0.00000
  Kinetic    30.81597    29.64717    29.17193    -0.41972     0.12226    -1.06316
  Fock        0.00000     0.00000     0.00000     0.00000     0.00000     0.00000
  vdW        -0.00918    -0.00918    -0.00918    -0.00000    -0.00000     0.00000
  Total       0.00032     0.00032     0.00032     0.00000    -0.00000     0.00000
  in kB       0.03140     0.03140     0.03140     0.00000    -0.00000     0.00000

 VOLUME and BASIS-vectors are now :
  energy-cutoff  :      600.00
  volume of cell :       16.28
      direct lattice vectors                 reciprocal lattice vectors
     2.845115027  0.000000000  0.000000000     0.351479638 -0.202926864 -0.143490961
     1.422557513  2.463941890  0.000000000     0.000000000  0.405853727 -0.143490961
     1.422557513  0.821313963  2.323026692     0.000000000  0.000000000  0.430472884

  length of vectors
     2.845115027  2.845115027  2.845115027     0.430472884  0.430472884  0.430472884

 FORCES acting on ions
    electron-ion (+dipol)            ewald-force                    non-local-force                 convergence-correction
   0.942E-15 0.185E-14 -.363E-16   -.213E-15 -.672E-17 0.753E-16   0.310E-24 -.414E-24 0.000E+00   0.812E-16 0.177E-14 -.470E-15
   0.942E-15 0.185E-14 -.363E-16   -.213E-15 -.672E-17 0.753E-16   0.310E-24 -.414E-24 0.000E+00   0.812E-16 0.177E-14 -.470E-15

 POSITION                                       TOTAL-FORCE (eV/Angst)
      0.00000      0.00000      0.00000         0.000000      0.000000      0.000000
    total drift:                                0.000000      0.000000     -0.000000

  FREE ENERGIE OF THE ION-ELECTRON SYSTEM (eV)
  free  energy   TOTEN  =        -0.01822269 eV

  energy  without entropy=       -0.01891170  energy(sigma->0) =       -0.01845236

 Quasi-Newton relaxation of ions (Broydens 2nd method)
  g(Force)  = 0.000E+00   g(Stress)= 0.295E-08

 Reset! Starting new Quasi-Newton update for ions

 reached required accuracy - stopping structural energy minimisation