 vasp.5.4.4.18Apr17-6-g9f103f2a35 (build Nov 03 2018 10:20:46) complex

 executed on             LinuxIFC date 2018.12.04  09:33:09

 INCAR:
 POTCAR:    PAW_PBE He_GW 13May2007

 POTCAR:    PAW_PBE He_GW 13May2007
   VRHFIN =He: 1s

   TITEL  = PAW_PBE He_GW 13May2007
   POMASS =    4.000; ZVAL   =    2.000    mass and valenz
   ENMAX  =  405.780; ENMIN  =  304.335 eV

  PAW_PBE He_GW 13May2007               :

 POSCAR: He_FCC
  positions in direct lattice
  velocities in cartesian coordinates
 exchange correlation table for  LEXCH =        8
   RHO(1)=    0.500       N(1)  =     2000
   RHO(2)=  100.500       N(2)  =     4000

 ion  position               nearest neighbor table
   1  0.000  0.000  0.000-

  LATTYP: Found a face centered cubic cell.
 ALAT       =     4.0236002575

  Lattice vectors:

 A1 = (   2.8451150268,   0.0000000000,   0.0000000000)
 A2 = (   1.4225575134,   2.4639418899,   0.0000000000)
 A3 = (   1.4225575134,   0.8213139633,   2.3230266918)

Analysis of symmetry for initial positions (statically):
 Subroutine PRICEL returns:
 Original cell was already a primitive cell.

 Routine SETGRP: Setting up the symmetry group for a
 face centered cubic supercell.

 Subroutine GETGRP returns: Found 48 space group operations
 (whereof 48 operations were pure point group operations)
 out of a pool of 48 trial point group operations.

The static configuration has the point symmetry O_h .

Analysis of symmetry for dynamics (positions and initial velocities):
 Subroutine PRICEL returns:
 Original cell was already a primitive cell.

 Routine SETGRP: Setting up the symmetry group for a
 face centered cubic supercell.

 Subroutine GETGRP returns: Found 48 space group operations
 (whereof 48 operations were pure point group operations)
 out of a pool of 48 trial point group operations.

The dynamic configuration has the point symmetry O_h .

 Subroutine INISYM returns: Found 48 space group operations
 (whereof 48 operations are pure point group operations),
 and found     1 'primitive' translations

Automatic generation of k-mesh.
 generate k-points for:   14   14   14
Space group operators:
 irot       det(A)        alpha          n_x          n_y          n_z        tau_x        tau_y        tau_z
    1     1.000000     0.000000     1.000000     0.000000     0.000000     0.000000     0.000000     0.000000
    2    -1.000000     0.000000     1.000000     0.000000     0.000000     0.000000     0.000000     0.000000
    3     1.000000   120.000000    -0.816497    -0.471405    -0.333333     0.000000     0.000000     0.000000
    4    -1.000000   120.000000    -0.816497    -0.471405    -0.333333     0.000000     0.000000     0.000000
    5     1.000000   120.000000     0.816497     0.471405     0.333333     0.000000     0.000000     0.000000
    6    -1.000000   120.000000     0.816497     0.471405     0.333333     0.000000     0.000000     0.000000
    7     1.000000    90.000000    -0.707107    -0.408248     0.577350     0.000000     0.000000     0.000000
    8    -1.000000    90.000000    -0.707107    -0.408248     0.577350     0.000000     0.000000     0.000000
    9     1.000000   180.000000     1.000000     0.000000     0.000000     0.000000     0.000000     0.000000
   10    -1.000000   180.000000     1.000000     0.000000     0.000000     0.000000     0.000000     0.000000
   11     1.000000    90.000000     0.707107    -0.408248     0.577350     0.000000     0.000000     0.000000
   12    -1.000000    90.000000     0.707107    -0.408248     0.577350     0.000000     0.000000     0.000000
   13     1.000000   180.000000     0.707107     0.408248    -0.577350     0.000000     0.000000     0.000000
   14    -1.000000   180.000000     0.707107     0.408248    -0.577350     0.000000     0.000000     0.000000
   15     1.000000   120.000000     0.816497    -0.471405    -0.333333     0.000000     0.000000     0.000000
   16    -1.000000   120.000000     0.816497    -0.471405    -0.333333     0.000000     0.000000     0.000000
   17     1.000000   120.000000     0.000000    -0.942809     0.333333     0.000000     0.000000     0.000000
   18    -1.000000   120.000000     0.000000    -0.942809     0.333333     0.000000     0.000000     0.000000
   19     1.000000    90.000000     0.707107     0.408248    -0.577350     0.000000     0.000000     0.000000
   20    -1.000000    90.000000     0.707107     0.408248    -0.577350     0.000000     0.000000     0.000000
   21     1.000000    90.000000    -0.000000    -0.816497    -0.577350     0.000000     0.000000     0.000000
   22    -1.000000    90.000000    -0.000000    -0.816497    -0.577350     0.000000     0.000000     0.000000
   23     1.000000   180.000000     0.500000     0.866025    -0.000000     0.000000     0.000000     0.000000
   24    -1.000000   180.000000     0.500000     0.866025    -0.000000     0.000000     0.000000     0.000000
   25     1.000000   120.000000     0.000000     0.942809    -0.333333     0.000000     0.000000     0.000000
   26    -1.000000   120.000000     0.000000     0.942809    -0.333333     0.000000     0.000000     0.000000
   27     1.000000   120.000000     0.000000    -0.000000    -1.000000     0.000000     0.000000     0.000000
   28    -1.000000   120.000000     0.000000    -0.000000    -1.000000     0.000000     0.000000     0.000000
   29     1.000000   180.000000     0.000000    -0.816497    -0.577350     0.000000     0.000000     0.000000
   30    -1.000000   180.000000     0.000000    -0.816497    -0.577350     0.000000     0.000000     0.000000
   31     1.000000    90.000000    -0.707107     0.408248    -0.577350     0.000000     0.000000     0.000000
   32    -1.000000    90.000000    -0.707107     0.408248    -0.577350     0.000000     0.000000     0.000000
   33     1.000000   180.000000     0.500000     0.288675     0.816497     0.000000     0.000000     0.000000
   34    -1.000000   180.000000     0.500000     0.288675     0.816497     0.000000     0.000000     0.000000
   35     1.000000    90.000000    -0.000000     0.816497     0.577350     0.000000     0.000000     0.000000
   36    -1.000000    90.000000    -0.000000     0.816497     0.577350     0.000000     0.000000     0.000000
   37     1.000000   120.000000    -0.816497     0.471405     0.333333     0.000000     0.000000     0.000000
   38    -1.000000   120.000000    -0.816497     0.471405     0.333333     0.000000     0.000000     0.000000
   39     1.000000   179.999999    -0.707107     0.408248    -0.577350     0.000000     0.000000     0.000000
   40    -1.000000   179.999999    -0.707107     0.408248    -0.577350     0.000000     0.000000     0.000000
   41     1.000000   120.000000     0.000000     0.000000     1.000000     0.000000     0.000000     0.000000
   42    -1.000000   120.000000     0.000000     0.000000     1.000000     0.000000     0.000000     0.000000
   43     1.000000   180.000000     0.000000    -0.577350     0.816497     0.000000     0.000000     0.000000
   44    -1.000000   180.000000     0.000000    -0.577350     0.816497     0.000000     0.000000     0.000000
   45     1.000000   180.000000    -0.500000     0.866025    -0.000000     0.000000     0.000000     0.000000
   46    -1.000000   180.000000    -0.500000     0.866025    -0.000000     0.000000     0.000000     0.000000
   47     1.000000   180.000000     0.500000    -0.288675    -0.816497     0.000000     0.000000     0.000000
   48    -1.000000   180.000000     0.500000    -0.288675    -0.816497     0.000000     0.000000     0.000000

 Subroutine IBZKPT returns following result:

 Found    104 irreducible k-points:

 Following reciprocal coordinates:
            Coordinates               Weight
  0.000000  0.000000  0.000000      1.000000
  0.071429  0.000000  0.000000      8.000000
  0.142857  0.000000  0.000000      8.000000
  0.214286  0.000000  0.000000      8.000000
  0.285714  0.000000  0.000000      8.000000
  0.357143  0.000000  0.000000      8.000000
  0.428571  0.000000  0.000000      8.000000
  0.500000  0.000000  0.000000      4.000000
  0.071429  0.071429 -0.000000      6.000000
  0.142857  0.071429  0.000000     24.000000
  0.214286  0.071429 -0.000000     24.000000
  0.285714  0.071429  0.000000     24.000000
  0.357143  0.071429  0.000000     24.000000
  0.428571  0.071429  0.000000     24.000000
  0.500000  0.071429  0.000000     24.000000
 -0.428571  0.071429  0.000000     24.000000
 -0.357143  0.071429 -0.000000     24.000000
 -0.285714  0.071429 -0.000000     24.000000
 -0.214286  0.071429  0.000000     24.000000
 -0.142857  0.071429  0.000000     24.000000
 -0.071429  0.071429 -0.000000     12.000000
  0.142857  0.142857  0.000000      6.000000
  0.214286  0.142857  0.000000     24.000000
  0.285714  0.142857  0.000000     24.000000
  0.357143  0.142857  0.000000     24.000000
  0.428571  0.142857  0.000000     24.000000
  0.500000  0.142857  0.000000     24.000000
 -0.428571  0.142857  0.000000     24.000000
 -0.357143  0.142857 -0.000000     24.000000
 -0.285714  0.142857 -0.000000     24.000000
 -0.214286  0.142857  0.000000     24.000000
 -0.142857  0.142857  0.000000     12.000000
  0.214286  0.214286  0.000000      6.000000
  0.285714  0.214286  0.000000     24.000000
  0.357143  0.214286  0.000000     24.000000
  0.428571  0.214286 -0.000000     24.000000
  0.500000  0.214286  0.000000     24.000000
 -0.428571  0.214286  0.000000     24.000000
 -0.357143  0.214286 -0.000000     24.000000
 -0.285714  0.214286 -0.000000     24.000000
 -0.214286  0.214286  0.000000     12.000000
  0.285714  0.285714  0.000000      6.000000
  0.357143  0.285714  0.000000     24.000000
  0.428571  0.285714 -0.000000     24.000000
  0.500000  0.285714  0.000000     24.000000
 -0.428571  0.285714 -0.000000     24.000000
 -0.357143  0.285714 -0.000000     24.000000
 -0.285714  0.285714 -0.000000     12.000000
  0.357143  0.357143  0.000000      6.000000
  0.428571  0.357143  0.000000     24.000000
  0.500000  0.357143  0.000000     24.000000
 -0.428571  0.357143 -0.000000     24.000000
 -0.357143  0.357143 -0.000000     12.000000
  0.428571  0.428571  0.000000      6.000000
  0.500000  0.428571  0.000000     24.000000
 -0.428571  0.428571  0.000000     12.000000
  0.500000  0.500000  0.000000      3.000000
  0.214286  0.142857  0.071429     24.000000
  0.285714  0.142857  0.071429     48.000000
  0.357143  0.142857  0.071429     48.000000
[...]
  0.500000  0.285714  0.142857     48.000000
 -0.428571  0.285714  0.142857     48.000000
 -0.357143  0.285714  0.142857     24.000000
  0.500000  0.357143  0.142857     24.000000
 -0.428571  0.357143  0.142857     48.000000
 -0.357143  0.357143  0.142857     48.000000
 -0.285714  0.357143  0.142857     48.000000
 -0.214286  0.357143  0.142857     24.000000
 -0.428571  0.428571  0.142857     24.000000
 -0.357143  0.428571  0.142857     48.000000
 -0.285714  0.428571  0.142857     24.000000
 -0.357143  0.500000  0.142857     12.000000
 -0.357143  0.428571  0.214286     24.000000
 -0.285714  0.428571  0.214286     24.000000
 -0.285714  0.500000  0.214286     12.000000

 Following cartesian coordinates:
            Coordinates               Weight
  0.000000  0.000000  0.000000      1.000000
[...]
   0.28571429  0.00000000  0.00000000       0.003
   0.35714286  0.00000000  0.00000000       0.003
   0.42857143  0.00000000  0.00000000       0.003
   0.50000000  0.00000000  0.00000000       0.001
   0.07142857  0.07142857 -0.00000000       0.002
   0.14285714  0.07142857  0.00000000       0.009
   0.21428571  0.07142857 -0.00000000       0.009
   0.28571429  0.07142857  0.00000000       0.009
   0.35714286  0.07142857  0.00000000       0.009
   0.42857143  0.07142857  0.00000000       0.009
   0.50000000  0.07142857  0.00000000       0.009
  -0.42857143  0.07142857  0.00000000       0.009
  -0.35714286  0.07142857 -0.00000000       0.009
  -0.28571429  0.07142857 -0.00000000       0.009
  -0.21428571  0.07142857  0.00000000       0.009
  -0.14285714  0.07142857  0.00000000       0.009
  -0.07142857  0.07142857 -0.00000000       0.004
   0.14285714  0.14285714  0.00000000       0.002
   0.21428571  0.14285714  0.00000000       0.009
   0.28571429  0.14285714  0.00000000       0.009
   0.35714286  0.14285714  0.00000000       0.009
   0.42857143  0.14285714  0.00000000       0.009
   0.50000000  0.14285714  0.00000000       0.009
  -0.42857143  0.14285714  0.00000000       0.009
  -0.35714286  0.14285714 -0.00000000       0.009
  -0.28571429  0.14285714 -0.00000000       0.009
  -0.21428571  0.14285714  0.00000000       0.009
  -0.14285714  0.14285714  0.00000000       0.004
   0.21428571  0.21428571  0.00000000       0.002
   0.28571429  0.21428571  0.00000000       0.009
   0.35714286  0.21428571  0.00000000       0.009
   0.42857143  0.21428571 -0.00000000       0.009
   0.50000000  0.21428571  0.00000000       0.009
  -0.42857143  0.21428571  0.00000000       0.009
  -0.35714286  0.21428571 -0.00000000       0.009
  -0.28571429  0.21428571 -0.00000000       0.009
  -0.21428571  0.21428571  0.00000000       0.004
   0.28571429  0.28571429  0.00000000       0.002
   0.35714286  0.28571429  0.00000000       0.009
   0.42857143  0.28571429 -0.00000000       0.009
   0.50000000  0.28571429  0.00000000       0.009
  -0.42857143  0.28571429 -0.00000000       0.009
  -0.35714286  0.28571429 -0.00000000       0.009
  -0.28571429  0.28571429 -0.00000000       0.004
   0.35714286  0.35714286  0.00000000       0.002
   0.42857143  0.35714286  0.00000000       0.009
   0.50000000  0.35714286  0.00000000       0.009
  -0.42857143  0.35714286 -0.00000000       0.009
  -0.35714286  0.35714286 -0.00000000       0.004
   0.42857143  0.42857143  0.00000000       0.002
   0.50000000  0.42857143  0.00000000       0.009
  -0.42857143  0.42857143  0.00000000       0.004
   0.50000000  0.50000000  0.00000000       0.001
   0.21428571  0.14285714  0.07142857       0.009
   0.28571429  0.14285714  0.07142857       0.017
   0.35714286  0.14285714  0.07142857       0.017
[...]
   0.50000000  0.28571429  0.14285714       0.017
  -0.42857143  0.28571429  0.14285714       0.017
  -0.35714286  0.28571429  0.14285714       0.009
   0.50000000  0.35714286  0.14285714       0.009
  -0.42857143  0.35714286  0.14285714       0.017
  -0.35714286  0.35714286  0.14285714       0.017
  -0.28571429  0.35714286  0.14285714       0.017
  -0.21428571  0.35714286  0.14285714       0.009
  -0.42857143  0.42857143  0.14285714       0.009
  -0.35714286  0.42857143  0.14285714       0.017
  -0.28571429  0.42857143  0.14285714       0.009
  -0.35714286  0.50000000  0.14285714       0.004
  -0.35714286  0.42857143  0.21428571       0.009
  -0.28571429  0.42857143  0.21428571       0.009
  -0.28571429  0.50000000  0.21428571       0.004

 position of ions in fractional coordinates (direct lattice)
   0.00000000  0.00000000  0.00000000

 position of ions in cartesian coordinates  (Angst):
   0.00000000  0.00000000  0.00000000

 k-point  1 :   0.0000 0.0000 0.0000  plane waves:     537
 k-point  2 :   0.0714 0.0000 0.0000  plane waves:     534
 k-point  3 :   0.1429 0.0000 0.0000  plane waves:     540
 k-point  4 :   0.2143 0.0000 0.0000  plane waves:     549
 k-point  5 :   0.2857 0.0000 0.0000  plane waves:     543
 k-point  6 :   0.3571 0.0000 0.0000  plane waves:     549
 k-point  7 :   0.4286 0.0000 0.0000  plane waves:     556
 k-point  8 :   0.5000 0.0000 0.0000  plane waves:     544
 k-point  9 :   0.0714 0.0714-0.0000  plane waves:     536
 k-point 10 :   0.1429 0.0714 0.0000  plane waves:     542
 k-point 11 :   0.2143 0.0714-0.0000  plane waves:     548
 k-point 12 :   0.2857 0.0714 0.0000  plane waves:     547
 k-point 13 :   0.3571 0.0714 0.0000  plane waves:     544
 k-point 14 :   0.4286 0.0714 0.0000  plane waves:     546
 k-point 15 :   0.5000 0.0714 0.0000  plane waves:     552
 k-point 16 :  -0.4286 0.0714 0.0000  plane waves:     552
 k-point 17 :  -0.3571 0.0714-0.0000  plane waves:     543
 k-point 18 :  -0.2857 0.0714-0.0000  plane waves:     547
 k-point 19 :  -0.2143 0.0714 0.0000  plane waves:     543
 k-point 20 :  -0.1429 0.0714 0.0000  plane waves:     548
 k-point 21 :  -0.0714 0.0714-0.0000  plane waves:     539
 k-point 22 :   0.1429 0.1429 0.0000  plane waves:     544
 k-point 23 :   0.2143 0.1429 0.0000  plane waves:     549
 k-point 24 :   0.2857 0.1429 0.0000  plane waves:     547
 k-point 25 :   0.3571 0.1429 0.0000  plane waves:     541
 k-point 26 :   0.4286 0.1429 0.0000  plane waves:     544
 k-point 27 :   0.5000 0.1429 0.0000  plane waves:     545
 k-point 28 :  -0.4286 0.1429 0.0000  plane waves:     546
 k-point 29 :  -0.3571 0.1429-0.0000  plane waves:     547
 k-point 30 :  -0.2857 0.1429-0.0000  plane waves:     543
 k-point 31 :  -0.2143 0.1429 0.0000  plane waves:     547
 k-point 32 :  -0.1429 0.1429 0.0000  plane waves:     547
 k-point 33 :   0.2143 0.2143 0.0000  plane waves:     540
 k-point 34 :   0.2857 0.2143 0.0000  plane waves:     549
 k-point 35 :   0.3571 0.2143 0.0000  plane waves:     547
 k-point 36 :   0.4286 0.2143-0.0000  plane waves:     541
 k-point 37 :   0.5000 0.2143 0.0000  plane waves:     545
 k-point 38 :  -0.4286 0.2143 0.0000  plane waves:     540
 k-point 39 :  -0.3571 0.2143-0.0000  plane waves:     544
 k-point 40 :  -0.2857 0.2143-0.0000  plane waves:     544
 k-point 41 :  -0.2143 0.2143 0.0000  plane waves:     546
 k-point 42 :   0.2857 0.2857 0.0000  plane waves:     552
 k-point 43 :   0.3571 0.2857 0.0000  plane waves:     545
 k-point 44 :   0.4286 0.2857-0.0000  plane waves:     547
 k-point 45 :   0.5000 0.2857 0.0000  plane waves:     544
 k-point 46 :  -0.4286 0.2857-0.0000  plane waves:     543
 k-point 47 :  -0.3571 0.2857-0.0000  plane waves:     536
 k-point 48 :  -0.2857 0.2857-0.0000  plane waves:     544
 k-point 49 :   0.3571 0.3571 0.0000  plane waves:     548
 k-point 50 :   0.4286 0.3571 0.0000  plane waves:     547
 k-point 51 :   0.5000 0.3571 0.0000  plane waves:     540
 k-point 52 :  -0.4286 0.3571-0.0000  plane waves:     539
 k-point 53 :  -0.3571 0.3571-0.0000  plane waves:     538
 k-point 54 :   0.4286 0.4286 0.0000  plane waves:     540
 k-point 55 :   0.5000 0.4286 0.0000  plane waves:     537
 k-point 56 :  -0.4286 0.4286 0.0000  plane waves:     546
 k-point 57 :   0.5000 0.5000 0.0000  plane waves:     524
 k-point 58 :   0.2143 0.1429 0.0714  plane waves:     551
 k-point 59 :   0.2857 0.1429 0.0714  plane waves:     548
 k-point 60 :   0.3571 0.1429 0.0714  plane waves:     547
[...]
 k-point 85 :   0.5000 0.4286 0.0714  plane waves:     540
 k-point 86 :  -0.4286 0.4286 0.0714  plane waves:     541
 k-point 87 :  -0.3571 0.4286 0.0714  plane waves:     536
 k-point 88 :  -0.4286 0.5000 0.0714  plane waves:     540
 k-point 89 :   0.4286 0.2857 0.1429  plane waves:     547
 k-point 90 :   0.5000 0.2857 0.1429  plane waves:     545
 k-point 91 :  -0.4286 0.2857 0.1429  plane waves:     540
 k-point 92 :  -0.3571 0.2857 0.1429  plane waves:     548
 k-point 93 :   0.5000 0.3571 0.1429  plane waves:     541
 k-point 94 :  -0.4286 0.3571 0.1429  plane waves:     545
 k-point 95 :  -0.3571 0.3571 0.1429  plane waves:     545
 k-point 96 :  -0.2857 0.3571 0.1429  plane waves:     537
 k-point 97 :  -0.2143 0.3571 0.1429  plane waves:     544
 k-point 98 :  -0.4286 0.4286 0.1429  plane waves:     542
 k-point 99 :  -0.3571 0.4286 0.1429  plane waves:     537
 k-point ** :  -0.2857 0.4286 0.1429  plane waves:     533
 k-point ** :  -0.3571 0.5000 0.1429  plane waves:     540
 k-point ** :  -0.3571 0.4286 0.2143  plane waves:     536
 k-point ** :  -0.2857 0.4286 0.2143  plane waves:     534
 k-point ** :  -0.2857 0.5000 0.2143  plane waves:     526

 maximum and minimum number of plane-waves per node :       283      257

 maximum number of plane-waves:       556
 maximum index in each direction:
   IXMAX=    6   IYMAX=    5   IZMAX=    5
   IXMIN=   -6   IYMIN=   -6   IZMIN=   -5

 parallel 3D FFT for wavefunctions:
    minimum data exchange during FFTs selected (reduces bandwidth)
 parallel 3D FFT for charge:
    minimum data exchange during FFTs selected (reduces bandwidth)

 Broyden mixing: mesh for mixing (old mesh)
   NGX = 11   NGY = 11   NGZ = 11
  (NGX  = 48   NGY  = 48   NGZ  = 48)
  gives a total of   1331 points

 initial charge density was supplied:
 charge density of overlapping atoms calculated
 number of electron       2.0000000 magnetization
 keeping initial charge density in first step

 Maximum index for augmentation-charges        23043 (set IRDMAX)

 First call to EWALD:  gamma=   0.699
 Maximum number of real-space cells 3x 3x 3
 Maximum number of reciprocal cells 3x 3x 3

--------------------------------------- Iteration      1(   1)  ---------------------------------------

 eigenvalue-minimisations  :  1040
 total energy-change (2. order) : 0.3826383E+00  (-0.4277911E+02)
 number of electron       2.0000000 magnetization
 augmentation part        2.0000000 magnetization

 Free energy of the ion-electron system (eV)
  alpha Z        PSCENC =         0.62263337
  Ewald energy   TEWEN  =       -32.81689722
  -Hartree energ DENC   =       -23.23826789
  -exchange      EXHF   =         0.00000000
  -V(xc)+E(xc)   XCENC  =         7.73038852
  PAW double counting   =        45.69252117      -47.19906635
  entropy T*S    EENTRO =         0.00010167
  eigenvalues    EBANDS =       -29.13069990
  atomic energy  EATOM  =        78.72192494
  Solvation  Ediel_sol  =         0.00000000
  free energy    TOTEN  =         0.38263831 eV

  energy without entropy =        0.38253664  energy(sigma->0) =        0.38260442

[...]

 eigenvalue-minimisations  :  1380
 total energy-change (2. order) :-0.3917957E+00  (-0.3921835E+00)
 number of electron       2.0000000 magnetization
 augmentation part        2.0000000 magnetization

[...]

 Broyden mixing:
  rms(total) = 0.57528E-02    rms(broyden)= 0.47666E-02
  rms(prec ) = 0.73033E-02
  weight for this iteration     100.00
  WARNING: grid for Broyden might be to small

[...]

 Broyden mixing:
  rms(total) = 0.28240E-02    rms(broyden)= 0.27502E-02
  rms(prec ) = 0.40318E-02
  weight for this iteration     100.00

 eigenvalues of (default mixing * dielectric matrix)
  average eigenvalue GAMMA=   2.3313
  2.3313

[...]

 Broyden mixing:
  rms(total) = 0.38247E-03    rms(broyden)= 0.36171E-03
  rms(prec ) = 0.62313E-03
  weight for this iteration     100.00

[...]

 eigenvalue-minimisations  :  1195
 total energy-change (2. order) : 0.3498374E-06  (-0.3692824E-07)
 number of electron       2.0000000 magnetization
 augmentation part        0.2919885 magnetization

[...]

 Broyden mixing:
  rms(total) = 0.84378E-05    rms(broyden)= 0.71288E-05
  rms(prec ) = 0.15135E-04
  weight for this iteration     100.00
  WARNING: grid for Broyden might be to small

 eigenvalues of (default mixing * dielectric matrix)
  average eigenvalue GAMMA=   2.0278
  1.0097  2.1486  2.4765  2.4765

[...]

--------------------------------------- Iteration      1(  10)  ---------------------------------------

 eigenvalue-minimisations  :   575
 total energy-change (2. order) :-0.8865115E-08  (-0.2983129E-10)
 number of electron       2.0000000 magnetization
 augmentation part        0.2919887 magnetization

 Free energy of the ion-electron system (eV)
  alpha Z        PSCENC =         0.62263337
  Ewald energy   TEWEN  =       -32.81689722
  -Hartree energ DENC   =       -23.25565036
  -exchange      EXHF   =         0.00000000
  -V(xc)+E(xc)   XCENC  =         7.73250746
  PAW double counting   =        45.55793677      -47.06775593
  entropy T*S    EENTRO =         0.00066354
  eigenvalues    EBANDS =       -29.50593946
  atomic energy  EATOM  =        78.72192494
  Solvation  Ediel_sol  =         0.00000000
  free energy    TOTEN  =        -0.01057689 eV

  energy without entropy =       -0.01124043  energy(sigma->0) =       -0.01079807

 average (electrostatic) potential at core
  the test charge radii are     0.5871
  (the norm of the test charge is              1.0000)
       1 -50.5270

 E-fermi : -14.4258     XC(G=0):  -5.2686     alpha+bet : -0.9963

 k-point     1 :       0.0000    0.0000    0.0000
  band No.  band energies     occupation
      1     -15.6706      2.00000
      2       3.6096      0.00000
      3      20.6987      0.00000
      4      20.6987      0.00000
      5      20.6987      0.00000

[...]

 k-point   104 :      -0.2857    0.5000    0.2143
  band No.  band energies     occupation
      1     -14.4457      1.61757
      2       6.6853      0.00000
      3       7.9897      0.00000
      4       8.2315      0.00000
      5      17.6780      0.00000

 soft charge-density along one line, spin component           1
         0         1         2         3         4         5         6         7         8         9
 total charge-density along one line

------------------------ aborting loop because EDIFF is reached ----------------------------------------

         DFTD3 V3.0 Rev 1
 IVDW         = 12
 DF pbe
 parameters
 VDW_S6       =    1.0000
 VDW_S8       =    0.7875
 VDW_A1       =    0.4289
 VDW_A2       =    4.4407
 k1-k3        =   16.0000    1.3333   -4.0000
 VDW_RADIUS   =   50.2022 A
 VDW_CNRADIUS =   21.1671 A
 Edisp (eV)   -0.00769

 E6    (eV) :    -0.0067
 E8    (eV) :    -0.0010
 % E8        : 13.29

  FORCE on cell =-STRESS in cart. coord.  units (eV):
  Direction    XX          YY          ZZ          XY          YZ          ZX
  Alpha Z     0.62263     0.62263     0.62263
  Ewald     -10.93897   -10.93897   -10.93897     0.00000    -0.00000     0.00000
  Hartree     7.75187     7.75187     7.75187     0.00000    -0.00000     0.00000
  E(xc)      -8.78656    -8.78656    -8.78656    -0.00000    -0.00000    -0.00000
  Local     -10.40544   -10.40544   -10.40544     0.00000     0.00000     0.00000
  n-local   -11.60016   -11.63282   -11.64801    -0.01246     0.00409    -0.03154
  augment     3.51459     3.51460     3.51460    -0.00000    -0.00000    -0.00000
  Kinetic    30.80674    29.66724    29.16118    -0.43000     0.13155    -1.06761
  Fock        0.00000     0.00000     0.00000     0.00000     0.00000     0.00000
  vdW        -0.00922    -0.00922    -0.00922     0.00000    -0.00000    -0.00000
  Total       0.00031     0.00031     0.00031     0.00000    -0.00000     0.00000
  in kB       0.03015     0.03015     0.03015     0.00000    -0.00000     0.00000

 VOLUME and BASIS-vectors are now :
  energy-cutoff  :      600.00
  volume of cell :       16.28
      direct lattice vectors                 reciprocal lattice vectors
     2.845115027  0.000000000  0.000000000     0.351479638 -0.202926864 -0.143490961
     1.422557513  2.463941890  0.000000000     0.000000000  0.405853727 -0.143490961
     1.422557513  0.821313963  2.323026692     0.000000000  0.000000000  0.430472884

  length of vectors
     2.845115027  2.845115027  2.845115027     0.430472884  0.430472884  0.430472884

 FORCES acting on ions
    electron-ion (+dipol)            ewald-force                    non-local-force                 convergence-correction
   0.928E-15 0.175E-14 -.275E-16   -.213E-15 -.672E-17 0.753E-16   0.517E-25 0.000E+00 0.000E+00   0.450E-15 0.142E-14 0.421E-16
   0.928E-15 0.175E-14 -.275E-16   -.213E-15 -.672E-17 0.753E-16   0.517E-25 0.000E+00 0.000E+00   0.450E-15 0.142E-14 0.421E-16

 POSITION                                       TOTAL-FORCE (eV/Angst)
      0.00000      0.00000      0.00000         0.000000     -0.000000      0.000000
    total drift:                                0.000000      0.000000      0.000000

  FREE ENERGIE OF THE ION-ELECTRON SYSTEM (eV)
  free  energy   TOTEN  =        -0.01826458 eV

  energy  without entropy=       -0.01892811  energy(sigma->0) =       -0.01848575

 Quasi-Newton relaxation of ions (Broydens 2nd method)
  g(Force)  = 0.000E+00   g(Stress)= 0.272E-08

 Reset! Starting new Quasi-Newton update for ions

 reached required accuracy - stopping structural energy minimisation