 vasp.5.4.4.18Apr17-6-g9f103f2a35 (build Jul 09 2018 16:43:14) complex

 executed on             LinuxIFC date 2018.11.21  22:26:18

 INCAR:
 POTCAR:    PAW_PBE Ne_GW 22Sep2014

 POTCAR:    PAW_PBE Ne_GW 22Sep2014
   VRHFIN =Ne: s2p6

   TITEL  = PAW_PBE Ne_GW 22Sep2014
   POMASS =   20.180; ZVAL   =    8.000    mass and valenz
   ENMAX  =  432.275; ENMIN  =  324.206 eV

  PAW_PBE Ne_GW 22Sep2014               :

 POSCAR: Ne_FCC
  positions in direct lattice
  velocities in cartesian coordinates
 exchange correlation table for  LEXCH =        8
   RHO(1)=    0.500       N(1)  =     2000
   RHO(2)=  100.500       N(2)  =     4000

 ion  position               nearest neighbor table
   1  0.000  0.000  0.000-

  LATTYP: Found a face centered cubic cell.
 ALAT       =     4.2055926366

  Lattice vectors:

 A1 = (   2.9738030722,   0.0000000000,   0.0000000000)
 A2 = (   1.4869015361,   2.5753890063,   0.0000000000)
 A3 = (   1.4869015361,   0.8584630021,   2.4281000409)

Analysis of symmetry for initial positions (statically):
 Subroutine PRICEL returns:
 Original cell was already a primitive cell.

 Routine SETGRP: Setting up the symmetry group for a
 face centered cubic supercell.

 Subroutine GETGRP returns: Found 48 space group operations
 (whereof 48 operations were pure point group operations)
 out of a pool of 48 trial point group operations.

The static configuration has the point symmetry O_h .

Analysis of symmetry for dynamics (positions and initial velocities):
 Subroutine PRICEL returns:
 Original cell was already a primitive cell.

 Routine SETGRP: Setting up the symmetry group for a
 face centered cubic supercell.

 Subroutine GETGRP returns: Found 48 space group operations
 (whereof 48 operations were pure point group operations)
 out of a pool of 48 trial point group operations.

The dynamic configuration has the point symmetry O_h .

 Subroutine INISYM returns: Found 48 space group operations
 (whereof 48 operations are pure point group operations),
 and found     1 'primitive' translations

Automatic generation of k-mesh.
 generate k-points for:    9    9    9
Space group operators:
 irot       det(A)        alpha          n_x          n_y          n_z        tau_x        tau_y        tau_z
    1     1.000000     0.000000     1.000000     0.000000     0.000000     0.000000     0.000000     0.000000
    2    -1.000000     0.000000     1.000000     0.000000     0.000000     0.000000     0.000000     0.000000
    3     1.000000   120.000000    -0.816497    -0.471405    -0.333333     0.000000     0.000000     0.000000
    4    -1.000000   120.000000    -0.816497    -0.471405    -0.333333     0.000000     0.000000     0.000000
    5     1.000000   120.000000     0.816497     0.471405     0.333333     0.000000     0.000000     0.000000
    6    -1.000000   120.000000     0.816497     0.471405     0.333333     0.000000     0.000000     0.000000
    7     1.000000    90.000000    -0.707107    -0.408248     0.577350     0.000000     0.000000     0.000000
    8    -1.000000    90.000000    -0.707107    -0.408248     0.577350     0.000000     0.000000     0.000000
    9     1.000000   180.000000     1.000000     0.000000     0.000000     0.000000     0.000000     0.000000
   10    -1.000000   180.000000     1.000000     0.000000     0.000000     0.000000     0.000000     0.000000
   11     1.000000    90.000000     0.707107    -0.408248     0.577350     0.000000     0.000000     0.000000
   12    -1.000000    90.000000     0.707107    -0.408248     0.577350     0.000000     0.000000     0.000000
   13     1.000000   180.000000     0.707107     0.408248    -0.577350     0.000000     0.000000     0.000000
   14    -1.000000   180.000000     0.707107     0.408248    -0.577350     0.000000     0.000000     0.000000
   15     1.000000   120.000000     0.816497    -0.471405    -0.333333     0.000000     0.000000     0.000000
   16    -1.000000   120.000000     0.816497    -0.471405    -0.333333     0.000000     0.000000     0.000000
   17     1.000000   120.000000     0.000000    -0.942809     0.333333     0.000000     0.000000     0.000000
   18    -1.000000   120.000000     0.000000    -0.942809     0.333333     0.000000     0.000000     0.000000
   19     1.000000    90.000000     0.707107     0.408248    -0.577350     0.000000     0.000000     0.000000
   20    -1.000000    90.000000     0.707107     0.408248    -0.577350     0.000000     0.000000     0.000000
   21     1.000000    90.000000    -0.000000    -0.816497    -0.577350     0.000000     0.000000     0.000000
   22    -1.000000    90.000000    -0.000000    -0.816497    -0.577350     0.000000     0.000000     0.000000
   23     1.000000   180.000000     0.500000     0.866025     0.000000     0.000000     0.000000     0.000000
   24    -1.000000   180.000000     0.500000     0.866025     0.000000     0.000000     0.000000     0.000000
   25     1.000000   120.000000     0.000000     0.942809    -0.333333     0.000000     0.000000     0.000000
   26    -1.000000   120.000000     0.000000     0.942809    -0.333333     0.000000     0.000000     0.000000
   27     1.000000   120.000000    -0.000000     0.000000    -1.000000     0.000000     0.000000     0.000000
   28    -1.000000   120.000000    -0.000000     0.000000    -1.000000     0.000000     0.000000     0.000000
   29     1.000000   179.999999     0.000000    -0.816497    -0.577350     0.000000     0.000000     0.000000
   30    -1.000000   179.999999     0.000000    -0.816497    -0.577350     0.000000     0.000000     0.000000
   31     1.000000    90.000000    -0.707107     0.408248    -0.577350     0.000000     0.000000     0.000000
   32    -1.000000    90.000000    -0.707107     0.408248    -0.577350     0.000000     0.000000     0.000000
   33     1.000000   180.000000     0.500000     0.288675     0.816497     0.000000     0.000000     0.000000
   34    -1.000000   180.000000     0.500000     0.288675     0.816497     0.000000     0.000000     0.000000
   35     1.000000    90.000000    -0.000000     0.816497     0.577350     0.000000     0.000000     0.000000
   36    -1.000000    90.000000    -0.000000     0.816497     0.577350     0.000000     0.000000     0.000000
   37     1.000000   120.000000    -0.816497     0.471405     0.333333     0.000000     0.000000     0.000000
   38    -1.000000   120.000000    -0.816497     0.471405     0.333333     0.000000     0.000000     0.000000
   39     1.000000   180.000000    -0.707107     0.408248    -0.577350     0.000000     0.000000     0.000000
   40    -1.000000   180.000000    -0.707107     0.408248    -0.577350     0.000000     0.000000     0.000000
   41     1.000000   120.000000    -0.000000    -0.000000     1.000000     0.000000     0.000000     0.000000
   42    -1.000000   120.000000    -0.000000    -0.000000     1.000000     0.000000     0.000000     0.000000
   43     1.000000   180.000000     0.000000    -0.577350     0.816497     0.000000     0.000000     0.000000
   44    -1.000000   180.000000     0.000000    -0.577350     0.816497     0.000000     0.000000     0.000000
   45     1.000000   180.000000    -0.500000     0.866025     0.000000     0.000000     0.000000     0.000000
   46    -1.000000   180.000000    -0.500000     0.866025     0.000000     0.000000     0.000000     0.000000
   47     1.000000   180.000000    -0.500000     0.288675     0.816497     0.000000     0.000000     0.000000
   48    -1.000000   180.000000    -0.500000     0.288675     0.816497     0.000000     0.000000     0.000000

 Subroutine IBZKPT returns following result:

 Found     35 irreducible k-points:

 Following reciprocal coordinates:
            Coordinates               Weight
  0.000000  0.000000  0.000000      1.000000
  0.111111  0.000000  0.000000      8.000000
  0.222222  0.000000 -0.000000      8.000000
  0.333333  0.000000  0.000000      8.000000
  0.444444  0.000000 -0.000000      8.000000
  0.111111  0.111111  0.000000      6.000000
  0.222222  0.111111 -0.000000     24.000000
  0.333333  0.111111  0.000000     24.000000
  0.444444  0.111111 -0.000000     24.000000
 -0.444444  0.111111  0.000000     24.000000
 -0.333333  0.111111  0.000000     24.000000
 -0.222222  0.111111  0.000000     24.000000
 -0.111111  0.111111  0.000000     12.000000
  0.222222  0.222222 -0.000000      6.000000
  0.333333  0.222222  0.000000     24.000000
  0.444444  0.222222  0.000000     24.000000
 -0.444444  0.222222  0.000000     24.000000
 -0.333333  0.222222  0.000000     24.000000
 -0.222222  0.222222  0.000000     12.000000
  0.333333  0.333333  0.000000      6.000000
  0.444444  0.333333  0.000000     24.000000
 -0.444444  0.333333  0.000000     24.000000
 -0.333333  0.333333  0.000000     12.000000
  0.444444  0.444444 -0.000000      6.000000
 -0.444444  0.444444  0.000000     12.000000
  0.333333  0.222222  0.111111     24.000000
  0.444444  0.222222  0.111111     48.000000
 -0.444444  0.222222  0.111111     48.000000
  0.444444  0.333333  0.111111     24.000000
 -0.444444  0.333333  0.111111     48.000000
 -0.333333  0.333333  0.111111     48.000000
 -0.222222  0.333333  0.111111     24.000000
 -0.444444  0.444444  0.111111     24.000000
 -0.333333  0.444444  0.111111     24.000000
 -0.333333  0.444444  0.222222     24.000000

 Following cartesian coordinates:
            Coordinates               Weight
  0.000000  0.000000  0.000000      1.000000
  0.037363 -0.021572 -0.015254      8.000000
  0.074727 -0.043143 -0.030507      8.000000
  0.112090 -0.064715 -0.045761      8.000000
  0.149453 -0.086287 -0.061014      8.000000
  0.037363  0.021572 -0.030507      6.000000
  0.074727 -0.000000 -0.045761     24.000000
  0.112090 -0.021572 -0.061014     24.000000
  0.149453 -0.043143 -0.076268     24.000000
 -0.149453  0.129430  0.045761     24.000000
 -0.112090  0.107859  0.030507     24.000000
 -0.074727  0.086287  0.015254     24.000000
 -0.037363  0.064715  0.000000     12.000000
  0.074727  0.043143 -0.061014      6.000000
  0.112090  0.021572 -0.076268     24.000000
  0.149453  0.000000 -0.091521     24.000000
 -0.149453  0.172574  0.030507     24.000000
 -0.112090  0.151002  0.015254     24.000000
 -0.074727  0.129430  0.000000     12.000000
  0.112090  0.064715 -0.091521      6.000000
  0.149453  0.043143 -0.106775     24.000000
 -0.149453  0.215717  0.015254     24.000000
 -0.112090  0.194145  0.000000     12.000000
  0.149453  0.086287 -0.122028      6.000000
 -0.149453  0.258861  0.000000     12.000000
  0.112090  0.021572 -0.030507     24.000000
  0.149453  0.000000 -0.045761     48.000000
 -0.149453  0.172574  0.076268     48.000000
  0.149453  0.043143 -0.061014     24.000000
 -0.149453  0.215717  0.061014     48.000000
 -0.112090  0.194145  0.045761     48.000000
 -0.074727  0.172574  0.030507     24.000000
 -0.149453  0.258861  0.045761     24.000000
 -0.112090  0.237289  0.030507     24.000000
 -0.112090  0.237289  0.076268     24.000000

 SYSTEM =  Ne_FCC
 POSCAR =  Ne_FCC

 Startparameter for this run:
   NWRITE =      2    write-flag & timer
   PREC   = accura    normal or accurate (medium, high low for compatibility)
   ISTART =      0    job   : 0-new  1-cont  2-samecut
[...]
  -0.14945322  0.21571714  0.01525351       0.033
  -0.11208991  0.19414543  0.00000000       0.016
   0.14945322  0.08628686 -0.12202804       0.008
  -0.14945322  0.25886057  0.00000000       0.016
   0.11208991  0.02157171 -0.03050701       0.033
   0.14945322  0.00000000 -0.04576052       0.066
  -0.14945322  0.17257371  0.07626753       0.066
   0.14945322  0.04314343 -0.06101402       0.033
  -0.14945322  0.21571714  0.06101402       0.066
  -0.11208991  0.19414543  0.04576052       0.066
  -0.07472661  0.17257371  0.03050701       0.033
  -0.14945322  0.25886057  0.04576052       0.033
  -0.11208991  0.23728886  0.03050701       0.033
  -0.11208991  0.23728886  0.07626753       0.033

 k-points in reciprocal lattice and weights: read from INCAR
   0.00000000  0.00000000  0.00000000       0.001
   0.11111111  0.00000000  0.00000000       0.011
   0.22222222  0.00000000 -0.00000000       0.011
   0.33333333  0.00000000  0.00000000       0.011
   0.44444444  0.00000000 -0.00000000       0.011
   0.11111111  0.11111111  0.00000000       0.008
   0.22222222  0.11111111 -0.00000000       0.033
   0.33333333  0.11111111  0.00000000       0.033
   0.44444444  0.11111111 -0.00000000       0.033
  -0.44444444  0.11111111  0.00000000       0.033
  -0.33333333  0.11111111  0.00000000       0.033
  -0.22222222  0.11111111  0.00000000       0.033
  -0.11111111  0.11111111  0.00000000       0.016
   0.22222222  0.22222222 -0.00000000       0.008
   0.33333333  0.22222222  0.00000000       0.033
   0.44444444  0.22222222  0.00000000       0.033
  -0.44444444  0.22222222  0.00000000       0.033
  -0.33333333  0.22222222  0.00000000       0.033
  -0.22222222  0.22222222  0.00000000       0.016
   0.33333333  0.33333333  0.00000000       0.008
   0.44444444  0.33333333  0.00000000       0.033
  -0.44444444  0.33333333  0.00000000       0.033
  -0.33333333  0.33333333  0.00000000       0.016
   0.44444444  0.44444444 -0.00000000       0.008
  -0.44444444  0.44444444  0.00000000       0.016
   0.33333333  0.22222222  0.11111111       0.033
   0.44444444  0.22222222  0.11111111       0.066
  -0.44444444  0.22222222  0.11111111       0.066
   0.44444444  0.33333333  0.11111111       0.033
  -0.44444444  0.33333333  0.11111111       0.066
  -0.33333333  0.33333333  0.11111111       0.066
  -0.22222222  0.33333333  0.11111111       0.033
  -0.44444444  0.44444444  0.11111111       0.033
  -0.33333333  0.44444444  0.11111111       0.033
  -0.33333333  0.44444444  0.22222222       0.033

 position of ions in fractional coordinates (direct lattice)
   0.00000000  0.00000000  0.00000000

 position of ions in cartesian coordinates  (Angst):
   0.00000000  0.00000000  0.00000000

 k-point  1 :   0.0000 0.0000 0.0000  plane waves:     609
 k-point  2 :   0.1111 0.0000 0.0000  plane waves:     618
 k-point  3 :   0.2222 0.0000-0.0000  plane waves:     616
 k-point  4 :   0.3333 0.0000 0.0000  plane waves:     613
 k-point  5 :   0.4444 0.0000-0.0000  plane waves:     619
 k-point  6 :   0.1111 0.1111 0.0000  plane waves:     609
 k-point  7 :   0.2222 0.1111-0.0000  plane waves:     615
 k-point  8 :   0.3333 0.1111 0.0000  plane waves:     612
 k-point  9 :   0.4444 0.1111-0.0000  plane waves:     616
 k-point 10 :  -0.4444 0.1111 0.0000  plane waves:     619
 k-point 11 :  -0.3333 0.1111 0.0000  plane waves:     616
 k-point 12 :  -0.2222 0.1111 0.0000  plane waves:     618
 k-point 13 :  -0.1111 0.1111 0.0000  plane waves:     610
 k-point 14 :   0.2222 0.2222-0.0000  plane waves:     612
 k-point 15 :   0.3333 0.2222 0.0000  plane waves:     612
 k-point 16 :   0.4444 0.2222 0.0000  plane waves:     617
 k-point 17 :  -0.4444 0.2222 0.0000  plane waves:     625
 k-point 18 :  -0.3333 0.2222 0.0000  plane waves:     621
 k-point 19 :  -0.2222 0.2222 0.0000  plane waves:     624
 k-point 20 :   0.3333 0.3333 0.0000  plane waves:     624
 k-point 21 :   0.4444 0.3333 0.0000  plane waves:     623
 k-point 22 :  -0.4444 0.3333 0.0000  plane waves:     623
 k-point 23 :  -0.3333 0.3333 0.0000  plane waves:     614
 k-point 24 :   0.4444 0.4444-0.0000  plane waves:     620
 k-point 25 :  -0.4444 0.4444 0.0000  plane waves:     630
 k-point 26 :   0.3333 0.2222 0.1111  plane waves:     617
 k-point 27 :   0.4444 0.2222 0.1111  plane waves:     618
 k-point 28 :  -0.4444 0.2222 0.1111  plane waves:     623
 k-point 29 :   0.4444 0.3333 0.1111  plane waves:     618
 k-point 30 :  -0.4444 0.3333 0.1111  plane waves:     626
 k-point 31 :  -0.3333 0.3333 0.1111  plane waves:     628
 k-point 32 :  -0.2222 0.3333 0.1111  plane waves:     627
 k-point 33 :  -0.4444 0.4444 0.1111  plane waves:     628
 k-point 34 :  -0.3333 0.4444 0.1111  plane waves:     622
 k-point 35 :  -0.3333 0.4444 0.2222  plane waves:     622

 maximum and minimum number of plane-waves per node :       164      144

 maximum number of plane-waves:       630
 maximum index in each direction:
   IXMAX=    6   IYMAX=    5   IZMAX=    5
   IXMIN=   -6   IYMIN=   -6   IZMIN=   -6

 parallel 3D FFT for wavefunctions:
    minimum data exchange during FFTs selected (reduces bandwidth)
 parallel 3D FFT for charge:
    minimum data exchange during FFTs selected (reduces bandwidth)

 Broyden mixing: mesh for mixing (old mesh)
   NGX = 11   NGY = 11   NGZ = 11
  (NGX  = 48   NGY  = 48   NGZ  = 48)
  gives a total of   1331 points

 initial charge density was supplied:
 charge density of overlapping atoms calculated
 number of electron       8.0000000 magnetization
 keeping initial charge density in first step

 Maximum index for augmentation-charges        14157 (set IRDMAX)

 First call to EWALD:  gamma=   0.669
 Maximum number of real-space cells 3x 3x 3
 Maximum number of reciprocal cells 3x 3x 3

--------------------------------------- Iteration      1(   1)  ---------------------------------------

 eigenvalue-minimisations  :   568
 total energy-change (2. order) : 0.3994202E+02  (-0.4613296E+03)
 number of electron       8.0000000 magnetization
 augmentation part        8.0000000 magnetization

 Free energy of the ion-electron system (eV)
  alpha Z        PSCENC =        16.69073952
  Ewald energy   TEWEN  =      -502.34851544
  -Hartree energ DENC   =      -334.11288541
  -exchange      EXHF   =         0.00000000
  -V(xc)+E(xc)   XCENC  =        45.57871261
  PAW double counting   =       753.58259359     -802.54577275
  entropy T*S    EENTRO =         0.00013598
  eigenvalues    EBANDS =       -92.20369695
  atomic energy  EATOM  =       955.30070756
  Solvation  Ediel_sol  =         0.00000000
  free energy    TOTEN  =        39.94201871 eV

  energy without entropy =       39.94188273  energy(sigma->0) =       39.94197338

[...]

 eigenvalue-minimisations  :   608
 total energy-change (2. order) :-0.3927102E+02  (-0.3667756E+02)
 number of electron       8.0000000 magnetization
 augmentation part        8.0000000 magnetization

[...]

 Broyden mixing:
  rms(total) = 0.22190E-01    rms(broyden)= 0.21128E-01
  rms(prec ) = 0.27703E-01
  weight for this iteration     100.00

[...]

 eigenvalues of (default mixing * dielectric matrix)
  average eigenvalue GAMMA=   2.2490
  2.2490

[...]

 Broyden mixing:
  rms(total) = 0.29609E-04    rms(broyden)= 0.26384E-04
  rms(prec ) = 0.86532E-04
  weight for this iteration     100.00
  WARNING: grid for Broyden might be to small

[...]

 Broyden mixing:
  rms(total) = 0.57278E-05    rms(broyden)= 0.49079E-05
  rms(prec ) = 0.89884E-05
  weight for this iteration     100.00
  WARNING: grid for Broyden might be to small

[...]

 average (electrostatic) potential at core
  the test charge radii are     0.8311
  (the norm of the test charge is              1.0000)
       1 -70.3463

 E-fermi : -10.3236     XC(G=0):  -7.1127     alpha+bet : -2.5613

 k-point     1 :       0.0000    0.0000    0.0000
  band No.  band energies     occupation
      1     -33.9520      2.00000
      2     -10.3372      1.44281
      3     -10.3372      1.44280
      4     -10.3372      1.44280
      5       1.5052      0.00000
      6      20.9466      0.00000
      7      20.9467      0.00000
      8      20.9467      0.00000

[...]

 soft charge-density along one line, spin component           1
         0         1         2         3         4         5         6         7         8         9
 total charge-density along one line

------------------------ aborting loop because EDIFF is reached ----------------------------------------

         DFTD3 V3.0 Rev 1
 IVDW         = 12
 DF pbe
 parameters
 VDW_S6       =    1.0000
 VDW_S8       =    0.7875
 VDW_A1       =    0.4289
 VDW_A2       =    4.4407
 k1-k3        =   16.0000    1.3333   -4.0000
 VDW_RADIUS   =   50.2022 A
 VDW_CNRADIUS =   21.1671 A
 Edisp (eV)   -0.02353

 E6    (eV) :    -0.0186
 E8    (eV) :    -0.0049
 % E8        : 20.79

  FORCE on cell =-STRESS in cart. coord.  units (eV):
  Direction    XX          YY          ZZ          XY          YZ          ZX
  Alpha Z    16.69074    16.69074    16.69074
  Ewald    -167.44951  -167.44951  -167.44951    -0.00000    -0.00000    -0.00000
  Hartree   111.38140   111.38140   111.38140     0.00000    -0.00000     0.00000
  E(xc)     -49.15355   -49.15355   -49.15355    -0.00000     0.00000    -0.00000
  Local     -76.90984   -76.90984   -76.90984     0.00000     0.00000     0.00000
  n-local   -60.93526   -61.32173   -61.46410    -0.12563     0.04047    -0.33377
  augment    49.32707    49.32707    49.32707    -0.00000    -0.00000    -0.00000
  Kinetic   175.95849   177.76023   178.46725     0.62518    -0.14813     1.58425
  Fock        0.00000     0.00000     0.00000     0.00000     0.00000     0.00000
  vdW        -0.02671    -0.02671    -0.02671    -0.00000    -0.00000    -0.00000
  Total       0.01456     0.01456     0.01456    -0.00000    -0.00000    -0.00000
  in kB       1.25452     1.25452     1.25452    -0.00000    -0.00000    -0.00000

 VOLUME and BASIS-vectors are now :
  energy-cutoff  :      600.00
  volume of cell :       18.60
      direct lattice vectors                 reciprocal lattice vectors
     2.973803072  0.000000000  0.000000000     0.336269745 -0.194145428 -0.137281548
     1.486901536  2.575389006  0.000000000     0.000000000  0.388290855 -0.137281548
     1.486901536  0.858463002  2.428100041     0.000000000  0.000000000  0.411844645

[...]

 FORCES acting on ions
    electron-ion (+dipol)            ewald-force                    non-local-force                 convergence-correction
   0.182E-13 0.337E-13 0.163E-14   -.294E-14 0.192E-15 -.131E-14   0.207E-23 -.207E-24 0.000E+00   0.132E-13 0.214E-13 -.473E-14
   0.182E-13 0.337E-13 0.163E-14   -.294E-14 0.192E-15 -.131E-14   0.207E-23 -.207E-24 0.000E+00   0.132E-13 0.214E-13 -.473E-14

 POSITION                                       TOTAL-FORCE (eV/Angst)
      0.00000      0.00000      0.00000        -0.000000      0.000000      0.000000
    total drift:                                0.000000      0.000000     -0.000000

  FREE ENERGIE OF THE ION-ELECTRON SYSTEM (eV)
  free  energy   TOTEN  =        -0.04221074 eV

  energy  without entropy=       -0.04307245  energy(sigma->0) =       -0.04249798

 Quasi-Newton relaxation of ions (Broydens 2nd method)
  g(Force)  = 0.000E+00   g(Stress)= 0.614E-05

 Reset! Starting new Quasi-Newton update for ions

[...]

 eigenvalue-minimisations  :   560
 total energy-change (2. order) :-0.3444067E-04  (-0.5919154E-04)
 number of electron       8.0000000 magnetization
 augmentation part        2.2996284 magnetization

[...]

 Broyden mixing:
  rms(total) = 0.41849E-05    rms(broyden)= 0.39471E-05
  rms(prec ) = 0.90187E-05
  weight for this iteration     100.00

 eigenvalues of (default mixing * dielectric matrix)
  average eigenvalue GAMMA=   1.8444
  1.1548  0.9561  0.9821  1.0221  1.0221  2.8779  2.5686  2.5686  2.3404  2.3404
  2.4552

[...]

--------------------------------------- Iteration      2(   6)  ---------------------------------------

 eigenvalue-minimisations  :   280
 total energy-change (2. order) : 0.7103074E-07  (-0.2163329E-09)
 number of electron       8.0000000 magnetization
 augmentation part        2.2990069 magnetization

 Free energy of the ion-electron system (eV)
  alpha Z        PSCENC =        16.68370675
  Ewald energy   TEWEN  =      -502.27794943
  -Hartree energ DENC   =      -334.19894102
  -exchange      EXHF   =         0.00000000
  -V(xc)+E(xc)   XCENC  =        45.58192290
  PAW double counting   =       759.21386168     -808.29536774
  entropy T*S    EENTRO =         0.00086326
  eigenvalues    EBANDS =      -132.02750566
  atomic energy  EATOM  =       955.30070756
  Solvation  Ediel_sol  =         0.00000000
  free energy    TOTEN  =        -0.01870171 eV

  energy without entropy =       -0.01956497  energy(sigma->0) =       -0.01898946

 average (electrostatic) potential at core
  the test charge radii are     0.8311
  (the norm of the test charge is              1.0000)
       1 -70.3475

 E-fermi : -10.3251     XC(G=0):  -7.1110     alpha+bet : -2.5602

[...]

 k-point    35 :      -0.3333    0.4444    0.2222
  band No.  band energies     occupation
      1     -33.7628      2.00000
      2     -11.0153      2.00000
      3     -10.8799      2.00000
      4     -10.6455      2.00000
      5       9.1419      0.00000
      6      11.3065      0.00000
      7      11.3701      0.00000
      8      15.7732      0.00000

 soft charge-density along one line, spin component           1
         0         1         2         3         4         5         6         7         8         9
 total charge-density along one line

------------------------ aborting loop because EDIFF is reached ----------------------------------------

         DFTD3 V3.0 Rev 1
 Edisp (eV)   -0.02352

 E6    (eV) :    -0.0186
 E8    (eV) :    -0.0049
 % E8        : 20.79

  FORCE on cell =-STRESS in cart. coord.  units (eV):
  Direction    XX          YY          ZZ          XY          YZ          ZX
  Alpha Z    16.68371    16.68371    16.68371
  Ewald    -167.42599  -167.42599  -167.42599    -0.00000    -0.00000    -0.00000
  Hartree   111.39949   111.39949   111.39949     0.00000    -0.00000     0.00000
  E(xc)     -49.15351   -49.15351   -49.15351    -0.00000     0.00000    -0.00000
  Local     -76.94443   -76.94444   -76.94444     0.00000     0.00000     0.00000
  n-local   -60.93451   -61.32082   -61.46308    -0.12556     0.04051    -0.33358
  augment    49.32710    49.32710    49.32710    -0.00000    -0.00000    -0.00000
  Kinetic   175.95848   177.75937   178.46597     0.62481    -0.14818     1.58343
  Fock        0.00000     0.00000     0.00000     0.00000     0.00000     0.00000
  vdW        -0.02670    -0.02670    -0.02670     0.00000    -0.00000    -0.00000
  Total       0.01480     0.01480     0.01480     0.00000    -0.00000     0.00000
  in kB       1.27469     1.27469     1.27469     0.00000    -0.00000     0.00000

 VOLUME and BASIS-vectors are now :
  energy-cutoff  :      600.00
  volume of cell :       18.60
      direct lattice vectors                 reciprocal lattice vectors
     2.974220868  0.000000000  0.000000000     0.336222508 -0.194118156 -0.137262264
     1.487110434  2.575750828  0.000000000     0.000000000  0.388236311 -0.137262264
     1.487110434  0.858583609  2.428441169     0.000000000  0.000000000  0.411786793

  length of vectors
     2.974220868  2.974220868  2.974220868     0.411786793  0.411786793  0.411786793

 FORCES acting on ions
    electron-ion (+dipol)            ewald-force                    non-local-force                 convergence-correction
   0.203E-13 0.336E-13 -.921E-15   0.132E-14 -.413E-16 -.172E-15   -.207E-24 -.517E-25 0.000E+00   0.204E-12 0.171E-12 0.215E-12
   0.203E-13 0.336E-13 -.921E-15   0.132E-14 -.413E-16 -.172E-15   -.207E-24 -.517E-25 0.000E+00   0.204E-12 0.171E-12 0.215E-12

 POSITION                                       TOTAL-FORCE (eV/Angst)
      0.00000      0.00000      0.00000         0.000000      0.000000      0.000000
    total drift:                                0.000000      0.000000      0.000000

  FREE ENERGIE OF THE ION-ELECTRON SYSTEM (eV)
  free  energy   TOTEN  =        -0.04221689 eV

  energy  without entropy=       -0.04308015  energy(sigma->0) =       -0.04250464

 d Force = 0.0000000E+00[ 0.000E+00, 0.000E+00]  d Energy = 0.6149680E-05-0.615E-05
 d Force = 0.0000000E+00[ 0.000E+00, 0.000E+00]  d Ewald  =-0.7056601E-01 0.706E-01

 Quasi-Newton relaxation of ions (Broydens 2nd method)
  g(Force)  = 0.000E+00   g(Stress)= 0.634E-05

 retain information from N=  1 steps
 eigenvalues of (default step * inverse Hessian matrix)
  average eigenvalue of G=  60.0647
 eigenvalue spectrum of G is 60.0647

 reached required accuracy - stopping structural energy minimisation