 vasp.5.4.4.18Apr17-6-g9f103f2a35 (build Nov 03 2018 10:20:46) complex

 executed on             LinuxIFC date 2018.12.20  14:46:32

 INCAR:
 POTCAR:    PAW_PBE Xe_GW 08Jan2009

 POTCAR:    PAW_PBE Xe_GW 08Jan2009
   VRHFIN =Xe: s2p6

   TITEL  = PAW_PBE Xe_GW 08Jan2009
   POMASS =  131.294; ZVAL   =    8.000    mass and valenz
   ENMAX  =  179.547; ENMIN  =  134.660 eV

  PAW_PBE Xe_GW 08Jan2009               :

 POSCAR: Xe_FCC
  positions in direct lattice
  velocities in cartesian coordinates
 exchange correlation table for  LEXCH =        8
   RHO(1)=    0.500       N(1)  =     2000
   RHO(2)=  100.500       N(2)  =     4000

 ion  position               nearest neighbor table
   1  0.000  0.000  0.000-

IMPORTANT INFORMATION: All symmetrisations will be switched off!
NOSYMM: (Re-)initialisation of all symmetry stuff for point group C_1.

 KPOINTS: k-points

Automatic generation of k-mesh.
Space group operators:
 irot       det(A)        alpha          n_x          n_y          n_z        tau_x        tau_y        tau_z
    1     1.000000     0.000000     1.000000     0.000000     0.000000     0.000000     0.000000     0.000000

 Subroutine IBZKPT returns following result:

 Found    216 irreducible k-points:

 Following reciprocal coordinates:
            Coordinates               Weight
  0.000000  0.000000  0.000000      1.000000
  0.166667  0.000000  0.000000      1.000000
  0.333333 -0.000000 -0.000000      1.000000
  0.500000 -0.000000 -0.000000      1.000000
 -0.333333  0.000000  0.000000      1.000000
 -0.166667 -0.000000 -0.000000      1.000000
  0.000000  0.166667  0.000000      1.000000
  0.166667  0.166667  0.000000      1.000000
  0.333333  0.166667  0.000000      1.000000
  0.500000  0.166667  0.000000      1.000000
 -0.333333  0.166667  0.000000      1.000000
 -0.166667  0.166667  0.000000      1.000000
  0.000000  0.333333  0.000000      1.000000
  0.166667  0.333333  0.000000      1.000000
  0.333333  0.333333  0.000000      1.000000
  0.500000  0.333333  0.000000      1.000000
 -0.333333  0.333333  0.000000      1.000000
 -0.166667  0.333333 -0.000000      1.000000
  0.000000  0.500000  0.000000      1.000000
  0.166667  0.500000  0.000000      1.000000
  0.333333  0.500000  0.000000      1.000000
  0.500000  0.500000  0.000000      1.000000
 -0.333333  0.500000 -0.000000      1.000000
 -0.166667  0.500000 -0.000000      1.000000
  0.000000 -0.333333 -0.000000      1.000000
  0.166667 -0.333333  0.000000      1.000000
  0.333333 -0.333333 -0.000000      1.000000
  0.500000 -0.333333 -0.000000      1.000000
 -0.333333 -0.333333 -0.000000      1.000000
 -0.166667 -0.333333 -0.000000      1.000000
  0.000000 -0.166667  0.000000      1.000000
  0.166667 -0.166667 -0.000000      1.000000
  0.333333 -0.166667  0.000000      1.000000
  0.500000 -0.166667  0.000000      1.000000
 -0.333333 -0.166667  0.000000      1.000000
 -0.166667 -0.166667 -0.000000      1.000000
  0.000000  0.000000  0.166667      1.000000
  0.166667  0.000000  0.166667      1.000000
  0.333333 -0.000000  0.166667      1.000000
  0.500000 -0.000000  0.166667      1.000000
 -0.333333  0.000000  0.166667      1.000000
 -0.166667  0.000000  0.166667      1.000000
  0.000000  0.166667  0.166667      1.000000
  0.166667  0.166667  0.166667      1.000000
  0.333333  0.166667  0.166667      1.000000
  0.500000  0.166667  0.166667      1.000000
 -0.333333  0.166667  0.166667      1.000000
 -0.166667  0.166667  0.166667      1.000000
  0.000000  0.333333  0.166667      1.000000
  0.166667  0.333333  0.166667      1.000000
  0.333333  0.333333  0.166667      1.000000
  0.500000  0.333333  0.166667      1.000000
 -0.333333  0.333333  0.166667      1.000000
 -0.166667  0.333333  0.166667      1.000000
  0.000000  0.500000  0.166667      1.000000
  0.166667  0.500000  0.166667      1.000000
  0.333333  0.500000  0.166667      1.000000
  0.500000  0.500000  0.166667      1.000000
 -0.333333  0.500000  0.166667      1.000000
 -0.166667  0.500000  0.166667      1.000000
[...]
  0.500000  0.500000 -0.166667      1.000000
 -0.333333  0.500000 -0.166667      1.000000
 -0.166667  0.500000 -0.166667      1.000000
 -0.000000 -0.333333 -0.166667      1.000000
  0.166667 -0.333333 -0.166667      1.000000
  0.333333 -0.333333 -0.166667      1.000000
  0.500000 -0.333333 -0.166667      1.000000
 -0.333333 -0.333333 -0.166667      1.000000
 -0.166667 -0.333333 -0.166667      1.000000
 -0.000000 -0.166667 -0.166667      1.000000
  0.166667 -0.166667 -0.166667      1.000000
  0.333333 -0.166667 -0.166667      1.000000
  0.500000 -0.166667 -0.166667      1.000000
 -0.333333 -0.166667 -0.166667      1.000000
 -0.166667 -0.166667 -0.166667      1.000000

 Following cartesian coordinates:
            Coordinates               Weight
  0.000000  0.000000  0.000000      1.000000
  0.037604 -0.021710 -0.015352      1.000000
  0.075207 -0.043421 -0.030703      1.000000
  0.112811 -0.065131 -0.046055      1.000000
 -0.075207  0.043421  0.030703      1.000000
 -0.037604  0.021710  0.015352      1.000000
  0.000000  0.043421 -0.015352      1.000000
  0.037604  0.021710 -0.030703      1.000000
  0.075207  0.000000 -0.046055      1.000000
  0.112811 -0.021710 -0.061406      1.000000
 -0.075207  0.086842  0.015352      1.000000
 -0.037604  0.065131  0.000000      1.000000
  0.000000  0.086842 -0.030703      1.000000
  0.037604  0.065131 -0.046055      1.000000
  0.075207  0.043421 -0.061406      1.000000
  0.112811  0.021710 -0.076758      1.000000
 -0.075207  0.130263  0.000000      1.000000
 -0.037604  0.108552 -0.015352      1.000000
  0.000000  0.130263 -0.046055      1.000000
  0.037604  0.108552 -0.061406      1.000000
  0.075207  0.086842 -0.076758      1.000000
  0.112811  0.065131 -0.092110      1.000000
 -0.075207  0.173684 -0.015352      1.000000
 -0.037604  0.151973 -0.030703      1.000000
 -0.000000 -0.086842  0.030703      1.000000
  0.037604 -0.108552  0.015352      1.000000
  0.075207 -0.130263 -0.000000      1.000000
  0.112811 -0.151973 -0.015352      1.000000
 -0.075207 -0.043421  0.061406      1.000000
 -0.037604 -0.065131  0.046055      1.000000
 -0.000000 -0.043421  0.015352      1.000000
  0.037604 -0.065131 -0.000000      1.000000
  0.075207 -0.086842 -0.015352      1.000000
  0.112811 -0.108552 -0.030703      1.000000
 -0.075207 -0.000000  0.046055      1.000000
 -0.037604 -0.021710  0.030703      1.000000
 -0.000000  0.000000  0.046055      1.000000
  0.037604 -0.021710  0.030703      1.000000
  0.075207 -0.043421  0.015352      1.000000
  0.112811 -0.065131 -0.000000      1.000000
 -0.075207  0.043421  0.076758      1.000000
 -0.037604  0.021710  0.061406      1.000000
 -0.000000  0.043421  0.030703      1.000000
  0.037604  0.021710  0.015352      1.000000
  0.075207  0.000000  0.000000      1.000000
  0.112811 -0.021710 -0.015352      1.000000
 -0.075207  0.086842  0.061406      1.000000
 -0.037604  0.065131  0.046055      1.000000
 -0.000000  0.086842  0.015352      1.000000
  0.037604  0.065131  0.000000      1.000000
  0.075207  0.043421 -0.015352      1.000000
  0.112811  0.021710 -0.030703      1.000000
 -0.075207  0.130263  0.046055      1.000000
 -0.037604  0.108552  0.030703      1.000000
 -0.000000  0.130263  0.000000      1.000000
  0.037604  0.108552 -0.015352      1.000000
  0.075207  0.086842 -0.030703      1.000000
  0.112811  0.065131 -0.046055      1.000000
 -0.075207  0.173684  0.030703      1.000000
 -0.037604  0.151973  0.015352      1.000000
[...]
  0.112811  0.065131 -0.138164      1.000000
 -0.075207  0.173684 -0.061406      1.000000
 -0.037604  0.151973 -0.076758      1.000000
  0.000000 -0.086842 -0.015352      1.000000
  0.037604 -0.108552 -0.030703      1.000000
  0.075207 -0.130263 -0.046055      1.000000
  0.112811 -0.151973 -0.061406      1.000000
 -0.075207 -0.043421  0.015352      1.000000
 -0.037604 -0.065131  0.000000      1.000000
  0.000000 -0.043421 -0.030703      1.000000
  0.037604 -0.065131 -0.046055      1.000000
  0.075207 -0.086842 -0.061406      1.000000
  0.112811 -0.108552 -0.076758      1.000000
 -0.075207 -0.000000 -0.000000      1.000000
 -0.037604 -0.021710 -0.015352      1.000000

 Subroutine IBZKPT_HF returns following result:

 Found    216 k-points in 1st BZ
 the following    216 k-points will be used (e.g. in the exchange kernel)
 Following reciprocal coordinates:   # in IRBZ
  0.000000  0.000000  0.000000    0.00462963   1 t-inv F
  0.166667  0.000000  0.000000    0.00462963   2 t-inv F
  0.333333 -0.000000 -0.000000    0.00462963   3 t-inv F
  0.500000 -0.000000 -0.000000    0.00462963   4 t-inv F
 -0.333333  0.000000  0.000000    0.00462963   5 t-inv F
 -0.166667 -0.000000 -0.000000    0.00462963   6 t-inv F
  0.000000  0.166667  0.000000    0.00462963   7 t-inv F
  0.166667  0.166667  0.000000    0.00462963   8 t-inv F
  0.333333  0.166667  0.000000    0.00462963   9 t-inv F
  0.500000  0.166667  0.000000    0.00462963  10 t-inv F
 -0.333333  0.166667  0.000000    0.00462963  11 t-inv F
 -0.166667  0.166667  0.000000    0.00462963  12 t-inv F
  0.000000  0.333333  0.000000    0.00462963  13 t-inv F
  0.166667  0.333333  0.000000    0.00462963  14 t-inv F
  0.333333  0.333333  0.000000    0.00462963  15 t-inv F
  0.500000  0.333333  0.000000    0.00462963  16 t-inv F
 -0.333333  0.333333  0.000000    0.00462963  17 t-inv F
 -0.166667  0.333333 -0.000000    0.00462963  18 t-inv F
  0.000000  0.500000  0.000000    0.00462963  19 t-inv F
  0.166667  0.500000  0.000000    0.00462963  20 t-inv F
  0.333333  0.500000  0.000000    0.00462963  21 t-inv F
  0.500000  0.500000  0.000000    0.00462963  22 t-inv F
 -0.333333  0.500000 -0.000000    0.00462963  23 t-inv F
 -0.166667  0.500000 -0.000000    0.00462963  24 t-inv F
  0.000000 -0.333333 -0.000000    0.00462963  25 t-inv F
  0.166667 -0.333333  0.000000    0.00462963  26 t-inv F
  0.333333 -0.333333 -0.000000    0.00462963  27 t-inv F
  0.500000 -0.333333 -0.000000    0.00462963  28 t-inv F
 -0.333333 -0.333333 -0.000000    0.00462963  29 t-inv F
 -0.166667 -0.333333 -0.000000    0.00462963  30 t-inv F
  0.000000 -0.166667  0.000000    0.00462963  31 t-inv F
  0.166667 -0.166667 -0.000000    0.00462963  32 t-inv F
  0.333333 -0.166667  0.000000    0.00462963  33 t-inv F
  0.500000 -0.166667  0.000000    0.00462963  34 t-inv F
 -0.333333 -0.166667  0.000000    0.00462963  35 t-inv F
 -0.166667 -0.166667 -0.000000    0.00462963  36 t-inv F
  0.000000  0.000000  0.166667    0.00462963  37 t-inv F
  0.166667  0.000000  0.166667    0.00462963  38 t-inv F
  0.333333 -0.000000  0.166667    0.00462963  39 t-inv F
  0.500000 -0.000000  0.166667    0.00462963  40 t-inv F
 -0.333333  0.000000  0.166667    0.00462963  41 t-inv F
 -0.166667  0.000000  0.166667    0.00462963  42 t-inv F
  0.000000  0.166667  0.166667    0.00462963  43 t-inv F
  0.166667  0.166667  0.166667    0.00462963  44 t-inv F
  0.333333  0.166667  0.166667    0.00462963  45 t-inv F
  0.500000  0.166667  0.166667    0.00462963  46 t-inv F
 -0.333333  0.166667  0.166667    0.00462963  47 t-inv F
 -0.166667  0.166667  0.166667    0.00462963  48 t-inv F
  0.000000  0.333333  0.166667    0.00462963  49 t-inv F
[...]
 k-point 30 :  -0.1667-0.3333-0.0000  plane waves:    1360
 k-point 31 :   0.0000-0.1667 0.0000  plane waves:    1346
 k-point 32 :   0.1667-0.1667-0.0000  plane waves:    1348
 k-point 33 :   0.3333-0.1667 0.0000  plane waves:    1354
 k-point 34 :   0.5000-0.1667 0.0000  plane waves:    1356
 k-point 35 :  -0.3333-0.1667 0.0000  plane waves:    1360
 k-point 36 :  -0.1667-0.1667-0.0000  plane waves:    1362
 k-point 37 :   0.0000 0.0000 0.1667  plane waves:    1346
 k-point 38 :   0.1667 0.0000 0.1667  plane waves:    1362
 k-point 39 :   0.3333-0.0000 0.1667  plane waves:    1360
 k-point 40 :   0.5000-0.0000 0.1667  plane waves:    1356
 k-point 41 :  -0.3333 0.0000 0.1667  plane waves:    1354
 k-point 42 :  -0.1667 0.0000 0.1667  plane waves:    1348
 k-point 43 :   0.0000 0.1667 0.1667  plane waves:    1362
 k-point 44 :   0.1667 0.1667 0.1667  plane waves:    1346
 k-point 45 :   0.3333 0.1667 0.1667  plane waves:    1348
 k-point 46 :   0.5000 0.1667 0.1667  plane waves:    1354
 k-point 47 :  -0.3333 0.1667 0.1667  plane waves:    1356
 k-point 48 :  -0.1667 0.1667 0.1667  plane waves:    1360
 k-point 49 :   0.0000 0.3333 0.1667  plane waves:    1360
 k-point 50 :   0.1667 0.3333 0.1667  plane waves:    1348
 k-point 51 :   0.3333 0.3333 0.1667  plane waves:    1360
 k-point 52 :   0.5000 0.3333 0.1667  plane waves:    1352
 k-point 53 :  -0.3333 0.3333 0.1667  plane waves:    1384
 k-point 54 :  -0.1667 0.3333 0.1667  plane waves:    1352
 k-point 55 :   0.0000 0.5000 0.1667  plane waves:    1356
 k-point 56 :   0.1667 0.5000 0.1667  plane waves:    1354
 k-point 57 :   0.3333 0.5000 0.1667  plane waves:    1352
 k-point 58 :   0.5000 0.5000 0.1667  plane waves:    1372
 k-point 59 :  -0.3333 0.5000 0.1667  plane waves:    1380
 k-point 60 :  -0.1667 0.5000 0.1667  plane waves:    1384
[...]
 k-point 85 :  -0.0000 0.3333 0.3333  plane waves:    1360
 k-point 86 :   0.1667 0.3333 0.3333  plane waves:    1360
 k-point 87 :   0.3333 0.3333 0.3333  plane waves:    1328
 k-point 88 :   0.5000 0.3333 0.3333  plane waves:    1354
 k-point 89 :  -0.3333 0.3333 0.3333  plane waves:    1360
 k-point 90 :  -0.1667 0.3333 0.3333  plane waves:    1372
 k-point 91 :   0.0000 0.5000 0.3333  plane waves:    1372
 k-point 92 :   0.1667 0.5000 0.3333  plane waves:    1352
 k-point 93 :   0.3333 0.5000 0.3333  plane waves:    1354
 k-point 94 :   0.5000 0.5000 0.3333  plane waves:    1356
 k-point 95 :  -0.3333 0.5000 0.3333  plane waves:    1384
 k-point 96 :  -0.1667 0.5000 0.3333  plane waves:    1380
 k-point 97 :   0.0000-0.3333 0.3333  plane waves:    1360
 k-point 98 :   0.1667-0.3333 0.3333  plane waves:    1384
 k-point 99 :   0.3333-0.3333 0.3333  plane waves:    1360
 k-point ** :   0.5000-0.3333 0.3333  plane waves:    1384
 k-point ** :  -0.3333-0.3333 0.3333  plane waves:    1360
 k-point ** :  -0.1667-0.3333 0.3333  plane waves:    1384
 k-point ** :   0.0000-0.1667 0.3333  plane waves:    1354
 k-point ** :   0.1667-0.1667 0.3333  plane waves:    1352
 k-point ** :   0.3333-0.1667 0.3333  plane waves:    1372
 k-point ** :   0.5000-0.1667 0.3333  plane waves:    1380
 k-point ** :  -0.3333-0.1667 0.3333  plane waves:    1384
 k-point ** :  -0.1667-0.1667 0.3333  plane waves:    1356
 k-point ** :   0.0000-0.0000 0.5000  plane waves:    1400
 k-point ** :   0.1667 0.0000 0.5000  plane waves:    1356
 k-point ** :   0.3333-0.0000 0.5000  plane waves:    1372
 k-point ** :   0.5000-0.0000 0.5000  plane waves:    1384
 k-point ** :  -0.3333 0.0000 0.5000  plane waves:    1372
 k-point ** :  -0.1667 0.0000 0.5000  plane waves:    1356
 k-point ** :   0.0000 0.1667 0.5000  plane waves:    1356
 k-point ** :   0.1667 0.1667 0.5000  plane waves:    1354
 k-point ** :   0.3333 0.1667 0.5000  plane waves:    1352
 k-point ** :   0.5000 0.1667 0.5000  plane waves:    1372
 k-point ** :  -0.3333 0.1667 0.5000  plane waves:    1380
 k-point ** :  -0.1667 0.1667 0.5000  plane waves:    1384
 k-point ** :  -0.0000 0.3333 0.5000  plane waves:    1372
 k-point ** :   0.1667 0.3333 0.5000  plane waves:    1352
 k-point ** :   0.3333 0.3333 0.5000  plane waves:    1354
 k-point ** :   0.5000 0.3333 0.5000  plane waves:    1356
 k-point ** :  -0.3333 0.3333 0.5000  plane waves:    1384
 k-point ** :  -0.1667 0.3333 0.5000  plane waves:    1380
 k-point ** :   0.0000 0.5000 0.5000  plane waves:    1384
 k-point ** :   0.1667 0.5000 0.5000  plane waves:    1372
 k-point ** :   0.3333 0.5000 0.5000  plane waves:    1356
 k-point ** :   0.5000 0.5000 0.5000  plane waves:    1400
 k-point ** :  -0.3333 0.5000 0.5000  plane waves:    1356
 k-point ** :  -0.1667 0.5000 0.5000  plane waves:    1372
 k-point ** :   0.0000-0.3333 0.5000  plane waves:    1372
 k-point ** :   0.1667-0.3333 0.5000  plane waves:    1380
 k-point ** :   0.3333-0.3333 0.5000  plane waves:    1384
 k-point ** :   0.5000-0.3333 0.5000  plane waves:    1356
 k-point ** :  -0.3333-0.3333 0.5000  plane waves:    1354
 k-point ** :  -0.1667-0.3333 0.5000  plane waves:    1352
 k-point ** :   0.0000-0.1667 0.5000  plane waves:    1356
 k-point ** :   0.1667-0.1667 0.5000  plane waves:    1384
 k-point ** :   0.3333-0.1667 0.5000  plane waves:    1380
 k-point ** :   0.5000-0.1667 0.5000  plane waves:    1372
 k-point ** :  -0.3333-0.1667 0.5000  plane waves:    1352
 k-point ** :  -0.1667-0.1667 0.5000  plane waves:    1354
 k-point ** :  -0.0000-0.0000-0.3333  plane waves:    1328
 k-point ** :   0.1667-0.0000-0.3333  plane waves:    1354
 k-point ** :   0.3333-0.0000-0.3333  plane waves:    1360
 k-point ** :   0.5000-0.0000-0.3333  plane waves:    1372
 k-point ** :  -0.3333 0.0000-0.3333  plane waves:    1360
 k-point ** :  -0.1667 0.0000-0.3333  plane waves:    1360
 k-point ** :   0.0000 0.1667-0.3333  plane waves:    1354
 k-point ** :   0.1667 0.1667-0.3333  plane waves:    1356
 k-point ** :   0.3333 0.1667-0.3333  plane waves:    1384
 k-point ** :   0.5000 0.1667-0.3333  plane waves:    1380
 k-point ** :  -0.3333 0.1667-0.3333  plane waves:    1372
 k-point ** :  -0.1667 0.1667-0.3333  plane waves:    1352
 k-point ** :  -0.0000 0.3333-0.3333  plane waves:    1360
 k-point ** :   0.1667 0.3333-0.3333  plane waves:    1384
 k-point ** :   0.3333 0.3333-0.3333  plane waves:    1360
[...]
 k-point ** :   0.5000 0.5000-0.1667  plane waves:    1372
 k-point ** :  -0.3333 0.5000-0.1667  plane waves:    1352
 k-point ** :  -0.1667 0.5000-0.1667  plane waves:    1354
 k-point ** :  -0.0000-0.3333-0.1667  plane waves:    1360
 k-point ** :   0.1667-0.3333-0.1667  plane waves:    1352
 k-point ** :   0.3333-0.3333-0.1667  plane waves:    1384
 k-point ** :   0.5000-0.3333-0.1667  plane waves:    1352
 k-point ** :  -0.3333-0.3333-0.1667  plane waves:    1360
 k-point ** :  -0.1667-0.3333-0.1667  plane waves:    1348
 k-point ** :  -0.0000-0.1667-0.1667  plane waves:    1362
 k-point ** :   0.1667-0.1667-0.1667  plane waves:    1360
 k-point ** :   0.3333-0.1667-0.1667  plane waves:    1356
 k-point ** :   0.5000-0.1667-0.1667  plane waves:    1354
 k-point ** :  -0.3333-0.1667-0.1667  plane waves:    1348
 k-point ** :  -0.1667-0.1667-0.1667  plane waves:    1346

 maximum and minimum number of plane-waves per node :       374      310

 maximum number of plane-waves:      1400
 maximum index in each direction:
   IXMAX=    6   IYMAX=    6   IZMAX=    6
   IXMIN=   -6   IYMIN=   -6   IZMIN=   -6

 parallel 3D FFT for wavefunctions:
    minimum data exchange during FFTs selected (reduces bandwidth)
 parallel 3D FFT for charge:
    minimum data exchange during FFTs selected (reduces bandwidth)

 FFT grid for exact exchange (Hartree Fock)
  NGX = 20; NGY = 20; NGZ = 20

 Radii for the augmentation spheres in the non-local exchange
 for species   1 augmentation radius   1.408 (default was   1.127)
       energy cutoff for augmentation   1200.0

 real space projection operators:
  max/ min on nodes  :         79.88         74.02

 Maximum index for augmentation-charges in exchange          379
  SETUP_FOCK is finished

 Broyden mixing: mesh for mixing (old mesh)
   NGX = 13   NGY = 13   NGZ = 13
  (NGX  = 48   NGY  = 48   NGZ  = 48)
  gives a total of   2197 points

 initial charge density was supplied:
 charge density of overlapping atoms calculated
 number of electron       8.0000000 magnetization       1.0000000      1.0000000      1.0000000
 keeping initial charge density in first step

 Maximum index for augmentation-charges        11463 (set IRDMAX)

 First call to EWALD:  gamma=   0.459
 Maximum number of real-space cells 3x 3x 3
 Maximum number of reciprocal cells 3x 3x 3

--------------------------------------- Iteration      1(   1)  ---------------------------------------

 eigenvalue-minimisations  : 10594
 total energy-change (2. order) : 0.5885169E+02  (-0.2318545E+03)
 number of electron       8.0000000 magnetization       1.0000000      1.0000000      1.0000000
 augmentation part        8.0000000 magnetization       1.0000000      1.0000000      1.0000000

 Free energy of the ion-electron system (eV)
  alpha Z        PSCENC =        22.61767795
  Ewald energy   TEWEN  =      -344.53113738
  -Hartree energ DENC   =       -64.52406707
  -exchange      EXHF   =         0.00000000
  -V(xc)+E(xc)   XCENC  =       -57.56804961
  PAW double counting   =       413.53463069     -344.07404496
  entropy T*S    EENTRO =        -0.00063719
  eigenvalues    EBANDS =         4.45292236
  atomic energy  EATOM  =       428.94439095
  free energy    TOTEN  =        58.85168573 eV

  energy without entropy =       58.85232292  energy(sigma->0) =       58.85200432
  exchange ACFDT corr.  =         0.00000000  see jH, gK, PRB 81, 115126

[...]

 eigenvalue-minimisations  : 15552
 total energy-change (2. order) :-0.3891031E+02  (-0.3389749E+02)
 number of electron       8.0000000 magnetization       1.0000000      1.0000000      1.0000000
 augmentation part        8.0000000 magnetization       1.0000000      1.0000000      1.0000000

[...]

--------------------------------------- Iteration      1(  20)  ---------------------------------------

 eigenvalue-minimisations  :     0
 total energy-change (2. order) :-0.5903524E-07  (-0.2912452E-07)
 number of electron       8.0000000 magnetization      -0.0000001     -0.0000001     -0.0000001
 augmentation part       -1.3124842 magnetization      -0.0000035     -0.0000035     -0.0000034

 Free energy of the ion-electron system (eV)
  alpha Z        PSCENC =        22.61767795
  Ewald energy   TEWEN  =      -344.53113738
  -Hartree energ DENC   =       -64.85537273
  -exchange      EXHF   =        13.67070149
  -V(xc)+E(xc)   XCENC  =       -57.61418573
  PAW double counting   =       519.98802701     -450.50604931
  entropy T*S    EENTRO =        -0.00000000
  eigenvalues    EBANDS =       -67.90303398
  atomic energy  EATOM  =       428.94439095
  free energy    TOTEN  =        -0.18895560 eV

  energy without entropy =       -0.18895560  energy(sigma->0) =       -0.18895560
  exchange ACFDT corr.  =        -0.00000000  see jH, gK, PRB 81, 115126

  average scaling for gradient   1.1170

 average (electrostatic) potential at core
  the test charge radii are     1.1266
  (the norm of the test charge is              1.0000)
       1 -52.2350

 E-fermi :  -3.9211     XC(G=0):  -5.8185     alpha+bet : -3.7983

 k-point     1 :       0.0000    0.0000    0.0000
  band No.  band energies     occupation
      1     -18.0517      1.00000
      2     -18.0517      1.00000
      3      -5.5501      1.00000
      4      -5.5501      1.00000
      5      -4.1416      1.00000
      6      -4.1416      1.00000
      7      -4.1416      1.00000
      8      -4.1416      1.00000
      9       2.8433      0.00000
     10       2.8433      0.00000
     11       7.4591      0.00000
     12       7.4591      0.00000
     13       7.4591      0.00000
     14       7.4591      0.00000
     15       7.5031      0.00000
     16       7.5031      0.00000
     17       9.8604      0.00000
     18       9.8923      0.00000

[...]

 k-point   216 :      -0.1667   -0.1667   -0.1667
  band No.  band energies     occupation
      1     -17.9878      1.00000
      2     -17.9877      1.00000
      3      -5.7626      1.00000
      4      -5.7626      1.00000
      5      -4.5122      1.00000
      6      -4.5122      1.00000
      7      -4.2009      1.00000
      8      -4.2009      1.00000
      9       3.5656      0.00000
     10       3.5656      0.00000
     11       6.8072      0.00000
     12       6.8072      0.00000
     13       7.6807      0.00000
     14       7.6808      0.00000
     15       7.7230      0.00000
     16       7.7231      0.00000
     17       9.3003      0.00000
     18      10.1531      0.00000

 soft charge-density along one line, spin component           1
         0         1         2         3         4         5         6         7         8         9
 total charge-density along one line

[...]

 soft charge-density along one line, spin component           4
         0         1         2         3         4         5         6         7         8         9
 total charge-density along one line

------------------------ aborting loop because EDIFF is reached ----------------------------------------

  FORCE on cell =-STRESS in cart. coord.  units (eV):
  Direction    XX          YY          ZZ          XY          YZ          ZX
  Alpha Z    22.61768    22.61768    22.61768
  Ewald    -114.84372  -114.84372  -114.84372    -0.00000    -0.00000    -0.00000
  Hartree    21.61835    21.61835    21.61835     0.00000    -0.00000     0.00000
  E(xc)     -29.60986   -29.60986   -29.60986     0.00000     0.00000    -0.00000
  Local     -15.23265   -15.23266   -15.23266     0.00000     0.00000     0.00000
  n-local    34.97051    34.97051    34.97051    -0.00000    -0.00000     0.00000
  augment   -10.96765   -10.96764   -10.96764    -0.00000    -0.00000    -0.00000
  Kinetic    92.35311    92.35312    92.35311    -0.00000     0.00000    -0.00000
  Fock       -0.64917    -0.64917    -0.64917     0.00000    -0.00000     0.00000
  Total       0.25661     0.25661     0.25660    -0.00000     0.00000    -0.00000
  in kB       7.13225     7.13224     7.13219    -0.00001     0.00004    -0.00002

 VOLUME and BASIS-vectors are now :
  energy-cutoff  :      300.00
  volume of cell :       57.64
      direct lattice vectors                 reciprocal lattice vectors
     4.335995782  0.000000000  0.000000000     0.230627531 -0.133152867 -0.094153295
     2.167997891  3.755082498 -0.000000000     0.000000000  0.266305734 -0.094153295
     2.167997891  1.251694166  3.540325731    -0.000000000  0.000000000  0.282459885

  length of vectors
     4.335995782  4.335995782  4.335995782     0.282459885  0.282459885  0.282459885

 FORCES acting on ions:
    Electron-Ion                     Ewald-Force                    Non-Local-Force
   -.196E-06 -.150E-05 0.173E-07   0.118E-15 0.307E-16 0.152E-15   -.556E-06 0.224E-06 -.301E-06
   -.523E-06 -.168E-05 0.413E-06   0.118E-15 0.307E-16 0.152E-15   -.556E-06 0.224E-06 -.301E-06

 POSITION                                       TOTAL-FORCE (eV/Angst)
      0.00000      0.00000      0.00000        -0.000001     -0.000001      0.000000
    total drift:                               -0.000001     -0.000001      0.000000

  FREE ENERGIE OF THE ION-ELECTRON SYSTEM (eV)
  free  energy   TOTEN  =        -0.18895560 eV

  energy  without entropy=       -0.18895560  energy(sigma->0) =       -0.18895560

 writing wavefunctions

 Spin-Orbit-Coupling matrix elements

 Ion:    1  E_soc:     -0.2889770
 l=   1
     0.0000000    -0.0481581    -0.0481581
    -0.0481581     0.0000000    -0.0481580
    -0.0481581    -0.0481580     0.0000000
 l=   2
     0.0000000    -0.0000009     0.0000000    -0.0000009    -0.0000039
    -0.0000009     0.0000000    -0.0000029    -0.0000009    -0.0000009
     0.0000000    -0.0000029     0.0000000    -0.0000029     0.0000000
    -0.0000009    -0.0000009    -0.0000029     0.0000000    -0.0000009
    -0.0000039    -0.0000009     0.0000000    -0.0000009     0.0000000
 l=   3
     0.0000000     0.0000000     0.0000000     0.0000000     0.0000000     0.0000000    -0.0000000
     0.0000000     0.0000000    -0.0000000     0.0000000    -0.0000000    -0.0000000    -0.0000000
     0.0000000    -0.0000000     0.0000000    -0.0000000    -0.0000000    -0.0000000     0.0000000
     0.0000000     0.0000000    -0.0000000     0.0000000    -0.0000000     0.0000000     0.0000000
     0.0000000    -0.0000000    -0.0000000    -0.0000000     0.0000000    -0.0000000     0.0000000
     0.0000000    -0.0000000    -0.0000000     0.0000000    -0.0000000     0.0000000    -0.0000000
    -0.0000000    -0.0000000     0.0000000     0.0000000     0.0000000    -0.0000000     0.0000000