 vasp.5.4.4.18Apr17-6-g9f103f2a35 (build Jul 09 2018 16:43:14) complex

 executed on             LinuxIFC date 2018.11.22  03:32:27

 INCAR:
 POTCAR:    PAW_PBE Xe_GW 08Jan2009

 POTCAR:    PAW_PBE Xe_GW 08Jan2009
   VRHFIN =Xe: s2p6

   TITEL  = PAW_PBE Xe_GW 08Jan2009
   POMASS =  131.294; ZVAL   =    8.000    mass and valenz
   ENMAX  =  179.547; ENMIN  =  134.660 eV

  PAW_PBE Xe_GW 08Jan2009               :

 POSCAR: Xe_FCC
  positions in direct lattice
  velocities in cartesian coordinates
 exchange correlation table for  LEXCH =        8
   RHO(1)=    0.500       N(1)  =     2000
   RHO(2)=  100.500       N(2)  =     4000

 ion  position               nearest neighbor table
   1  0.000  0.000  0.000-

IMPORTANT INFORMATION: All symmetrisations will be switched off!
NOSYMM: (Re-)initialisation of all symmetry stuff for point group C_1.

 KPOINTS: k-points

Automatic generation of k-mesh.
Space group operators:
 irot       det(A)        alpha          n_x          n_y          n_z        tau_x        tau_y        tau_z
    1     1.000000     0.000001     1.000000     0.000000     0.000000     0.000000     0.000000     0.000000

 Subroutine IBZKPT returns following result:

 Found    216 irreducible k-points:

 Following reciprocal coordinates:
            Coordinates               Weight
  0.000000  0.000000  0.000000      1.000000
  0.166667  0.000000  0.000000      1.000000
  0.333333 -0.000000  0.000000      1.000000
  0.500000  0.000000  0.000000      1.000000
 -0.333333 -0.000000 -0.000000      1.000000
 -0.166667 -0.000000 -0.000000      1.000000
 -0.000000  0.166667  0.000000      1.000000
  0.166667  0.166667  0.000000      1.000000
  0.333333  0.166667  0.000000      1.000000
  0.500000  0.166667  0.000000      1.000000
 -0.333333  0.166667 -0.000000      1.000000
 -0.166667  0.166667  0.000000      1.000000
 -0.000000  0.333333  0.000000      1.000000
  0.166667  0.333333  0.000000      1.000000
  0.333333  0.333333  0.000000      1.000000
  0.500000  0.333333  0.000000      1.000000
 -0.333333  0.333333 -0.000000      1.000000
 -0.166667  0.333333  0.000000      1.000000
  0.000000  0.500000  0.000000      1.000000
  0.166667  0.500000  0.000000      1.000000
  0.333333  0.500000  0.000000      1.000000
  0.500000  0.500000  0.000000      1.000000
 -0.333333  0.500000  0.000000      1.000000
 -0.166667  0.500000 -0.000000      1.000000
  0.000000 -0.333333  0.000000      1.000000
  0.166667 -0.333333  0.000000      1.000000
  0.333333 -0.333333  0.000000      1.000000
  0.500000 -0.333333  0.000000      1.000000
 -0.333333 -0.333333 -0.000000      1.000000
 -0.166667 -0.333333 -0.000000      1.000000
  0.000000 -0.166667  0.000000      1.000000
  0.166667 -0.166667 -0.000000      1.000000
  0.333333 -0.166667  0.000000      1.000000
  0.500000 -0.166667  0.000000      1.000000
 -0.333333 -0.166667 -0.000000      1.000000
 -0.166667 -0.166667 -0.000000      1.000000
 -0.000000 -0.000000  0.166667      1.000000
  0.166667  0.000000  0.166667      1.000000
  0.333333 -0.000000  0.166667      1.000000
  0.500000  0.000000  0.166667      1.000000
 -0.333333 -0.000000  0.166667      1.000000
 -0.166667  0.000000  0.166667      1.000000
 -0.000000  0.166667  0.166667      1.000000
  0.166667  0.166667  0.166667      1.000000
  0.333333  0.166667  0.166667      1.000000
  0.500000  0.166667  0.166667      1.000000
 -0.333333  0.166667  0.166667      1.000000
 -0.166667  0.166667  0.166667      1.000000
 -0.000000  0.333333  0.166667      1.000000
  0.166667  0.333333  0.166667      1.000000
  0.333333  0.333333  0.166667      1.000000
  0.500000  0.333333  0.166667      1.000000
 -0.333333  0.333333  0.166667      1.000000
 -0.166667  0.333333  0.166667      1.000000
 -0.000000  0.500000  0.166667      1.000000
  0.166667  0.500000  0.166667      1.000000
  0.333333  0.500000  0.166667      1.000000
  0.500000  0.500000  0.166667      1.000000
 -0.333333  0.500000  0.166667      1.000000
 -0.166667  0.500000  0.166667      1.000000
[...]
  0.500000  0.500000 -0.166667      1.000000
 -0.333333  0.500000 -0.166667      1.000000
 -0.166667  0.500000 -0.166667      1.000000
  0.000000 -0.333333 -0.166667      1.000000
  0.166667 -0.333333 -0.166667      1.000000
  0.333333 -0.333333 -0.166667      1.000000
  0.500000 -0.333333 -0.166667      1.000000
 -0.333333 -0.333333 -0.166667      1.000000
 -0.166667 -0.333333 -0.166667      1.000000
  0.000000 -0.166667 -0.166667      1.000000
  0.166667 -0.166667 -0.166667      1.000000
  0.333333 -0.166667 -0.166667      1.000000
  0.500000 -0.166667 -0.166667      1.000000
 -0.333333 -0.166667 -0.166667      1.000000
 -0.166667 -0.166667 -0.166667      1.000000

 Following cartesian coordinates:
            Coordinates               Weight
  0.000000  0.000000  0.000000      1.000000
  0.037604 -0.021710 -0.015352      1.000000
  0.075207 -0.043421 -0.030703      1.000000
  0.112811 -0.065131 -0.046055      1.000000
 -0.075207  0.043421  0.030703      1.000000
 -0.037604  0.021710  0.015352      1.000000
  0.000000  0.043421 -0.015352      1.000000
  0.037604  0.021710 -0.030703      1.000000
  0.075207  0.000000 -0.046055      1.000000
  0.112811 -0.021710 -0.061406      1.000000
 -0.075207  0.086842  0.015352      1.000000
 -0.037604  0.065131  0.000000      1.000000
  0.000000  0.086842 -0.030703      1.000000
  0.037604  0.065131 -0.046055      1.000000
  0.075207  0.043421 -0.061406      1.000000
  0.112811  0.021710 -0.076758      1.000000
 -0.075207  0.130263  0.000000      1.000000
 -0.037604  0.108552 -0.015352      1.000000
  0.000000  0.130263 -0.046055      1.000000
  0.037604  0.108552 -0.061406      1.000000
  0.075207  0.086842 -0.076758      1.000000
  0.112811  0.065131 -0.092110      1.000000
 -0.075207  0.173684 -0.015352      1.000000
 -0.037604  0.151973 -0.030703      1.000000
 -0.000000 -0.086842  0.030703      1.000000
  0.037604 -0.108552  0.015352      1.000000
  0.075207 -0.130263 -0.000000      1.000000
  0.112811 -0.151973 -0.015352      1.000000
 -0.075207 -0.043421  0.061406      1.000000
 -0.037604 -0.065131  0.046055      1.000000
 -0.000000 -0.043421  0.015352      1.000000
  0.037604 -0.065131 -0.000000      1.000000
  0.075207 -0.086842 -0.015352      1.000000
  0.112811 -0.108552 -0.030703      1.000000
 -0.075207 -0.000000  0.046055      1.000000
 -0.037604 -0.021710  0.030703      1.000000
 -0.000000  0.000000  0.046055      1.000000
  0.037604 -0.021710  0.030703      1.000000
  0.075207 -0.043421  0.015352      1.000000
  0.112811 -0.065131 -0.000000      1.000000
 -0.075207  0.043421  0.076758      1.000000
 -0.037604  0.021710  0.061406      1.000000
 -0.000000  0.043421  0.030703      1.000000
  0.037604  0.021710  0.015352      1.000000
  0.075207  0.000000  0.000000      1.000000
  0.112811 -0.021710 -0.015352      1.000000
 -0.075207  0.086842  0.061406      1.000000
 -0.037604  0.065131  0.046055      1.000000
 -0.000000  0.086842  0.015352      1.000000
  0.037604  0.065131  0.000000      1.000000
  0.075207  0.043421 -0.015352      1.000000
  0.112811  0.021710 -0.030703      1.000000
 -0.075207  0.130263  0.046055      1.000000
 -0.037604  0.108552  0.030703      1.000000
 -0.000000  0.130263  0.000000      1.000000
  0.037604  0.108552 -0.015352      1.000000
  0.075207  0.086842 -0.030703      1.000000
  0.112811  0.065131 -0.046055      1.000000
 -0.075207  0.173684  0.030703      1.000000
 -0.037604  0.151973  0.015352      1.000000
[...]
  0.112811  0.065131 -0.138164      1.000000
 -0.075207  0.173684 -0.061406      1.000000
 -0.037604  0.151973 -0.076758      1.000000
  0.000000 -0.086842 -0.015352      1.000000
  0.037604 -0.108552 -0.030703      1.000000
  0.075207 -0.130263 -0.046055      1.000000
  0.112811 -0.151973 -0.061406      1.000000
 -0.075207 -0.043421  0.015352      1.000000
 -0.037604 -0.065131 -0.000000      1.000000
  0.000000 -0.043421 -0.030703      1.000000
  0.037604 -0.065131 -0.046055      1.000000
  0.075207 -0.086842 -0.061406      1.000000
  0.112811 -0.108552 -0.076758      1.000000
 -0.075207 -0.000000 -0.000000      1.000000
 -0.037604 -0.021710 -0.015352      1.000000

 Subroutine IBZKPT_HF returns following result:

 Found    216 k-points in 1st BZ
 the following    216 k-points will be used (e.g. in the exchange kernel)
 Following reciprocal coordinates:   # in IRBZ
  0.000000  0.000000  0.000000    0.00462963   1 t-inv F
  0.166667  0.000000  0.000000    0.00462963   2 t-inv F
  0.333333 -0.000000  0.000000    0.00462963   3 t-inv F
  0.500000  0.000000  0.000000    0.00462963   4 t-inv F
 -0.333333 -0.000000 -0.000000    0.00462963   5 t-inv F
 -0.166667 -0.000000 -0.000000    0.00462963   6 t-inv F
 -0.000000  0.166667  0.000000    0.00462963   7 t-inv F
  0.166667  0.166667  0.000000    0.00462963   8 t-inv F
  0.333333  0.166667  0.000000    0.00462963   9 t-inv F
  0.500000  0.166667  0.000000    0.00462963  10 t-inv F
 -0.333333  0.166667 -0.000000    0.00462963  11 t-inv F
 -0.166667  0.166667  0.000000    0.00462963  12 t-inv F
 -0.000000  0.333333  0.000000    0.00462963  13 t-inv F
  0.166667  0.333333  0.000000    0.00462963  14 t-inv F
  0.333333  0.333333  0.000000    0.00462963  15 t-inv F
  0.500000  0.333333  0.000000    0.00462963  16 t-inv F
 -0.333333  0.333333 -0.000000    0.00462963  17 t-inv F
 -0.166667  0.333333  0.000000    0.00462963  18 t-inv F
  0.000000  0.500000  0.000000    0.00462963  19 t-inv F
  0.166667  0.500000  0.000000    0.00462963  20 t-inv F
  0.333333  0.500000  0.000000    0.00462963  21 t-inv F
  0.500000  0.500000  0.000000    0.00462963  22 t-inv F
 -0.333333  0.500000  0.000000    0.00462963  23 t-inv F
 -0.166667  0.500000 -0.000000    0.00462963  24 t-inv F
  0.000000 -0.333333  0.000000    0.00462963  25 t-inv F
  0.166667 -0.333333  0.000000    0.00462963  26 t-inv F
  0.333333 -0.333333  0.000000    0.00462963  27 t-inv F
  0.500000 -0.333333  0.000000    0.00462963  28 t-inv F
 -0.333333 -0.333333 -0.000000    0.00462963  29 t-inv F
 -0.166667 -0.333333 -0.000000    0.00462963  30 t-inv F
  0.000000 -0.166667  0.000000    0.00462963  31 t-inv F
  0.166667 -0.166667 -0.000000    0.00462963  32 t-inv F
  0.333333 -0.166667  0.000000    0.00462963  33 t-inv F
  0.500000 -0.166667  0.000000    0.00462963  34 t-inv F
 -0.333333 -0.166667 -0.000000    0.00462963  35 t-inv F
 -0.166667 -0.166667 -0.000000    0.00462963  36 t-inv F
 -0.000000 -0.000000  0.166667    0.00462963  37 t-inv F
  0.166667  0.000000  0.166667    0.00462963  38 t-inv F
  0.333333 -0.000000  0.166667    0.00462963  39 t-inv F
  0.500000  0.000000  0.166667    0.00462963  40 t-inv F
 -0.333333 -0.000000  0.166667    0.00462963  41 t-inv F
 -0.166667  0.000000  0.166667    0.00462963  42 t-inv F
 -0.000000  0.166667  0.166667    0.00462963  43 t-inv F
  0.166667  0.166667  0.166667    0.00462963  44 t-inv F
  0.333333  0.166667  0.166667    0.00462963  45 t-inv F
  0.500000  0.166667  0.166667    0.00462963  46 t-inv F
 -0.333333  0.166667  0.166667    0.00462963  47 t-inv F
 -0.166667  0.166667  0.166667    0.00462963  48 t-inv F
 -0.000000  0.333333  0.166667    0.00462963  49 t-inv F
[...]
 k-point 37 :  -0.0000-0.0000 0.1667  plane waves:    1436
 k-point 38 :   0.1667 0.0000 0.1667  plane waves:    1418
 k-point 39 :   0.3333-0.0000 0.1667  plane waves:    1462
 k-point 40 :   0.5000 0.0000 0.1667  plane waves:    1464
 k-point 41 :  -0.3333-0.0000 0.1667  plane waves:    1452
 k-point 42 :  -0.1667 0.0000 0.1667  plane waves:    1464
 k-point 43 :  -0.0000 0.1667 0.1667  plane waves:    1418
 k-point 44 :   0.1667 0.1667 0.1667  plane waves:    1436
 k-point 45 :   0.3333 0.1667 0.1667  plane waves:    1464
 k-point 46 :   0.5000 0.1667 0.1667  plane waves:    1452
 k-point 47 :  -0.3333 0.1667 0.1667  plane waves:    1464
 k-point 48 :  -0.1667 0.1667 0.1667  plane waves:    1462
 k-point 49 :  -0.0000 0.3333 0.1667  plane waves:    1462
 k-point 50 :   0.1667 0.3333 0.1667  plane waves:    1464
 k-point 51 :   0.3333 0.3333 0.1667  plane waves:    1462
 k-point 52 :   0.5000 0.3333 0.1667  plane waves:    1456
 k-point 53 :  -0.3333 0.3333 0.1667  plane waves:    1460
 k-point 54 :  -0.1667 0.3333 0.1667  plane waves:    1456
 k-point 55 :  -0.0000 0.5000 0.1667  plane waves:    1464
 k-point 56 :   0.1667 0.5000 0.1667  plane waves:    1452
 k-point 57 :   0.3333 0.5000 0.1667  plane waves:    1456
 k-point 58 :   0.5000 0.5000 0.1667  plane waves:    1458
 k-point 59 :  -0.3333 0.5000 0.1667  plane waves:    1436
 k-point 60 :  -0.1667 0.5000 0.1667  plane waves:    1460
[...]
 k-point 85 :  -0.0000 0.3333 0.3333  plane waves:    1434
 k-point 86 :   0.1667 0.3333 0.3333  plane waves:    1462
 k-point 87 :   0.3333 0.3333 0.3333  plane waves:    1490
 k-point 88 :   0.5000 0.3333 0.3333  plane waves:    1452
 k-point 89 :  -0.3333 0.3333 0.3333  plane waves:    1436
 k-point 90 :  -0.1667 0.3333 0.3333  plane waves:    1458
 k-point 91 :   0.0000 0.5000 0.3333  plane waves:    1458
 k-point 92 :   0.1667 0.5000 0.3333  plane waves:    1456
 k-point 93 :   0.3333 0.5000 0.3333  plane waves:    1452
 k-point 94 :   0.5000 0.5000 0.3333  plane waves:    1464
 k-point 95 :  -0.3333 0.5000 0.3333  plane waves:    1460
 k-point 96 :  -0.1667 0.5000 0.3333  plane waves:    1436
 k-point 97 :  -0.0000-0.3333 0.3333  plane waves:    1436
 k-point 98 :   0.1667-0.3333 0.3333  plane waves:    1460
 k-point 99 :   0.3333-0.3333 0.3333  plane waves:    1436
 k-point ** :   0.5000-0.3333 0.3333  plane waves:    1460
 k-point ** :  -0.3333-0.3333 0.3333  plane waves:    1436
 k-point ** :  -0.1667-0.3333 0.3333  plane waves:    1460
 k-point ** :  -0.0000-0.1667 0.3333  plane waves:    1452
 k-point ** :   0.1667-0.1667 0.3333  plane waves:    1456
 k-point ** :   0.3333-0.1667 0.3333  plane waves:    1458
 k-point ** :   0.5000-0.1667 0.3333  plane waves:    1436
 k-point ** :  -0.3333-0.1667 0.3333  plane waves:    1460
 k-point ** :  -0.1667-0.1667 0.3333  plane waves:    1464
 k-point ** :   0.0000-0.0000 0.5000  plane waves:    1436
 k-point ** :   0.1667 0.0000 0.5000  plane waves:    1464
 k-point ** :   0.3333 0.0000 0.5000  plane waves:    1458
 k-point ** :   0.5000-0.0000 0.5000  plane waves:    1480
 k-point ** :  -0.3333 0.0000 0.5000  plane waves:    1458
 k-point ** :  -0.1667 0.0000 0.5000  plane waves:    1464
 k-point ** :   0.0000 0.1667 0.5000  plane waves:    1464
 k-point ** :   0.1667 0.1667 0.5000  plane waves:    1452
 k-point ** :   0.3333 0.1667 0.5000  plane waves:    1456
 k-point ** :   0.5000 0.1667 0.5000  plane waves:    1458
 k-point ** :  -0.3333 0.1667 0.5000  plane waves:    1436
 k-point ** :  -0.1667 0.1667 0.5000  plane waves:    1460
 k-point ** :   0.0000 0.3333 0.5000  plane waves:    1458
 k-point ** :   0.1667 0.3333 0.5000  plane waves:    1456
 k-point ** :   0.3333 0.3333 0.5000  plane waves:    1452
 k-point ** :   0.5000 0.3333 0.5000  plane waves:    1464
 k-point ** :  -0.3333 0.3333 0.5000  plane waves:    1460
 k-point ** :  -0.1667 0.3333 0.5000  plane waves:    1436
 k-point ** :   0.0000 0.5000 0.5000  plane waves:    1480
 k-point ** :   0.1667 0.5000 0.5000  plane waves:    1458
 k-point ** :   0.3333 0.5000 0.5000  plane waves:    1464
 k-point ** :   0.5000 0.5000 0.5000  plane waves:    1436
 k-point ** :  -0.3333 0.5000 0.5000  plane waves:    1464
 k-point ** :  -0.1667 0.5000 0.5000  plane waves:    1458
 k-point ** :   0.0000-0.3333 0.5000  plane waves:    1458
 k-point ** :   0.1667-0.3333 0.5000  plane waves:    1436
 k-point ** :   0.3333-0.3333 0.5000  plane waves:    1460
 k-point ** :   0.5000-0.3333 0.5000  plane waves:    1464
 k-point ** :  -0.3333-0.3333 0.5000  plane waves:    1452
 k-point ** :  -0.1667-0.3333 0.5000  plane waves:    1456
 k-point ** :   0.0000-0.1667 0.5000  plane waves:    1464
 k-point ** :   0.1667-0.1667 0.5000  plane waves:    1460
 k-point ** :   0.3333-0.1667 0.5000  plane waves:    1436
 k-point ** :   0.5000-0.1667 0.5000  plane waves:    1458
 k-point ** :  -0.3333-0.1667 0.5000  plane waves:    1456
 k-point ** :  -0.1667-0.1667 0.5000  plane waves:    1452
 k-point ** :   0.0000 0.0000-0.3333  plane waves:    1490
 k-point ** :   0.1667-0.0000-0.3333  plane waves:    1452
 k-point ** :   0.3333-0.0000-0.3333  plane waves:    1436
 k-point ** :   0.5000 0.0000-0.3333  plane waves:    1458
 k-point ** :  -0.3333-0.0000-0.3333  plane waves:    1434
 k-point ** :  -0.1667 0.0000-0.3333  plane waves:    1462
 k-point ** :   0.0000 0.1667-0.3333  plane waves:    1452
 k-point ** :   0.1667 0.1667-0.3333  plane waves:    1464
 k-point ** :   0.3333 0.1667-0.3333  plane waves:    1460
 k-point ** :   0.5000 0.1667-0.3333  plane waves:    1436
 k-point ** :  -0.3333 0.1667-0.3333  plane waves:    1458
 k-point ** :  -0.1667 0.1667-0.3333  plane waves:    1456
 k-point ** :   0.0000 0.3333-0.3333  plane waves:    1436
 k-point ** :   0.1667 0.3333-0.3333  plane waves:    1460
 k-point ** :   0.3333 0.3333-0.3333  plane waves:    1436
[...]
 k-point ** :   0.5000 0.5000-0.1667  plane waves:    1458
 k-point ** :  -0.3333 0.5000-0.1667  plane waves:    1456
 k-point ** :  -0.1667 0.5000-0.1667  plane waves:    1452
 k-point ** :   0.0000-0.3333-0.1667  plane waves:    1462
 k-point ** :   0.1667-0.3333-0.1667  plane waves:    1456
 k-point ** :   0.3333-0.3333-0.1667  plane waves:    1460
 k-point ** :   0.5000-0.3333-0.1667  plane waves:    1456
 k-point ** :  -0.3333-0.3333-0.1667  plane waves:    1462
 k-point ** :  -0.1667-0.3333-0.1667  plane waves:    1464
 k-point ** :   0.0000-0.1667-0.1667  plane waves:    1418
 k-point ** :   0.1667-0.1667-0.1667  plane waves:    1462
 k-point ** :   0.3333-0.1667-0.1667  plane waves:    1464
 k-point ** :   0.5000-0.1667-0.1667  plane waves:    1452
 k-point ** :  -0.3333-0.1667-0.1667  plane waves:    1464
 k-point ** :  -0.1667-0.1667-0.1667  plane waves:    1436

 maximum and minimum number of plane-waves per node :       404      332

 maximum number of plane-waves:      1490
 maximum index in each direction:
   IXMAX=    6   IYMAX=    6   IZMAX=    6
   IXMIN=   -6   IYMIN=   -6   IZMIN=   -6

 parallel 3D FFT for wavefunctions:
    minimum data exchange during FFTs selected (reduces bandwidth)
 parallel 3D FFT for charge:
    minimum data exchange during FFTs selected (reduces bandwidth)

 FFT grid for exact exchange (Hartree Fock)
  NGX = 20; NGY = 20; NGZ = 20

 Radii for the augmentation spheres in the non-local exchange
 for species   1 augmentation radius   1.408 (default was   1.127)
       energy cutoff for augmentation   1200.0

 real space projection operators:
  max/ min on nodes  :         78.91         69.34

 Maximum index for augmentation-charges in exchange          355
  SETUP_FOCK is finished

 Broyden mixing: mesh for mixing (old mesh)
   NGX = 13   NGY = 13   NGZ = 13
  (NGX  = 56   NGY  = 56   NGZ  = 56)
  gives a total of   2197 points

 initial charge density was supplied:
 charge density of overlapping atoms calculated
 number of electron       8.0000000 magnetization       1.0000000      1.0000000      1.0000000
 keeping initial charge density in first step

 Maximum index for augmentation-charges         5695 (set IRDMAX)

 First call to EWALD:  gamma=   0.449
 Maximum number of real-space cells 3x 3x 3
 Maximum number of reciprocal cells 3x 3x 3

--------------------------------------- Iteration      1(   1)  ---------------------------------------

 eigenvalue-minimisations  : 14344
 total energy-change (2. order) : 0.5410574E+02  (-0.2437482E+03)
 number of electron       8.0000000 magnetization       1.0000000      1.0000000      1.0000000
 augmentation part        8.0000000 magnetization       1.0000000      1.0000000      1.0000000

 Free energy of the ion-electron system (eV)
  alpha Z        PSCENC =        21.17661221
  Ewald energy   TEWEN  =      -337.05282163
  -Hartree energ DENC   =       -68.63715467
  -exchange      EXHF   =         0.00000000
  -V(xc)+E(xc)   XCENC  =       -57.58963093
  PAW double counting   =       413.53463069     -344.07404496
  entropy T*S    EENTRO =        -0.00115431
  eigenvalues    EBANDS =        -2.19509070
  atomic energy  EATOM  =       428.94439095
  free energy    TOTEN  =        54.10573663 eV

  energy without entropy =       54.10689094  energy(sigma->0) =       54.10631379
  exchange ACFDT corr.  =         0.00000000  see jH, gK, PRB 81, 115126

[...]

 eigenvalue-minimisations  : 20736
 total energy-change (2. order) :-0.3639736E+02  (-0.3104085E+02)
 number of electron       8.0000000 magnetization       1.0000000      1.0000000      1.0000000
 augmentation part        8.0000000 magnetization       1.0000000      1.0000000      1.0000000

[...]

--------------------------------------- Iteration      1(  20)  ---------------------------------------

 eigenvalue-minimisations  :     0
 total energy-change (2. order) :-0.7147008E-07  (-0.3141770E-07)
 number of electron       8.0000000 magnetization      -0.0000001     -0.0000001     -0.0000001
 augmentation part       -1.3121067 magnetization      -0.0000054     -0.0000053     -0.0000053

 Free energy of the ion-electron system (eV)
  alpha Z        PSCENC =        21.17661221
  Ewald energy   TEWEN  =      -337.05282163
  -Hartree energ DENC   =       -68.94701600
  -exchange      EXHF   =        13.66053174
  -V(xc)+E(xc)   XCENC  =       -57.63638360
  PAW double counting   =       519.55010653     -450.06616795
  entropy T*S    EENTRO =        -0.00000000
  eigenvalues    EBANDS =       -69.83387072
  atomic energy  EATOM  =       428.94439095
  free energy    TOTEN  =        -0.20460397 eV

  energy without entropy =       -0.20460397  energy(sigma->0) =       -0.20460397
  exchange ACFDT corr.  =         0.00000000  see jH, gK, PRB 81, 115126

  average scaling for gradient   0.8982

 average (electrostatic) potential at core
  the test charge radii are     1.1266
  (the norm of the test charge is              1.0000)
       1 -52.4868

 E-fermi :  -4.1884     XC(G=0):  -5.6020     alpha+bet : -3.5563

 k-point     1 :       0.0000    0.0000    0.0000
  band No.  band energies     occupation
      1     -18.2433      1.00000
      2     -18.2433      1.00000
      3      -5.8860      1.00000
      4      -5.8860      1.00000
      5      -4.4961      1.00000
      6      -4.4961      1.00000
      7      -4.4961      1.00000
      8      -4.4961      1.00000
      9       2.4703      0.00000
     10       2.4703      0.00000
     11       7.1078      0.00000
     12       7.1078      0.00000
     13       7.1078      0.00000
     14       7.1078      0.00000
     15       7.1488      0.00000
     16       7.1488      0.00000
     17       9.3663      0.00000
     18       9.3663      0.00000
     19       9.3663      0.00000
     20       9.3663      0.00000
     21       9.8063      0.00000
     22       9.8063      0.00000
     23      11.9459      0.00000
     24      11.9695      0.00000

[...]

 k-point   216 :      -0.1667   -0.1667   -0.1667
  band No.  band energies     occupation
      1     -18.1913      1.00000
      2     -18.1913      1.00000
      3      -6.0627      1.00000
      4      -6.0627      1.00000
      5      -4.8190      1.00000
      6      -4.8190      1.00000
      7      -4.5476      1.00000
      8      -4.5475      1.00000
      9       3.1430      0.00000
     10       3.1430      0.00000
     11       6.4691      0.00000
     12       6.4691      0.00000
     13       7.3147      0.00000
     14       7.3147      0.00000
     15       7.3545      0.00000
     16       7.3545      0.00000
     17       8.8440      0.00000
     18       8.8440      0.00000
     19       8.8704      0.00000
     20       8.8705      0.00000
     21      10.5336      0.00000
     22      10.5336      0.00000
     23      11.6944      0.00000
     24      11.6944      0.00000

 soft charge-density along one line, spin component           1
         0         1         2         3         4         5         6         7         8         9
 total charge-density along one line

[...]

 soft charge-density along one line, spin component           4
         0         1         2         3         4         5         6         7         8         9
 total charge-density along one line

------------------------ aborting loop because EDIFF is reached ----------------------------------------

  FORCE on cell =-STRESS in cart. coord.  units (eV):
  Direction    XX          YY          ZZ          XY          YZ          ZX
  Alpha Z    21.17661    21.17661    21.17661
  Ewald    -112.35094  -112.35094  -112.35094    -0.00000    -0.00000     0.00000
  Hartree    22.98228    22.98228    22.98228     0.00000     0.00000    -0.00000
  E(xc)     -29.59695   -29.59695   -29.59695     0.00000     0.00000    -0.00000
  Local     -17.65509   -17.65509   -17.65509     0.00000     0.00000     0.00000
  n-local    34.95558    34.95558    34.95558    -0.00000     0.00000     0.00000
  augment   -10.96564   -10.96564   -10.96564    -0.00000    -0.00000    -0.00000
  Kinetic    92.26810    92.26810    92.26810    -0.00000    -0.00000     0.00000
  Fock       -0.64647    -0.64647    -0.64647     0.00000     0.00000     0.00000
  Total       0.16748     0.16748     0.16748     0.00000    -0.00000     0.00000
  in kB       4.35852     4.35848     4.35847     0.00000    -0.00003     0.00004

 VOLUME and BASIS-vectors are now :
  energy-cutoff  :      300.00
  volume of cell :       61.57
      direct lattice vectors                 reciprocal lattice vectors
     4.432200126  0.000000000  0.000000000     0.225621581 -0.130262681 -0.092109625
     2.216100063  3.838397904 -0.000000000     0.000000000  0.260525361 -0.092109625
     2.216100063  1.279465968  3.618876249    -0.000000000  0.000000000  0.276328874

  length of vectors
     4.432200126  4.432200126  4.432200126     0.276328874  0.276328874  0.276328874

 FORCES acting on ions:
    Electron-Ion                     Ewald-Force                    Non-Local-Force
   -.815E-06 -.215E-05 0.447E-06   0.119E-15 -.320E-16 -.288E-15   0.245E-06 -.893E-07 0.583E-06
   -.714E-06 -.224E-05 0.188E-06   0.119E-15 -.320E-16 -.288E-15   0.245E-06 -.893E-07 0.583E-06

 POSITION                                       TOTAL-FORCE (eV/Angst)
      0.00000      0.00000      0.00000        -0.000000     -0.000002      0.000001
    total drift:                               -0.000000     -0.000002      0.000001

  FREE ENERGIE OF THE ION-ELECTRON SYSTEM (eV)
  free  energy   TOTEN  =        -0.20460397 eV

  energy  without entropy=       -0.20460397  energy(sigma->0) =       -0.20460397

 writing wavefunctions

 Spin-Orbit-Coupling matrix elements

 Ion:    1  E_soc:     -0.2888870
 l=   1
     0.0000000    -0.0481442    -0.0481442
    -0.0481442     0.0000000    -0.0481443
    -0.0481442    -0.0481443     0.0000000
 l=   2
     0.0000000    -0.0000007     0.0000000    -0.0000007    -0.0000029
    -0.0000007     0.0000000    -0.0000022    -0.0000006    -0.0000007
     0.0000000    -0.0000022     0.0000000    -0.0000022     0.0000000
    -0.0000007    -0.0000006    -0.0000022     0.0000000    -0.0000007
    -0.0000029    -0.0000007     0.0000000    -0.0000007     0.0000000
 l=   3
     0.0000000     0.0000000     0.0000000     0.0000000     0.0000000     0.0000000    -0.0000000
     0.0000000     0.0000000    -0.0000000     0.0000000    -0.0000000    -0.0000000    -0.0000000
     0.0000000    -0.0000000     0.0000000    -0.0000000    -0.0000000    -0.0000000     0.0000000
     0.0000000     0.0000000    -0.0000000     0.0000000    -0.0000000     0.0000000     0.0000000
     0.0000000    -0.0000000    -0.0000000    -0.0000000     0.0000000    -0.0000000     0.0000000
     0.0000000    -0.0000000    -0.0000000     0.0000000    -0.0000000     0.0000000    -0.0000000
    -0.0000000    -0.0000000     0.0000000     0.0000000     0.0000000    -0.0000000     0.0000000