 vasp.5.4.4.18Apr17-6-g9f103f2a35 (build Nov 03 2018 10:20:46) complex

 executed on             LinuxIFC date 2018.11.14  15:16:33

 INCAR:
 POTCAR:    PAW_PBE Xe_GW 08Jan2009

 POTCAR:    PAW_PBE Xe_GW 08Jan2009
   VRHFIN =Xe: s2p6

   TITEL  = PAW_PBE Xe_GW 08Jan2009
   POMASS =  131.294; ZVAL   =    8.000    mass and valenz
   ENMAX  =  179.547; ENMIN  =  134.660 eV

  PAW_PBE Xe_GW 08Jan2009               :

 POSCAR: Kr_FCC
  positions in direct lattice
  velocities in cartesian coordinates
 exchange correlation table for  LEXCH =        8
   RHO(1)=    0.500       N(1)  =     2000
   RHO(2)=  100.500       N(2)  =     4000

 ion  position               nearest neighbor table
   1  0.000  0.000  0.000-

  LATTYP: Found a face centered cubic cell.
 ALAT       =     6.2680775296

  Lattice vectors:

 A1 = (   4.4322001261,   0.0000000000,   0.0000000000)
 A2 = (   2.2161000630,   3.8383979038,  -0.0000000000)
 A3 = (   2.2161000630,   1.2794659679,   3.6188762490)

Analysis of symmetry for initial positions (statically):
 Subroutine PRICEL returns:
 Original cell was already a primitive cell.

 Routine SETGRP: Setting up the symmetry group for a
 face centered cubic supercell.

 Subroutine GETGRP returns: Found 48 space group operations
 (whereof 48 operations were pure point group operations)
 out of a pool of 48 trial point group operations.

The static configuration has the point symmetry O_h .

Analysis of symmetry for dynamics (positions and initial velocities):
 Subroutine PRICEL returns:
 Original cell was already a primitive cell.

[...]

The dynamic configuration has the point symmetry O_h .

Analysis of structural, dynamic, and magnetic symmetry:
 Subroutine PRICEL returns:
 Original cell was already a primitive cell.

 Routine SETGRP: Setting up the symmetry group for a
 face centered cubic supercell.

 Subroutine GETGRP returns: Found  2 space group operations
 (whereof  2 operations were pure point group operations)
 out of a pool of 48 trial point group operations.

The (compounded) configuration has the point symmetry S_2 .

 Subroutine INISYM returns: Found  2 space group operations
 (whereof  2 operations are pure point group operations),
 and found     1 'primitive' translations

Automatic generation of k-mesh.
 generate k-points for:    9    9    9
Space group operators:
 irot       det(A)        alpha          n_x          n_y          n_z        tau_x        tau_y        tau_z
    1     1.000000     0.000001     1.000000     0.000000     0.000000     0.000000     0.000000     0.000000
    2    -1.000000     0.000001     1.000000     0.000000     0.000000     0.000000     0.000000     0.000000

 Subroutine IBZKPT returns following result:

 Found    365 irreducible k-points:

 Following reciprocal coordinates:
            Coordinates               Weight
  0.000000  0.000000  0.000000      1.000000
  0.111111  0.000000  0.000000      2.000000
  0.222222 -0.000000  0.000000      2.000000
  0.333333  0.000000  0.000000      2.000000
  0.444444 -0.000000  0.000000      2.000000
  0.000000  0.111111 -0.000000      2.000000
  0.111111  0.111111  0.000000      2.000000
  0.222222  0.111111  0.000000      2.000000
  0.333333  0.111111  0.000000      2.000000
  0.444444  0.111111  0.000000      2.000000
 -0.444444  0.111111 -0.000000      2.000000
 -0.333333  0.111111 -0.000000      2.000000
 -0.222222  0.111111 -0.000000      2.000000
 -0.111111  0.111111 -0.000000      2.000000
 -0.000000  0.222222 -0.000000      2.000000
  0.111111  0.222222 -0.000000      2.000000
  0.222222  0.222222  0.000000      2.000000
  0.333333  0.222222  0.000000      2.000000
  0.444444  0.222222  0.000000      2.000000
 -0.444444  0.222222 -0.000000      2.000000
 -0.333333  0.222222 -0.000000      2.000000
 -0.222222  0.222222 -0.000000      2.000000
 -0.111111  0.222222 -0.000000      2.000000
 -0.000000  0.333333 -0.000000      2.000000
  0.111111  0.333333  0.000000      2.000000
  0.222222  0.333333 -0.000000      2.000000
  0.333333  0.333333  0.000000      2.000000
  0.444444  0.333333  0.000000      2.000000
 -0.444444  0.333333 -0.000000      2.000000
 -0.333333  0.333333 -0.000000      2.000000
 -0.222222  0.333333 -0.000000      2.000000
 -0.111111  0.333333 -0.000000      2.000000
 -0.000000  0.444444 -0.000000      2.000000
  0.111111  0.444444  0.000000      2.000000
  0.222222  0.444444 -0.000000      2.000000
  0.333333  0.444444 -0.000000      2.000000
  0.444444  0.444444  0.000000      2.000000
 -0.444444  0.444444 -0.000000      2.000000
 -0.333333  0.444444 -0.000000      2.000000
 -0.222222  0.444444 -0.000000      2.000000
 -0.111111  0.444444 -0.000000      2.000000
  0.000000  0.000000  0.111111      2.000000
  0.111111  0.000000  0.111111      2.000000
  0.222222 -0.000000  0.111111      2.000000
  0.333333  0.000000  0.111111      2.000000
  0.444444 -0.000000  0.111111      2.000000
 -0.444444  0.000000  0.111111      2.000000
 -0.333333 -0.000000  0.111111      2.000000
 -0.222222 -0.000000  0.111111      2.000000
 -0.111111  0.000000  0.111111      2.000000
  0.000000  0.111111  0.111111      2.000000
  0.111111  0.111111  0.111111      2.000000
  0.222222  0.111111  0.111111      2.000000
  0.333333  0.111111  0.111111      2.000000
  0.444444  0.111111  0.111111      2.000000
 -0.444444  0.111111  0.111111      2.000000
 -0.333333  0.111111  0.111111      2.000000
 -0.222222  0.111111  0.111111      2.000000
 -0.111111  0.111111  0.111111      2.000000
  0.000000  0.222222  0.111111      2.000000
[...]
  0.333333 -0.222222  0.444444      2.000000
  0.444444 -0.222222  0.444444      2.000000
 -0.444444 -0.222222  0.444444      2.000000
 -0.333333 -0.222222  0.444444      2.000000
 -0.222222 -0.222222  0.444444      2.000000
 -0.111111 -0.222222  0.444444      2.000000
  0.000000 -0.111111  0.444444      2.000000
  0.111111 -0.111111  0.444444      2.000000
  0.222222 -0.111111  0.444444      2.000000
  0.333333 -0.111111  0.444444      2.000000
  0.444444 -0.111111  0.444444      2.000000
 -0.444444 -0.111111  0.444444      2.000000
 -0.333333 -0.111111  0.444444      2.000000
 -0.222222 -0.111111  0.444444      2.000000
 -0.111111 -0.111111  0.444444      2.000000

 Following cartesian coordinates:
            Coordinates               Weight
  0.000000  0.000000  0.000000      1.000000
  0.025069 -0.014474 -0.010234      2.000000
  0.050138 -0.028947 -0.020469      2.000000
  0.075207 -0.043421 -0.030703      2.000000
  0.100276 -0.057895 -0.040938      2.000000
  0.000000  0.028947 -0.010234      2.000000
  0.025069  0.014474 -0.020469      2.000000
  0.050138 -0.000000 -0.030703      2.000000
  0.075207 -0.014474 -0.040938      2.000000
  0.100276 -0.028947 -0.051172      2.000000
 -0.100276  0.086842  0.030703      2.000000
 -0.075207  0.072368  0.020469      2.000000
 -0.050138  0.057895  0.010234      2.000000
 -0.025069  0.043421  0.000000      2.000000
  0.000000  0.057895 -0.020469      2.000000
  0.025069  0.043421 -0.030703      2.000000
  0.050138  0.028947 -0.040938      2.000000
  0.075207  0.014474 -0.051172      2.000000
  0.100276  0.000000 -0.061406      2.000000
 -0.100276  0.115789  0.020469      2.000000
 -0.075207  0.101315  0.010234      2.000000
 -0.050138  0.086842  0.000000      2.000000
 -0.025069  0.072368 -0.010234      2.000000
  0.000000  0.086842 -0.030703      2.000000
  0.025069  0.072368 -0.040938      2.000000
  0.050138  0.057895 -0.051172      2.000000
  0.075207  0.043421 -0.061406      2.000000
  0.100276  0.028947 -0.071641      2.000000
 -0.100276  0.144736  0.010234      2.000000
 -0.075207  0.130263  0.000000      2.000000
 -0.050138  0.115789 -0.010234      2.000000
 -0.025069  0.101315 -0.020469      2.000000
  0.000000  0.115789 -0.040938      2.000000
  0.025069  0.101315 -0.051172      2.000000
  0.050138  0.086842 -0.061406      2.000000
  0.075207  0.072368 -0.071641      2.000000
  0.100276  0.057895 -0.081875      2.000000
 -0.100276  0.173684  0.000000      2.000000
 -0.075207  0.159210 -0.010234      2.000000
 -0.050138  0.144736 -0.020469      2.000000
 -0.025069  0.130263 -0.030703      2.000000
 -0.000000  0.000000  0.030703      2.000000
  0.025069 -0.014474  0.020469      2.000000
  0.050138 -0.028947  0.010234      2.000000
  0.075207 -0.043421 -0.000000      2.000000
  0.100276 -0.057895 -0.010234      2.000000
 -0.100276  0.057895  0.071641      2.000000
 -0.075207  0.043421  0.061406      2.000000
 -0.050138  0.028947  0.051172      2.000000
 -0.025069  0.014474  0.040938      2.000000
 -0.000000  0.028947  0.020469      2.000000
  0.025069  0.014474  0.010234      2.000000
  0.050138 -0.000000 -0.000000      2.000000
  0.075207 -0.014474 -0.010234      2.000000
  0.100276 -0.028947 -0.020469      2.000000
 -0.100276  0.086842  0.061406      2.000000
 -0.075207  0.072368  0.051172      2.000000
 -0.050138  0.057895  0.040938      2.000000
 -0.025069  0.043421  0.030703      2.000000
 -0.000000  0.057895  0.010234      2.000000
[...]
  0.075207 -0.101315  0.112578      2.000000
  0.100276 -0.115789  0.102344      2.000000
 -0.100276  0.000000  0.184219      2.000000
 -0.075207 -0.014474  0.173985      2.000000
 -0.050138 -0.028947  0.163750      2.000000
 -0.025069 -0.043421  0.153516      2.000000
 -0.000000 -0.028947  0.133047      2.000000
  0.025069 -0.043421  0.122813      2.000000
  0.050138 -0.057895  0.112578      2.000000
  0.075207 -0.072368  0.102344      2.000000
  0.100276 -0.086842  0.092110      2.000000
 -0.100276  0.028947  0.173985      2.000000
 -0.075207  0.014474  0.163750      2.000000
 -0.050138 -0.000000  0.153516      2.000000
 -0.025069 -0.014474  0.143282      2.000000

 SYSTEM =  Cn_FCC
 POSCAR =  Kr_FCC

 Startparameter for this run:
   NWRITE =      2    write-flag & timer
   PREC   = accura    normal or accurate (medium, high low for compatibility)
   ISTART =      0    job   : 0-new  1-cont  2-samecut
   ICHARG =      2    charge: 1-file 2-atom 10-const
   ISPIN  =      1    spin polarized calculation?
   LNONCOLLINEAR =      T non collinear calculations
   LSORBIT =      T    spin-orbit coupling
   INIWAV =      1    electr: 0-lowe 1-rand  2-diag
   LASPH  =      F    aspherical Exc in radial PAW
   METAGGA=      F    non-selfconsistent MetaGGA calc.

 Electronic Relaxation 1
   ENCUT  =  600.0 eV  44.10 Ry    6.64 a.u.   8.85  8.85  8.85*2*pi/ulx,y,z
   ENINI  =  600.0     initial cutoff
   ENAUG  =  605.9 eV  augmentation charge cutoff
   NELM   =    100;   NELMIN=  5; NELMDL= -5     # of ELM steps
   EDIFF  = 0.1E-06   stopping-criterion for ELM
   LREAL  =      F    real-space projection
   NLSPLINE    = F    spline interpolate recip. space projectors
   LCOMPAT=      F    compatible to vasp.4.4
   GGA_COMPAT  = F    GGA compatible to vasp.4.4-vasp.4.6
   LMAXPAW     = -100 max onsite density
   LMAXMIX     =    2 max onsite mixed and CHGCAR
   VOSKOWN=      0    Vosko Wilk Nusair interpolation
   ROPT   =    0.00000
 Ionic relaxation
   EDIFFG = 0.1E-04   stopping-criterion for IOM
   NSW    =    999    number of steps for IOM
   NBLOCK =      1;   KBLOCK =    999    inner block; outer block
   IBRION =      1    ionic relax: 0-MD 1-quasi-New 2-CG
[...]
 k-point 51 :   0.0000 0.1111 0.1111  plane waves:    4090
 k-point 52 :   0.1111 0.1111 0.1111  plane waves:    4122
 k-point 53 :   0.2222 0.1111 0.1111  plane waves:    4098
 k-point 54 :   0.3333 0.1111 0.1111  plane waves:    4118
 k-point 55 :   0.4444 0.1111 0.1111  plane waves:    4094
 k-point 56 :  -0.4444 0.1111 0.1111  plane waves:    4088
 k-point 57 :  -0.3333 0.1111 0.1111  plane waves:    4102
 k-point 58 :  -0.2222 0.1111 0.1111  plane waves:    4094
 k-point 59 :  -0.1111 0.1111 0.1111  plane waves:    4116
 k-point 60 :   0.0000 0.2222 0.1111  plane waves:    4116
[...]
 k-point 85 :  -0.2222 0.4444 0.1111  plane waves:    4128
 k-point 86 :  -0.1111 0.4444 0.1111  plane waves:    4108
 k-point 87 :   0.0000-0.4444 0.1111  plane waves:    4088
 k-point 88 :   0.1111-0.4444 0.1111  plane waves:    4088
 k-point 89 :   0.2222-0.4444 0.1111  plane waves:    4108
 k-point 90 :   0.3333-0.4444 0.1111  plane waves:    4106
 k-point 91 :   0.4444-0.4444 0.1111  plane waves:    4114
 k-point 92 :  -0.4444-0.4444 0.1111  plane waves:    4136
 k-point 93 :  -0.3333-0.4444 0.1111  plane waves:    4114
 k-point 94 :  -0.2222-0.4444 0.1111  plane waves:    4106
 k-point 95 :  -0.1111-0.4444 0.1111  plane waves:    4108
 k-point 96 :   0.0000-0.3333 0.1111  plane waves:    4094
 k-point 97 :   0.1111-0.3333 0.1111  plane waves:    4102
 k-point 98 :   0.2222-0.3333 0.1111  plane waves:    4108
 k-point 99 :   0.3333-0.3333 0.1111  plane waves:    4128
 k-point ** :   0.4444-0.3333 0.1111  plane waves:    4162
 k-point ** :  -0.4444-0.3333 0.1111  plane waves:    4114
 k-point ** :  -0.3333-0.3333 0.1111  plane waves:    4108
 k-point ** :  -0.2222-0.3333 0.1111  plane waves:    4120
 k-point ** :  -0.1111-0.3333 0.1111  plane waves:    4106
 k-point ** :   0.0000-0.2222 0.1111  plane waves:    4118
 k-point ** :   0.1111-0.2222 0.1111  plane waves:    4094
 k-point ** :   0.2222-0.2222 0.1111  plane waves:    4106
 k-point ** :   0.3333-0.2222 0.1111  plane waves:    4098
 k-point ** :   0.4444-0.2222 0.1111  plane waves:    4128
 k-point ** :  -0.4444-0.2222 0.1111  plane waves:    4106
 k-point ** :  -0.3333-0.2222 0.1111  plane waves:    4120
 k-point ** :  -0.2222-0.2222 0.1111  plane waves:    4078
 k-point ** :  -0.1111-0.2222 0.1111  plane waves:    4108
 k-point ** :   0.0000-0.1111 0.1111  plane waves:    4098
 k-point ** :   0.1111-0.1111 0.1111  plane waves:    4116
 k-point ** :   0.2222-0.1111 0.1111  plane waves:    4108
 k-point ** :   0.3333-0.1111 0.1111  plane waves:    4106
 k-point ** :   0.4444-0.1111 0.1111  plane waves:    4108
 k-point ** :  -0.4444-0.1111 0.1111  plane waves:    4108
 k-point ** :  -0.3333-0.1111 0.1111  plane waves:    4106
 k-point ** :  -0.2222-0.1111 0.1111  plane waves:    4108
 k-point ** :  -0.1111-0.1111 0.1111  plane waves:    4116
 k-point ** :   0.0000 0.0000 0.2222  plane waves:    4122
 k-point ** :   0.1111 0.0000 0.2222  plane waves:    4116
 k-point ** :   0.2222-0.0000 0.2222  plane waves:    4066
 k-point ** :   0.3333-0.0000 0.2222  plane waves:    4078
 k-point ** :   0.4444-0.0000 0.2222  plane waves:    4110
 k-point ** :  -0.4444-0.0000 0.2222  plane waves:    4108
 k-point ** :  -0.3333-0.0000 0.2222  plane waves:    4104
 k-point ** :  -0.2222 0.0000 0.2222  plane waves:    4090
 k-point ** :  -0.1111 0.0000 0.2222  plane waves:    4118
 k-point ** :   0.0000 0.1111 0.2222  plane waves:    4116
 k-point ** :   0.1111 0.1111 0.2222  plane waves:    4098
 k-point ** :   0.2222 0.1111 0.2222  plane waves:    4116
 k-point ** :   0.3333 0.1111 0.2222  plane waves:    4108
 k-point ** :   0.4444 0.1111 0.2222  plane waves:    4106
 k-point ** :  -0.4444 0.1111 0.2222  plane waves:    4108
 k-point ** :  -0.3333 0.1111 0.2222  plane waves:    4108
 k-point ** :  -0.2222 0.1111 0.2222  plane waves:    4106
 k-point ** :  -0.1111 0.1111 0.2222  plane waves:    4108
 k-point ** :   0.0000 0.2222 0.2222  plane waves:    4066
 k-point ** :   0.1111 0.2222 0.2222  plane waves:    4116
 k-point ** :   0.2222 0.2222 0.2222  plane waves:    4122
 k-point ** :   0.3333 0.2222 0.2222  plane waves:    4118
 k-point ** :   0.4444 0.2222 0.2222  plane waves:    4090
 k-point ** :  -0.4444 0.2222 0.2222  plane waves:    4104
 k-point ** :  -0.3333 0.2222 0.2222  plane waves:    4108
 k-point ** :  -0.2222 0.2222 0.2222  plane waves:    4110
 k-point ** :  -0.1111 0.2222 0.2222  plane waves:    4078
 k-point ** :   0.0000 0.3333 0.2222  plane waves:    4078
 k-point ** :   0.1111 0.3333 0.2222  plane waves:    4108
 k-point ** :   0.2222 0.3333 0.2222  plane waves:    4118
 k-point ** :   0.3333 0.3333 0.2222  plane waves:    4094
 k-point ** :   0.4444 0.3333 0.2222  plane waves:    4106
 k-point ** :  -0.4444 0.3333 0.2222  plane waves:    4098
 k-point ** :  -0.3333 0.3333 0.2222  plane waves:    4128
 k-point ** :  -0.2222 0.3333 0.2222  plane waves:    4106
 k-point ** :  -0.1111 0.3333 0.2222  plane waves:    4120
 k-point ** :   0.0000 0.4444 0.2222  plane waves:    4110
[...]
 k-point ** :   0.3333-0.2222 0.4444  plane waves:    4162
 k-point ** :   0.4444-0.2222 0.4444  plane waves:    4110
 k-point ** :  -0.4444-0.2222 0.4444  plane waves:    4106
 k-point ** :  -0.3333-0.2222 0.4444  plane waves:    4098
 k-point ** :  -0.2222-0.2222 0.4444  plane waves:    4104
 k-point ** :  -0.1111-0.2222 0.4444  plane waves:    4108
 k-point ** :   0.0000-0.1111 0.4444  plane waves:    4088
 k-point ** :   0.1111-0.1111 0.4444  plane waves:    4108
 k-point ** :   0.2222-0.1111 0.4444  plane waves:    4106
 k-point ** :   0.3333-0.1111 0.4444  plane waves:    4114
 k-point ** :   0.4444-0.1111 0.4444  plane waves:    4136
 k-point ** :  -0.4444-0.1111 0.4444  plane waves:    4114
 k-point ** :  -0.3333-0.1111 0.4444  plane waves:    4106
 k-point ** :  -0.2222-0.1111 0.4444  plane waves:    4108
 k-point ** :  -0.1111-0.1111 0.4444  plane waves:    4088

 maximum and minimum number of plane-waves per node :      1064      996

 maximum number of plane-waves:      4170
 maximum index in each direction:
   IXMAX=    9   IYMAX=    9   IZMAX=    8
   IXMIN=   -9   IYMIN=   -9   IZMIN=   -9

 parallel 3D FFT for wavefunctions:
    minimum data exchange during FFTs selected (reduces bandwidth)
 parallel 3D FFT for charge:
    minimum data exchange during FFTs selected (reduces bandwidth)

 Broyden mixing: mesh for mixing (old mesh)
   NGX = 17   NGY = 17   NGZ = 17
  (NGX  = 72   NGY  = 72   NGZ  = 72)
  gives a total of   4913 points

 initial charge density was supplied:
 charge density of overlapping atoms calculated
 number of electron       8.0000000 magnetization       1.0000000      1.0000000      1.0000000
 keeping initial charge density in first step

 Maximum index for augmentation-charges        18115 (set IRDMAX)

 First call to EWALD:  gamma=   0.449
 Maximum number of real-space cells 3x 3x 3
 Maximum number of reciprocal cells 3x 3x 3

--------------------------------------- Iteration      1(   1)  ---------------------------------------

 eigenvalue-minimisations  : 14600
 total energy-change (2. order) : 0.4382669E+02  (-0.2995303E+03)
 number of electron       8.0000000 magnetization       1.0000000      1.0000000      1.0000000
 augmentation part        8.0000000 magnetization       1.0000000      1.0000000      1.0000000

 Free energy of the ion-electron system (eV)
  alpha Z        PSCENC =        21.17661221
  Ewald energy   TEWEN  =      -337.05282163
  -Hartree energ DENC   =       -68.63715467
  -exchange      EXHF   =         0.00000000
  -V(xc)+E(xc)   XCENC  =       -72.62646947
  PAW double counting   =       428.58020317     -340.45230929
  entropy T*S    EENTRO =        -0.00023654
  eigenvalues    EBANDS =       -16.67545727
  atomic energy  EATOM  =       429.51431920
  Solvation  Ediel_sol  =         0.00000000
  free energy    TOTEN  =        43.82668571 eV

  energy without entropy =       43.82692225  energy(sigma->0) =       43.82676456

[...]

 eigenvalue-minimisations  : 19964
 total energy-change (2. order) :-0.3949704E+02  (-0.3583316E+02)
 number of electron       8.0000000 magnetization       1.0000000      1.0000000      1.0000000
 augmentation part        8.0000000 magnetization       1.0000000      1.0000000      1.0000000

[...]

 Broyden mixing:
  rms(total) = 0.43490E+00    rms(broyden)= 0.43490E+00
  rms(prec ) = 0.43506E+00
  weight for this iteration     100.00

[...]

 eigenvalues of (default mixing * dielectric matrix)
  average eigenvalue GAMMA=   0.7912
  0.7912

[...]

 eigenvalue-minimisations  : 14600
 total energy-change (2. order) : 0.2674143E-05  (-0.3347176E-06)
 number of electron       8.0000000 magnetization       0.0000001      0.0000003      0.0000003
 augmentation part       -1.3432465 magnetization       0.0000009      0.0000010      0.0000011

[...]

 Broyden mixing:
  rms(total) = 0.20982E-04    rms(broyden)= 0.20982E-04
  rms(prec ) = 0.35285E-04
  weight for this iteration     100.00

 eigenvalues of (default mixing * dielectric matrix)
  average eigenvalue GAMMA=   1.1991
  2.4162  2.4162  1.0561  0.8556  0.8265  0.7410  0.6233  0.6581

[...]

--------------------------------------- Iteration      1(  14)  ---------------------------------------

 eigenvalue-minimisations  : 10853
 total energy-change (2. order) :-0.2030924E-07  (-0.6151032E-09)
 number of electron       8.0000000 magnetization      -0.0000049     -0.0000049     -0.0000049
 augmentation part       -1.3432349 magnetization      -0.0000049     -0.0000051     -0.0000051

 Free energy of the ion-electron system (eV)
  alpha Z        PSCENC =        21.17661221
  Ewald energy   TEWEN  =      -337.05282163
  -Hartree energ DENC   =       -68.70040671
  -exchange      EXHF   =         0.00000000
  -V(xc)+E(xc)   XCENC  =       -72.83358840
  PAW double counting   =       429.52945636     -341.41534965
  entropy T*S    EENTRO =         0.00092945
  eigenvalues    EBANDS =       -60.37370466
  atomic energy  EATOM  =       429.51431920
  Solvation  Ediel_sol  =         0.00000000
  free energy    TOTEN  =        -0.15455383 eV

  energy without entropy =       -0.15548328  energy(sigma->0) =       -0.15486364

 average (electrostatic) potential at core
  the test charge radii are     1.1266
  (the norm of the test charge is              1.0000)
       1 -57.5276

 E-fermi :  -3.5789     XC(G=0):  -6.6454     alpha+bet : -3.5563

 k-point     1 :       0.0000    0.0000    0.0000
  band No.  band energies     occupation
      1     -16.3320      1.00000
      2     -16.3320      1.00000
      3      -4.9365      1.00000
      4      -4.9365      1.00000
      5      -3.5986      0.66357
      6      -3.5986      0.66356
      7      -3.5986      0.66354
      8      -3.5986      0.66354
      9       2.1889      0.00000
     10       2.1889      0.00000
     11       6.6609      0.00000
     12       6.6609      0.00000
     13       6.6609      0.00000
     14       6.6609      0.00000
     15       6.7155      0.00000
     16       6.7155      0.00000
     17       8.7971      0.00000
     18       8.7971      0.00000
     19       8.7972      0.00000
     20       9.3411      0.00000

[...]

 k-point   365 :      -0.1111   -0.1111    0.4444
  band No.  band energies     occupation
      1     -16.1353      1.00000
      2     -16.1353      1.00000
      3      -5.7471      1.00000
      4      -5.7471      1.00000
      5      -4.4671      1.00000
      6      -4.4671      1.00000
      7      -3.8801      1.00009
      8      -3.8801      1.00009
      9       4.0041      0.00000
     10       4.0041      0.00000
     11       5.7781      0.00000
     12       5.7781      0.00000
     13       6.5979      0.00000
     14       6.5979      0.00000
     15       6.9135      0.00000
     16       6.9135      0.00000
     17       9.8719      0.00000
     18       9.8722      0.00000
     19      10.1362      0.00000
     20      10.7486      0.00000

 soft charge-density along one line, spin component           1
         0         1         2         3         4         5         6         7         8         9
 total charge-density along one line

[...]

 soft charge-density along one line, spin component           4
         0         1         2         3         4         5         6         7         8         9
 total charge-density along one line

------------------------ aborting loop because EDIFF is reached ----------------------------------------

         DFTD3 V3.0 Rev 1
 IVDW         = 12
 DF pbe
 parameters
 VDW_S6       =    1.0000
 VDW_S8       =    0.7875
 VDW_A1       =    0.4289
 VDW_A2       =    4.4407
 k1-k3        =   16.0000    1.3333   -4.0000
 VDW_RADIUS   =   50.2022 A
 VDW_CNRADIUS =   21.1671 A
 Edisp (eV)   -0.16980

 E6    (eV) :    -0.0965
 E8    (eV) :    -0.0733
 % E8        : 43.19

  FORCE on cell =-STRESS in cart. coord.  units (eV):
  Direction    XX          YY          ZZ          XY          YZ          ZX
  Alpha Z    21.17661    21.17661    21.17661
  Ewald    -112.35094  -112.35094  -112.35094    -0.00000    -0.00000     0.00000
  Hartree    22.90001    22.90001    22.90001    -0.00000    -0.00000    -0.00000
  E(xc)     -38.73905   -38.73905   -38.73905     0.00000     0.00000     0.00000
  Local     -16.95105   -16.95105   -16.95105     0.00000     0.00000     0.00000
  n-local    43.94344    43.94344    43.94344    -0.00000    -0.00000    -0.00000
  augment   -12.15344   -12.15344   -12.15344    -0.00000    -0.00000    -0.00000
  Kinetic    92.41037    92.41037    92.41037     0.00000     0.00000     0.00000
  Fock        0.00000     0.00000     0.00000     0.00000     0.00000     0.00000
  vdW        -0.23101    -0.23101    -0.23101    -0.00000    -0.00000    -0.00000
  Total       0.00494     0.00494     0.00494     0.00000     0.00000     0.00000
  in kB       0.12858     0.12855     0.12857     0.00005     0.00003     0.00005

 VOLUME and BASIS-vectors are now :
  energy-cutoff  :      600.00
  volume of cell :       61.57
      direct lattice vectors                 reciprocal lattice vectors
     4.432200126  0.000000000  0.000000000     0.225621581 -0.130262681 -0.092109625
     2.216100063  3.838397904 -0.000000000     0.000000000  0.260525361 -0.092109625
     2.216100063  1.279465968  3.618876249    -0.000000000  0.000000000  0.276328874

  length of vectors
     4.432200126  4.432200126  4.432200126     0.276328874  0.276328874  0.276328874

 FORCES acting on ions
    electron-ion (+dipol)            ewald-force                    non-local-force                 convergence-correction
   -.411E-14 -.590E-14 -.128E-14   0.119E-15 -.320E-16 -.288E-15   0.000E+00 0.827E-24 0.000E+00   -.960E-14 -.129E-14 -.418E-14
   -.411E-14 -.590E-14 -.128E-14   0.119E-15 -.320E-16 -.288E-15   0.000E+00 0.827E-24 0.000E+00   -.960E-14 -.129E-14 -.418E-14

 POSITION                                       TOTAL-FORCE (eV/Angst)
      0.00000      0.00000      0.00000         0.000000      0.000000      0.000000
    total drift:                               -0.000000     -0.000000     -0.000000

  FREE ENERGIE OF THE ION-ELECTRON SYSTEM (eV)
  free  energy   TOTEN  =        -0.32435435 eV

  energy  without entropy=       -0.32528379  energy(sigma->0) =       -0.32466416

 Quasi-Newton relaxation of ions (Broydens 2nd method)
  g(Force)  = 0.000E+00   g(Stress)= 0.706E-06

 Reset! Starting new Quasi-Newton update for ions

 reached required accuracy - stopping structural energy minimisation

 Spin-Orbit-Coupling matrix elements

 Ion:    1  E_soc:     -0.2999036
 l=   1
     0.0000000    -0.0499790    -0.0499790
    -0.0499790     0.0000000    -0.0499790
    -0.0499790    -0.0499790     0.0000000
 l=   2
     0.0000000    -0.0000009     0.0000000    -0.0000009    -0.0000040
    -0.0000009     0.0000000    -0.0000030    -0.0000009    -0.0000009
     0.0000000    -0.0000030     0.0000000    -0.0000030     0.0000000
    -0.0000009    -0.0000009    -0.0000030     0.0000000    -0.0000009
    -0.0000040    -0.0000009     0.0000000    -0.0000009     0.0000000
 l=   3
     0.0000000     0.0000000     0.0000000     0.0000000     0.0000000     0.0000000    -0.0000000
     0.0000000     0.0000000    -0.0000000     0.0000000    -0.0000000    -0.0000000    -0.0000000
     0.0000000    -0.0000000     0.0000000    -0.0000000    -0.0000000    -0.0000000     0.0000000
     0.0000000     0.0000000    -0.0000000     0.0000000    -0.0000000     0.0000000     0.0000000
     0.0000000    -0.0000000    -0.0000000    -0.0000000     0.0000000    -0.0000000     0.0000000
     0.0000000    -0.0000000    -0.0000000     0.0000000    -0.0000000     0.0000000    -0.0000000
    -0.0000000    -0.0000000     0.0000000     0.0000000     0.0000000    -0.0000000     0.0000000