 vasp.5.4.4.18Apr17-6-g9f103f2a35 (build Nov 03 2018 10:20:43) complex

 executed on             LinuxIFC date 2018.11.29  14:58:47

 INCAR:
 POTCAR:    PAW Og, JanMewes Oct 18

 POTCAR:    PAW Og, JanMewes Oct 18
   VRHFIN =Og : 10d 2s 6p, PE

   TITEL  = PAW Og, JanMewes Oct 18
   POMASS =    0.010; ZVAL   =   18.000    mass and valenz
   ENMAX  =  339.336; ENMIN  =  254.502 eV
   QCUT   =   -4.994; QGAM   =    9.988    optimization parameters

  PAW Og, JanMewes Oct 18               :

 POSCAR: Og_FCC
  positions in direct lattice
  velocities in cartesian coordinates

 METAGGA = SCAN     LMAXTAU =  0    LMIXTAU =  F

 ion  position               nearest neighbor table
   1  0.000  0.000  0.000-

  LATTYP: Found a face centered cubic cell.
 ALAT       =     6.4045333011

  Lattice vectors:

 A1 = (   4.5286889275,   0.0000000000,   0.0000000000)
 A2 = (   2.2643444637,   3.9219596570,  -0.0000000000)
 A3 = (   2.2643444637,   1.3073198857,   3.6976590255)

Analysis of symmetry for initial positions (statically):
 Subroutine PRICEL returns:
 Original cell was already a primitive cell.

 Routine SETGRP: Setting up the symmetry group for a
 face centered cubic supercell.

 Subroutine GETGRP returns: Found 48 space group operations
 (whereof 48 operations were pure point group operations)
 out of a pool of 48 trial point group operations.

The static configuration has the point symmetry O_h .

Analysis of symmetry for dynamics (positions and initial velocities):
 Subroutine PRICEL returns:
 Original cell was already a primitive cell.

 Routine SETGRP: Setting up the symmetry group for a
 face centered cubic supercell.

 Subroutine GETGRP returns: Found 48 space group operations
 (whereof 48 operations were pure point group operations)
 out of a pool of 48 trial point group operations.

The dynamic configuration has the point symmetry O_h .

 Subroutine INISYM returns: Found 48 space group operations
 (whereof 48 operations are pure point group operations),
 and found     1 'primitive' translations

Automatic generation of k-mesh.
 generate k-points for:    9    9    9
Space group operators:
 irot       det(A)        alpha          n_x          n_y          n_z        tau_x        tau_y        tau_z
    1     1.000000     0.000001     1.000000     0.000000     0.000000     0.000000     0.000000     0.000000
    2    -1.000000     0.000001     1.000000     0.000000     0.000000     0.000000     0.000000     0.000000
    3     1.000000   120.000000    -0.816497    -0.471405    -0.333333     0.000000     0.000000     0.000000
    4    -1.000000   120.000000    -0.816497    -0.471405    -0.333333     0.000000     0.000000     0.000000
    5     1.000000   120.000000     0.816497     0.471405     0.333333     0.000000     0.000000     0.000000
    6    -1.000000   120.000000     0.816497     0.471405     0.333333     0.000000     0.000000     0.000000
    7     1.000000    90.000000    -0.707107    -0.408248     0.577350     0.000000     0.000000     0.000000
    8    -1.000000    90.000000    -0.707107    -0.408248     0.577350     0.000000     0.000000     0.000000
    9     1.000000   180.000000     1.000000     0.000000     0.000000     0.000000     0.000000     0.000000
   10    -1.000000   180.000000     1.000000     0.000000     0.000000     0.000000     0.000000     0.000000
   11     1.000000    90.000000     0.707107    -0.408248     0.577350     0.000000     0.000000     0.000000
   12    -1.000000    90.000000     0.707107    -0.408248     0.577350     0.000000     0.000000     0.000000
   13     1.000000   180.000000     0.707107     0.408248    -0.577350     0.000000     0.000000     0.000000
   14    -1.000000   180.000000     0.707107     0.408248    -0.577350     0.000000     0.000000     0.000000
   15     1.000000   120.000000     0.816497    -0.471405    -0.333333     0.000000     0.000000     0.000000
   16    -1.000000   120.000000     0.816497    -0.471405    -0.333333     0.000000     0.000000     0.000000
   17     1.000000   120.000000     0.000000    -0.942809     0.333333     0.000000     0.000000     0.000000
   18    -1.000000   120.000000     0.000000    -0.942809     0.333333     0.000000     0.000000     0.000000
   19     1.000000    90.000000     0.707107     0.408248    -0.577350     0.000000     0.000000     0.000000
   20    -1.000000    90.000000     0.707107     0.408248    -0.577350     0.000000     0.000000     0.000000
   21     1.000000    90.000000    -0.000000    -0.816497    -0.577350     0.000000     0.000000     0.000000
   22    -1.000000    90.000000    -0.000000    -0.816497    -0.577350     0.000000     0.000000     0.000000
   23     1.000000   180.000000     0.500000     0.866025     0.000000     0.000000     0.000000     0.000000
   24    -1.000000   180.000000     0.500000     0.866025     0.000000     0.000000     0.000000     0.000000
   25     1.000000   120.000000     0.000000     0.942809    -0.333333     0.000000     0.000000     0.000000
   26    -1.000000   120.000000     0.000000     0.942809    -0.333333     0.000000     0.000000     0.000000
   27     1.000000   120.000000    -0.000000     0.000000    -1.000000     0.000000     0.000000     0.000000
   28    -1.000000   120.000000    -0.000000     0.000000    -1.000000     0.000000     0.000000     0.000000
   29     1.000000   180.000000    -0.000000     0.816497     0.577350     0.000000     0.000000     0.000000
   30    -1.000000   180.000000    -0.000000     0.816497     0.577350     0.000000     0.000000     0.000000
   31     1.000000    90.000000    -0.707107     0.408248    -0.577350     0.000000     0.000000     0.000000
   32    -1.000000    90.000000    -0.707107     0.408248    -0.577350     0.000000     0.000000     0.000000
   33     1.000000   180.000000     0.500000     0.288675     0.816497     0.000000     0.000000     0.000000
   34    -1.000000   180.000000     0.500000     0.288675     0.816497     0.000000     0.000000     0.000000
   35     1.000000    90.000000    -0.000000     0.816497     0.577350     0.000000     0.000000     0.000000
   36    -1.000000    90.000000    -0.000000     0.816497     0.577350     0.000000     0.000000     0.000000
   37     1.000000   120.000000    -0.816497     0.471405     0.333333     0.000000     0.000000     0.000000
   38    -1.000000   120.000000    -0.816497     0.471405     0.333333     0.000000     0.000000     0.000000
   39     1.000000   180.000000    -0.707107     0.408248    -0.577350     0.000000     0.000000     0.000000
   40    -1.000000   180.000000    -0.707107     0.408248    -0.577350     0.000000     0.000000     0.000000
   41     1.000000   120.000000    -0.000000     0.000000     1.000000     0.000000     0.000000     0.000000
   42    -1.000000   120.000000    -0.000000     0.000000     1.000000     0.000000     0.000000     0.000000
   43     1.000000   180.000000    -0.000000    -0.577350     0.816497     0.000000     0.000000     0.000000
   44    -1.000000   180.000000    -0.000000    -0.577350     0.816497     0.000000     0.000000     0.000000
   45     1.000000   180.000000    -0.500000     0.866025    -0.000000     0.000000     0.000000     0.000000
   46    -1.000000   180.000000    -0.500000     0.866025    -0.000000     0.000000     0.000000     0.000000
   47     1.000000   179.999999    -0.500000     0.288675     0.816497     0.000000     0.000000     0.000000
   48    -1.000000   179.999999    -0.500000     0.288675     0.816497     0.000000     0.000000     0.000000

 Subroutine IBZKPT returns following result:

 Found     35 irreducible k-points:

 Following reciprocal coordinates:
            Coordinates               Weight
  0.000000  0.000000  0.000000      1.000000
  0.111111  0.000000 -0.000000      8.000000
  0.222222 -0.000000 -0.000000      8.000000
  0.333333  0.000000 -0.000000      8.000000
  0.444444 -0.000000 -0.000000      8.000000
  0.111111  0.111111  0.000000      6.000000
  0.222222  0.111111 -0.000000     24.000000
  0.333333  0.111111 -0.000000     24.000000
  0.444444  0.111111 -0.000000     24.000000
 -0.444444  0.111111  0.000000     24.000000
 -0.333333  0.111111  0.000000     24.000000
 -0.222222  0.111111  0.000000     24.000000
 -0.111111  0.111111  0.000000     12.000000
  0.222222  0.222222 -0.000000      6.000000
  0.333333  0.222222  0.000000     24.000000
  0.444444  0.222222 -0.000000     24.000000
 -0.444444  0.222222  0.000000     24.000000
 -0.333333  0.222222  0.000000     24.000000
 -0.222222  0.222222  0.000000     12.000000
  0.333333  0.333333 -0.000000      6.000000
  0.444444  0.333333 -0.000000     24.000000
 -0.444444  0.333333  0.000000     24.000000
 -0.333333  0.333333  0.000000     12.000000
  0.444444  0.444444 -0.000000      6.000000
 -0.444444  0.444444  0.000000     12.000000
  0.333333  0.222222  0.111111     24.000000
  0.444444  0.222222  0.111111     48.000000
 -0.444444  0.222222  0.111111     48.000000
  0.444444  0.333333  0.111111     24.000000
 -0.444444  0.333333  0.111111     48.000000
 -0.333333  0.333333  0.111111     48.000000
 -0.222222  0.333333  0.111111     24.000000
 -0.444444  0.444444  0.111111     24.000000
 -0.333333  0.444444  0.111111     24.000000
 -0.333333  0.444444  0.222222     24.000000

 Following cartesian coordinates:
            Coordinates               Weight
  0.000000  0.000000  0.000000      1.000000
  0.024658 -0.014236 -0.010066      8.000000
  0.049315 -0.028472 -0.020133      8.000000
  0.073973 -0.042708 -0.030199      8.000000
  0.098630 -0.056944 -0.040266      8.000000
  0.024658  0.014236 -0.020133      6.000000
  0.049315 -0.000000 -0.030199     24.000000
  0.073973 -0.014236 -0.040266     24.000000
  0.098630 -0.028472 -0.050332     24.000000
 -0.098630  0.085416  0.030199     24.000000
 -0.073973  0.071180  0.020133     24.000000
 -0.049315  0.056944  0.010066     24.000000
 -0.024658  0.042708  0.000000     12.000000
  0.049315  0.028472 -0.040266      6.000000
  0.073973  0.014236 -0.050332     24.000000
  0.098630 -0.000000 -0.060399     24.000000
 -0.098630  0.113889  0.020133     24.000000
 -0.073973  0.099653  0.010066     24.000000
 -0.049315  0.085416  0.000000     12.000000
  0.073973  0.042708 -0.060399      6.000000
  0.098630  0.028472 -0.070465     24.000000
 -0.098630  0.142361  0.010066     24.000000
 -0.073973  0.128125  0.000000     12.000000
  0.098630  0.056944 -0.080531      6.000000
 -0.098630  0.170833  0.000000     12.000000
  0.073973  0.014236 -0.020133     24.000000
  0.098630  0.000000 -0.030199     48.000000
 -0.098630  0.113889  0.050332     48.000000
  0.098630  0.028472 -0.040266     24.000000
 -0.098630  0.142361  0.040266     48.000000
 -0.073973  0.128125  0.030199     48.000000
 -0.049315  0.113889  0.020133     24.000000
 -0.098630  0.170833  0.030199     24.000000
 -0.073973  0.156597  0.020133     24.000000
 -0.073973  0.156597  0.050332     24.000000

 SYSTEM =  Og_FCC
 POSCAR =  Og_FCC

 Startparameter for this run:
   NWRITE =      2    write-flag & timer
   PREC   = accura    normal or accurate (medium, high low for compatibility)
   ISTART =      0    job   : 0-new  1-cont  2-samecut
[...]
   LELF         =      F    write electronic localiz. function (ELF)
   LORBIT       =      0    0 simple, 1 ext, 2 COOP (PROOUT), +10 PAW based schemes

 Dipole corrections
   LMONO  =      F    monopole corrections only (constant potential shift)
   LDIPOL =      F    correct potential (dipole corrections)
   IDIPOL =      0    1-x, 2-y, 3-z, 4-all directions
   EPSILON=  1.0000000 bulk dielectric constant

 Exchange correlation treatment:
   GGA     =    --    GGA type
   VOSKOWN=      0    Vosko Wilk Nusair interpolation
   LHFCALC =     F    Hartree Fock is set to
   LHFONE  =     F    Hartree Fock one center treatment
   AEXX    =    0.0000 exact exchange contribution

 Linear response parameters
   LEPSILON=     F    determine dielectric tensor
   LRPA    =     F    only Hartree local field effects (RPA)
   LNABLA  =     F    use nabla operator in PAW spheres
   LVEL    =     F    velocity operator in full k-point grid
   LINTERFAST=   F  fast interpolation
   KINTER  =     0    interpolate to denser k-point grid
   CSHIFT  =0.1000    complex shift for real part using Kramers Kronig
   OMEGAMAX=  -1.0    maximum frequency
   DEG_THRESHOLD= 0.2000000E-02 threshold for treating states as degnerate
   RTIME   =   -0.100 relaxation time in fs
  (WPLASMAI=    0.000 imaginary part of plasma frequency in eV, 0.658/RTIME)
   DFIELD  = 0.0000000 0.0000000 0.0000000 field for delta impulse in time

 Orbital magnetization related:
   ORBITALMAG=     F  switch on orbital magnetization
   LCHIMAG   =     F  perturbation theory with respect to B field
   DQ        =  0.001000  dq finite difference perturbation B field
   LLRAUG    =     F  two centre corrections for induced B field

 Static calculation
 charge density and potential will be updated during run
 non-spin polarized calculation
 RMM-DIIS sequential band-by-band and
  variant of blocked Davidson during initial phase
 perform sub-space diagonalisation
    before iterative eigenvector-optimisation
 modified Broyden-mixing scheme, WC =      100.0
 initial mixing is a Kerker type mixing with AMIX =  0.4000 and BMIX =      1.0000
 Hartree-type preconditioning will be used
 using additional bands            4
 reciprocal scheme for non local part
 use partial core corrections
 calculate Harris-corrections to forces
   (improved forces if not selfconsistent)
 use gradient corrections
 use of overlap-Matrix (Vanderbilt PP)
 Methfessel and Paxton  Order N= 1 SIGMA  =   0.05

  energy-cutoff  :      600.00
  volume of cell :       65.68
      direct lattice vectors                 reciprocal lattice vectors
     4.528688927  0.000000000  0.000000000     0.220814460 -0.127487288 -0.090147126
     2.264344464  3.921959657 -0.000000000     0.000000000  0.254974576 -0.090147126
     2.264344464  1.307319886  3.697659025    -0.000000000  0.000000000  0.270441377

  length of vectors
     4.528688927  4.528688927  4.528688928     0.270441377  0.270441377  0.270441377

 k-points in units of 2pi/SCALE and weight: read from INCAR
   0.00000000  0.00000000  0.00000000       0.001
   0.02465761 -0.01423608 -0.01006643       0.011
   0.04931523 -0.02847216 -0.02013286       0.011
   0.07397284 -0.04270824 -0.03019929       0.011
   0.09863046 -0.05694432 -0.04026572       0.011
   0.02465761  0.01423608 -0.02013286       0.008
   0.04931523 -0.00000000 -0.03019929       0.033
   0.07397284 -0.01423608 -0.04026572       0.033
   0.09863046 -0.02847216 -0.05033215       0.033
  -0.09863046  0.08541648  0.03019929       0.033
  -0.07397284  0.07118040  0.02013286       0.033
  -0.04931523  0.05694432  0.01006643       0.033
  -0.02465761  0.04270824  0.00000000       0.016
   0.04931523  0.02847216 -0.04026572       0.008
   0.07397284  0.01423608 -0.05033215       0.033
   0.09863046 -0.00000000 -0.06039857       0.033
  -0.09863046  0.11388864  0.02013286       0.033
  -0.07397284  0.09965256  0.01006643       0.033
  -0.04931523  0.08541648  0.00000000       0.016
   0.07397284  0.04270824 -0.06039857       0.008
   0.09863046  0.02847216 -0.07046500       0.033
  -0.09863046  0.14236080  0.01006643       0.033
  -0.07397284  0.12812472  0.00000000       0.016
   0.09863046  0.05694432 -0.08053143       0.008
  -0.09863046  0.17083297  0.00000000       0.016
   0.07397284  0.01423608 -0.02013286       0.033
   0.09863046  0.00000000 -0.03019929       0.066
  -0.09863046  0.11388864  0.05033215       0.066
   0.09863046  0.02847216 -0.04026572       0.033
  -0.09863046  0.14236080  0.04026572       0.066
  -0.07397284  0.12812472  0.03019929       0.066
  -0.04931523  0.11388864  0.02013286       0.033
  -0.09863046  0.17083297  0.03019929       0.033
  -0.07397284  0.15659689  0.02013286       0.033
  -0.07397284  0.15659689  0.05033215       0.033

 k-points in reciprocal lattice and weights: read from INCAR
   0.00000000  0.00000000  0.00000000       0.001
   0.11111111  0.00000000 -0.00000000       0.011
   0.22222222 -0.00000000 -0.00000000       0.011
   0.33333333  0.00000000 -0.00000000       0.011
   0.44444444 -0.00000000 -0.00000000       0.011
   0.11111111  0.11111111  0.00000000       0.008
   0.22222222  0.11111111 -0.00000000       0.033
   0.33333333  0.11111111 -0.00000000       0.033
   0.44444444  0.11111111 -0.00000000       0.033
  -0.44444444  0.11111111  0.00000000       0.033
  -0.33333333  0.11111111  0.00000000       0.033
  -0.22222222  0.11111111  0.00000000       0.033
  -0.11111111  0.11111111  0.00000000       0.016
   0.22222222  0.22222222 -0.00000000       0.008
   0.33333333  0.22222222  0.00000000       0.033
   0.44444444  0.22222222 -0.00000000       0.033
  -0.44444444  0.22222222  0.00000000       0.033
  -0.33333333  0.22222222  0.00000000       0.033
  -0.22222222  0.22222222  0.00000000       0.016
   0.33333333  0.33333333 -0.00000000       0.008
   0.44444444  0.33333333 -0.00000000       0.033
  -0.44444444  0.33333333  0.00000000       0.033
  -0.33333333  0.33333333  0.00000000       0.016
   0.44444444  0.44444444 -0.00000000       0.008
  -0.44444444  0.44444444  0.00000000       0.016
   0.33333333  0.22222222  0.11111111       0.033
   0.44444444  0.22222222  0.11111111       0.066
  -0.44444444  0.22222222  0.11111111       0.066
   0.44444444  0.33333333  0.11111111       0.033
  -0.44444444  0.33333333  0.11111111       0.066
  -0.33333333  0.33333333  0.11111111       0.066
  -0.22222222  0.33333333  0.11111111       0.033
  -0.44444444  0.44444444  0.11111111       0.033
  -0.33333333  0.44444444  0.11111111       0.033
  -0.33333333  0.44444444  0.22222222       0.033

 position of ions in fractional coordinates (direct lattice)
   0.00000000  0.00000000  0.00000000

 position of ions in cartesian coordinates  (Angst):
   0.00000000  0.00000000  0.00000000

 k-point  1 :   0.0000 0.0000 0.0000  plane waves:    2133
 k-point  2 :   0.1111 0.0000-0.0000  plane waves:    2181
 k-point  3 :   0.2222-0.0000-0.0000  plane waves:    2190
 k-point  4 :   0.3333 0.0000-0.0000  plane waves:    2181
 k-point  5 :   0.4444-0.0000-0.0000  plane waves:    2195
 k-point  6 :   0.1111 0.1111 0.0000  plane waves:    2173
 k-point  7 :   0.2222 0.1111-0.0000  plane waves:    2172
 k-point  8 :   0.3333 0.1111-0.0000  plane waves:    2180
 k-point  9 :   0.4444 0.1111-0.0000  plane waves:    2193
 k-point 10 :  -0.4444 0.1111 0.0000  plane waves:    2193
 k-point 11 :  -0.3333 0.1111 0.0000  plane waves:    2182
 k-point 12 :  -0.2222 0.1111 0.0000  plane waves:    2189
 k-point 13 :  -0.1111 0.1111 0.0000  plane waves:    2175
 k-point 14 :   0.2222 0.2222-0.0000  plane waves:    2193
 k-point 15 :   0.3333 0.2222 0.0000  plane waves:    2181
 k-point 16 :   0.4444 0.2222-0.0000  plane waves:    2182
 k-point 17 :  -0.4444 0.2222 0.0000  plane waves:    2204
 k-point 18 :  -0.3333 0.2222 0.0000  plane waves:    2199
 k-point 19 :  -0.2222 0.2222 0.0000  plane waves:    2191
 k-point 20 :   0.3333 0.3333-0.0000  plane waves:    2181
 k-point 21 :   0.4444 0.3333-0.0000  plane waves:    2187
 k-point 22 :  -0.4444 0.3333 0.0000  plane waves:    2184
 k-point 23 :  -0.3333 0.3333 0.0000  plane waves:    2185
 k-point 24 :   0.4444 0.4444-0.0000  plane waves:    2200
 k-point 25 :  -0.4444 0.4444 0.0000  plane waves:    2199
 k-point 26 :   0.3333 0.2222 0.1111  plane waves:    2178
 k-point 27 :   0.4444 0.2222 0.1111  plane waves:    2183
 k-point 28 :  -0.4444 0.2222 0.1111  plane waves:    2190
 k-point 29 :   0.4444 0.3333 0.1111  plane waves:    2196
 k-point 30 :  -0.4444 0.3333 0.1111  plane waves:    2204
 k-point 31 :  -0.3333 0.3333 0.1111  plane waves:    2216
 k-point 32 :  -0.2222 0.3333 0.1111  plane waves:    2198
 k-point 33 :  -0.4444 0.4444 0.1111  plane waves:    2201
 k-point 34 :  -0.3333 0.4444 0.1111  plane waves:    2198
 k-point 35 :  -0.3333 0.4444 0.2222  plane waves:    2194

 maximum and minimum number of plane-waves per node :       559      522

 maximum number of plane-waves:      2216
 maximum index in each direction:
   IXMAX=    9   IYMAX=    9   IZMAX=    9
   IXMIN=   -9   IYMIN=   -9   IZMIN=   -9

 parallel 3D FFT for wavefunctions:
    minimum data exchange during FFTs selected (reduces bandwidth)
 parallel 3D FFT for charge:
    minimum data exchange during FFTs selected (reduces bandwidth)

 Broyden mixing: mesh for mixing (old mesh)
   NGX = 19   NGY = 19   NGZ = 19
  (NGX  = 72   NGY  = 72   NGZ  = 72)
  gives a total of   6859 points

 initial charge density was supplied:
 charge density of overlapping atoms calculated
 number of electron      18.0000000 magnetization
 keeping initial charge density in first step

 Maximum index for augmentation-charges        82831 (set IRDMAX)

 First call to EWALD:  gamma=   0.439
 Maximum number of real-space cells 3x 3x 3
 Maximum number of reciprocal cells 3x 3x 3

--------------------------------------- Iteration      1(   1)  ---------------------------------------

 eigenvalue-minimisations  :   918
 total energy-change (2. order) : 0.1408446E+03  (-0.9645976E+03)
 number of electron      18.0000000 magnetization
 augmentation part       18.0000000 magnetization

 Free energy of the ion-electron system (eV)
  alpha Z        PSCENC =        58.09266219
  Ewald energy   TEWEN  =     -1669.97463529
  -Hartree energ DENC   =      -707.72737590
  -exchange      EXHF   =         0.00000000
  -V(xc)+E(xc)   XCENC  =       -42.50856002
  PAW double counting   =      2249.78787100    -2317.67826404
  entropy T*S    EENTRO =        -0.00090558
  eigenvalues    EBANDS =       -69.67490158
  atomic energy  EATOM  =      2640.52872706
  Solvation  Ediel_sol  =         0.00000000
  free energy    TOTEN  =       140.84461783 eV

  energy without entropy =      140.84552341  energy(sigma->0) =      140.84491969

[...]

 eigenvalue-minimisations  :  1098
 total energy-change (2. order) :-0.2732234E+03  (-0.2674735E+03)
 number of electron      18.0000000 magnetization
 augmentation part       18.0000000 magnetization

[...]

 Broyden mixing:
  rms(total) = 0.16254E+00    rms(broyden)= 0.16239E+00
  rms(prec ) = 0.30046E+00
  weight for this iteration     100.00

[...]

 eigenvalues of (default mixing * dielectric matrix)
  average eigenvalue GAMMA=   0.6748
  0.6748

[...]

 eigenvalue-minimisations  :   870
 total energy-change (2. order) : 0.1663293E-06  (-0.1776654E-08)
 number of electron      18.0000000 magnetization
 augmentation part        3.0043485 magnetization

[...]

 Broyden mixing:
  rms(total) = 0.12672E-04    rms(broyden)= 0.12207E-04
  rms(prec ) = 0.21842E-04
  weight for this iteration     100.00

 eigenvalues of (default mixing * dielectric matrix)
  average eigenvalue GAMMA=   1.6378
  4.1962  4.1962  3.7265  2.4692  1.9061  1.9061  1.3166  1.3166  1.2054  1.2054
  0.9438  0.9438  1.0724  0.9333  0.8538  0.8538  0.7681  0.7805  0.5242

[...]

--------------------------------------- Iteration      1(  25)  ---------------------------------------

 eigenvalue-minimisations  :   586
 total energy-change (2. order) :-0.3893547E-08  (-0.7246815E-09)
 number of electron      18.0000000 magnetization
 augmentation part        3.0043507 magnetization

 Free energy of the ion-electron system (eV)
  alpha Z        PSCENC =        58.09266219
  Ewald energy   TEWEN  =     -1669.97463529
  -Hartree energ DENC   =      -705.64102937
  -exchange      EXHF   =         0.00000000
  -V(xc)+E(xc)   XCENC  =       -51.23733403
  PAW double counting   =      2302.00710314    -2368.36717443
  entropy T*S    EENTRO =         0.00017923
  eigenvalues    EBANDS =      -342.42414357
  atomic energy  EATOM  =      2640.52872706
  Solvation  Ediel_sol  =         0.00000000
  free energy    TOTEN  =      -137.01564508 eV

  energy without entropy =     -137.01582431  energy(sigma->0) =     -137.01570482

 average (electrostatic) potential at core
  the test charge radii are     1.2024
  (the norm of the test charge is              1.0000)
       1-115.9280

 E-fermi :   0.3611     XC(G=0):  -8.0433     alpha+bet : -6.6817

 k-point     1 :       0.0000    0.0000    0.0000
  band No.  band energies     occupation
      1     -29.3452      2.00000
      2     -29.3452      2.00000
      3     -29.3452      2.00000
      4     -29.3442      2.00000
      5     -29.3442      2.00000
      6     -22.2140      2.00000
      7       0.3484      1.41534
      8       0.3484      1.41534
      9       0.3484      1.41526
     10       2.9723      0.00000
     11       9.9578      0.00000
     12       9.9578      0.00000
     13       9.9578      0.00000

[...]

 k-point    35 :      -0.3333    0.4444    0.2222
  band No.  band energies     occupation
      1     -29.3450      2.00000
      2     -29.3439      2.00000
      3     -29.3431      2.00000
      4     -29.3422      2.00000
      5     -29.3396      2.00000
      6     -22.1262      2.00000
      7      -1.5052      2.00000
      8      -1.2019      2.00000
      9      -0.6149      2.00000
     10       7.3843      0.00000
     11       8.4263      0.00000
     12       8.8830      0.00000
     13      10.1874      0.00000

 soft charge-density along one line, spin component           1
         0         1         2         3         4         5         6         7         8         9
 total charge-density along one line

------------------------ aborting loop because EDIFF is reached ----------------------------------------

  FORCE on cell =-STRESS in cart. coord.  units (eV):
  Direction    XX          YY          ZZ          XY          YZ          ZX
  Alpha Z    58.09266    58.09266    58.09266
  Ewald    -556.65823  -556.65823  -556.65823     0.00000    -0.00000    -0.00000
  Hartree   235.21357   235.21357   235.21357     0.00000    -0.00000     0.00000
  E(xc)    -111.06438  -110.97143  -110.91266     0.04096     0.00309     0.10117
  Local    -192.98339  -192.98340  -192.98340     0.00001     0.00000     0.00001
  n-local   102.00526   105.33796   107.46596     1.22325    -0.31342     3.41216
  augment    77.28914    77.28913    77.28913     0.00001     0.00000     0.00001
  Kinetic   382.70802   385.36797   387.10716     1.19412     0.08581     2.88203
  Fock        0.00000     0.00000     0.00000     0.00000     0.00000     0.00000
  Total      -0.03164    -0.03164    -0.03164     0.00000    -0.00000     0.00000
  in kB      -0.77188    -0.77188    -0.77188     0.00000    -0.00000     0.00000

 VOLUME and BASIS-vectors are now :
  energy-cutoff  :      600.00
  volume of cell :       65.68
      direct lattice vectors                 reciprocal lattice vectors
     4.528688927  0.000000000  0.000000000     0.220814460 -0.127487288 -0.090147126
     2.264344464  3.921959657 -0.000000000     0.000000000  0.254974576 -0.090147126
     2.264344464  1.307319886  3.697659025    -0.000000000  0.000000000  0.270441377

  length of vectors
     4.528688927  4.528688927  4.528688928     0.270441377  0.270441377  0.270441377

 FORCES acting on ions
    electron-ion (+dipol)            ewald-force                    non-local-force                 convergence-correction
   -.415E-13 0.693E-14 -.651E-13   0.146E-14 -.674E-15 -.723E-15   0.794E-22 0.000E+00 0.000E+00   -.155E-12 0.103E-12 -.210E-13
   -.401E-13 0.708E-14 -.679E-13   0.146E-14 -.674E-15 -.723E-15   0.794E-22 0.000E+00 0.000E+00   -.155E-12 0.103E-12 -.210E-13

 POSITION                                       TOTAL-FORCE (eV/Angst)
      0.00000      0.00000      0.00000         0.000000     -0.000000      0.000000
    total drift:                               -0.000000      0.000000     -0.000000

  FREE ENERGIE OF THE ION-ELECTRON SYSTEM (eV)
  free  energy   TOTEN  =      -137.01564508 eV

  energy  without entropy=     -137.01582431  energy(sigma->0) =     -137.01570482