 vasp.5.4.4.18Apr17-6-g9f103f2a35 (build Nov 03 2018 10:20:43) complex

 executed on             LinuxIFC date 2018.11.14  12:37:25

 INCAR:
 POTCAR:    PAW_PBE Xe_GW 08Jan2009

 POTCAR:    PAW_PBE Xe_GW 08Jan2009
   VRHFIN =Xe: s2p6

   TITEL  = PAW_PBE Xe_GW 08Jan2009
   POMASS =  131.294; ZVAL   =    8.000    mass and valenz
   ENMAX  =  179.547; ENMIN  =  134.660 eV

  PAW_PBE Xe_GW 08Jan2009               :

 POSCAR: Kr_FCC
  positions in direct lattice
  velocities in cartesian coordinates
 exchange correlation table for  LEXCH =        8
   RHO(1)=    0.500       N(1)  =     2000
   RHO(2)=  100.500       N(2)  =     4000

 ion  position               nearest neighbor table
   1  0.000  0.000  0.000-

  LATTYP: Found a face centered cubic cell.
 ALAT       =     6.2680775296

  Lattice vectors:

 A1 = (   4.4322001261,   0.0000000000,   0.0000000000)
 A2 = (   2.2161000630,   3.8383979038,  -0.0000000000)
 A3 = (   2.2161000630,   1.2794659679,   3.6188762490)

Analysis of symmetry for initial positions (statically):
 Subroutine PRICEL returns:
 Original cell was already a primitive cell.

 Routine SETGRP: Setting up the symmetry group for a
 face centered cubic supercell.

 Subroutine GETGRP returns: Found 48 space group operations
 (whereof 48 operations were pure point group operations)
 out of a pool of 48 trial point group operations.

The static configuration has the point symmetry O_h .

Analysis of symmetry for dynamics (positions and initial velocities):
 Subroutine PRICEL returns:
 Original cell was already a primitive cell.

 Routine SETGRP: Setting up the symmetry group for a
 face centered cubic supercell.

 Subroutine GETGRP returns: Found 48 space group operations
 (whereof 48 operations were pure point group operations)
 out of a pool of 48 trial point group operations.

The dynamic configuration has the point symmetry O_h .

 Subroutine INISYM returns: Found 48 space group operations
 (whereof 48 operations are pure point group operations),
 and found     1 'primitive' translations

Automatic generation of k-mesh.
 generate k-points for:    9    9    9
Space group operators:
 irot       det(A)        alpha          n_x          n_y          n_z        tau_x        tau_y        tau_z
    1     1.000000     0.000001     1.000000     0.000000     0.000000     0.000000     0.000000     0.000000
    2    -1.000000     0.000001     1.000000     0.000000     0.000000     0.000000     0.000000     0.000000
    3     1.000000   120.000000    -0.816497    -0.471405    -0.333333     0.000000     0.000000     0.000000
    4    -1.000000   120.000000    -0.816497    -0.471405    -0.333333     0.000000     0.000000     0.000000
    5     1.000000   120.000000     0.816497     0.471405     0.333333     0.000000     0.000000     0.000000
    6    -1.000000   120.000000     0.816497     0.471405     0.333333     0.000000     0.000000     0.000000
    7     1.000000    90.000000    -0.707107    -0.408248     0.577350     0.000000     0.000000     0.000000
    8    -1.000000    90.000000    -0.707107    -0.408248     0.577350     0.000000     0.000000     0.000000
    9     1.000000   180.000000     1.000000     0.000000     0.000000     0.000000     0.000000     0.000000
   10    -1.000000   180.000000     1.000000     0.000000     0.000000     0.000000     0.000000     0.000000
   11     1.000000    90.000000     0.707107    -0.408248     0.577350     0.000000     0.000000     0.000000
   12    -1.000000    90.000000     0.707107    -0.408248     0.577350     0.000000     0.000000     0.000000
   13     1.000000   180.000000     0.707107     0.408248    -0.577350     0.000000     0.000000     0.000000
   14    -1.000000   180.000000     0.707107     0.408248    -0.577350     0.000000     0.000000     0.000000
   15     1.000000   120.000000     0.816497    -0.471405    -0.333333     0.000000     0.000000     0.000000
   16    -1.000000   120.000000     0.816497    -0.471405    -0.333333     0.000000     0.000000     0.000000
   17     1.000000   120.000000     0.000000    -0.942809     0.333333     0.000000     0.000000     0.000000
   18    -1.000000   120.000000     0.000000    -0.942809     0.333333     0.000000     0.000000     0.000000
   19     1.000000    90.000000     0.707107     0.408248    -0.577350     0.000000     0.000000     0.000000
   20    -1.000000    90.000000     0.707107     0.408248    -0.577350     0.000000     0.000000     0.000000
   21     1.000000    90.000000    -0.000000    -0.816497    -0.577350     0.000000     0.000000     0.000000
   22    -1.000000    90.000000    -0.000000    -0.816497    -0.577350     0.000000     0.000000     0.000000
   23     1.000000   180.000000     0.500000     0.866025     0.000000     0.000000     0.000000     0.000000
   24    -1.000000   180.000000     0.500000     0.866025     0.000000     0.000000     0.000000     0.000000
   25     1.000000   120.000000     0.000000     0.942809    -0.333333     0.000000     0.000000     0.000000
   26    -1.000000   120.000000     0.000000     0.942809    -0.333333     0.000000     0.000000     0.000000
   27     1.000000   120.000000    -0.000000     0.000000    -1.000000     0.000000     0.000000     0.000000
   28    -1.000000   120.000000    -0.000000     0.000000    -1.000000     0.000000     0.000000     0.000000
   29     1.000000   179.999999    -0.000000     0.816497     0.577350     0.000000     0.000000     0.000000
   30    -1.000000   179.999999    -0.000000     0.816497     0.577350     0.000000     0.000000     0.000000
   31     1.000000    90.000000    -0.707107     0.408248    -0.577350     0.000000     0.000000     0.000000
   32    -1.000000    90.000000    -0.707107     0.408248    -0.577350     0.000000     0.000000     0.000000
   33     1.000000   180.000000     0.500000     0.288675     0.816497     0.000000     0.000000     0.000000
   34    -1.000000   180.000000     0.500000     0.288675     0.816497     0.000000     0.000000     0.000000
   35     1.000000    90.000000    -0.000000     0.816497     0.577350     0.000000     0.000000     0.000000
   36    -1.000000    90.000000    -0.000000     0.816497     0.577350     0.000000     0.000000     0.000000
   37     1.000000   120.000000    -0.816497     0.471405     0.333333     0.000000     0.000000     0.000000
   38    -1.000000   120.000000    -0.816497     0.471405     0.333333     0.000000     0.000000     0.000000
   39     1.000000   179.999999    -0.707107     0.408248    -0.577350     0.000000     0.000000     0.000000
   40    -1.000000   179.999999    -0.707107     0.408248    -0.577350     0.000000     0.000000     0.000000
   41     1.000000   120.000000    -0.000000    -0.000000     1.000000     0.000000     0.000000     0.000000
   42    -1.000000   120.000000    -0.000000    -0.000000     1.000000     0.000000     0.000000     0.000000
   43     1.000000   179.999999     0.000000     0.577350    -0.816497     0.000000     0.000000     0.000000
   44    -1.000000   179.999999     0.000000     0.577350    -0.816497     0.000000     0.000000     0.000000
   45     1.000000   180.000000    -0.500000     0.866025     0.000000     0.000000     0.000000     0.000000
   46    -1.000000   180.000000    -0.500000     0.866025     0.000000     0.000000     0.000000     0.000000
   47     1.000000   179.999999    -0.500000     0.288675     0.816497     0.000000     0.000000     0.000000
   48    -1.000000   179.999999    -0.500000     0.288675     0.816497     0.000000     0.000000     0.000000

 Subroutine IBZKPT returns following result:

 Found     35 irreducible k-points:

 Following reciprocal coordinates:
            Coordinates               Weight
  0.000000  0.000000  0.000000      1.000000
  0.111111  0.000000  0.000000      8.000000
  0.222222 -0.000000  0.000000      8.000000
  0.333333  0.000000  0.000000      8.000000
  0.444444 -0.000000  0.000000      8.000000
  0.111111  0.111111  0.000000      6.000000
  0.222222  0.111111  0.000000     24.000000
  0.333333  0.111111  0.000000     24.000000
  0.444444  0.111111  0.000000     24.000000
 -0.444444  0.111111 -0.000000     24.000000
 -0.333333  0.111111 -0.000000     24.000000
 -0.222222  0.111111 -0.000000     24.000000
 -0.111111  0.111111 -0.000000     12.000000
  0.222222  0.222222  0.000000      6.000000
  0.333333  0.222222  0.000000     24.000000
  0.444444  0.222222  0.000000     24.000000
 -0.444444  0.222222 -0.000000     24.000000
 -0.333333  0.222222 -0.000000     24.000000
 -0.222222  0.222222 -0.000000     12.000000
  0.333333  0.333333  0.000000      6.000000
  0.444444  0.333333  0.000000     24.000000
 -0.444444  0.333333 -0.000000     24.000000
 -0.333333  0.333333 -0.000000     12.000000
  0.444444  0.444444  0.000000      6.000000
 -0.444444  0.444444 -0.000000     12.000000
  0.333333  0.222222  0.111111     24.000000
  0.444444  0.222222  0.111111     48.000000
 -0.444444  0.222222  0.111111     48.000000
  0.444444  0.333333  0.111111     24.000000
 -0.444444  0.333333  0.111111     48.000000
 -0.333333  0.333333  0.111111     48.000000
 -0.222222  0.333333  0.111111     24.000000
 -0.444444  0.444444  0.111111     24.000000
 -0.333333  0.444444  0.111111     24.000000
 -0.333333  0.444444  0.222222     24.000000

 Following cartesian coordinates:
            Coordinates               Weight
  0.000000  0.000000  0.000000      1.000000
  0.025069 -0.014474 -0.010234      8.000000
  0.050138 -0.028947 -0.020469      8.000000
  0.075207 -0.043421 -0.030703      8.000000
  0.100276 -0.057895 -0.040938      8.000000
  0.025069  0.014474 -0.020469      6.000000
  0.050138 -0.000000 -0.030703     24.000000
  0.075207 -0.014474 -0.040938     24.000000
  0.100276 -0.028947 -0.051172     24.000000
 -0.100276  0.086842  0.030703     24.000000
 -0.075207  0.072368  0.020469     24.000000
 -0.050138  0.057895  0.010234     24.000000
 -0.025069  0.043421  0.000000     12.000000
  0.050138  0.028947 -0.040938      6.000000
  0.075207  0.014474 -0.051172     24.000000
  0.100276  0.000000 -0.061406     24.000000
 -0.100276  0.115789  0.020469     24.000000
 -0.075207  0.101315  0.010234     24.000000
 -0.050138  0.086842  0.000000     12.000000
  0.075207  0.043421 -0.061406      6.000000
  0.100276  0.028947 -0.071641     24.000000
 -0.100276  0.144736  0.010234     24.000000
 -0.075207  0.130263  0.000000     12.000000
  0.100276  0.057895 -0.081875      6.000000
 -0.100276  0.173684  0.000000     12.000000
  0.075207  0.014474 -0.020469     24.000000
  0.100276  0.000000 -0.030703     48.000000
 -0.100276  0.115789  0.051172     48.000000
  0.100276  0.028947 -0.040938     24.000000
 -0.100276  0.144736  0.040938     48.000000
 -0.075207  0.130263  0.030703     48.000000
 -0.050138  0.115789  0.020469     24.000000
 -0.100276  0.173684  0.030703     24.000000
 -0.075207  0.159210  0.020469     24.000000
 -0.075207  0.159210  0.051172     24.000000

 SYSTEM =  Cn_FCC
 POSCAR =  Kr_FCC

 Startparameter for this run:
   NWRITE =      2    write-flag & timer
   PREC   = accura    normal or accurate (medium, high low for compatibility)
   ISTART =      0    job   : 0-new  1-cont  2-samecut
[...]
   LELF         =      F    write electronic localiz. function (ELF)
   LORBIT       =      0    0 simple, 1 ext, 2 COOP (PROOUT), +10 PAW based schemes

 Dipole corrections
   LMONO  =      F    monopole corrections only (constant potential shift)
   LDIPOL =      F    correct potential (dipole corrections)
   IDIPOL =      0    1-x, 2-y, 3-z, 4-all directions
   EPSILON=  1.0000000 bulk dielectric constant

 Exchange correlation treatment:
   GGA     =    PE    GGA type
   VOSKOWN=      0    Vosko Wilk Nusair interpolation
   LHFCALC =     F    Hartree Fock is set to
   LHFONE  =     F    Hartree Fock one center treatment
   AEXX    =    0.0000 exact exchange contribution

 Linear response parameters
   LEPSILON=     F    determine dielectric tensor
   LRPA    =     F    only Hartree local field effects (RPA)
   LNABLA  =     F    use nabla operator in PAW spheres
   LVEL    =     F    velocity operator in full k-point grid
   LINTERFAST=   F  fast interpolation
   KINTER  =     0    interpolate to denser k-point grid
   CSHIFT  =0.1000    complex shift for real part using Kramers Kronig
   OMEGAMAX=  -1.0    maximum frequency
   DEG_THRESHOLD= 0.2000000E-02 threshold for treating states as degnerate
   RTIME   =   -0.100 relaxation time in fs
  (WPLASMAI=    0.000 imaginary part of plasma frequency in eV, 0.658/RTIME)
   DFIELD  = 0.0000000 0.0000000 0.0000000 field for delta impulse in time

 Orbital magnetization related:
   ORBITALMAG=     F  switch on orbital magnetization
   LCHIMAG   =     F  perturbation theory with respect to B field
   DQ        =  0.001000  dq finite difference perturbation B field
   LLRAUG    =     F  two centre corrections for induced B field

 quasi-Newton-method for relaxation of ions
 charge density and potential will be updated during run
 non-spin polarized calculation
 RMM-DIIS sequential band-by-band and
  variant of blocked Davidson during initial phase
 perform sub-space diagonalisation
    before iterative eigenvector-optimisation
 modified Broyden-mixing scheme, WC =      100.0
 initial mixing is a Kerker type mixing with AMIX =  0.4000 and BMIX =      1.0000
 Hartree-type preconditioning will be used
 using additional bands            4
 reciprocal scheme for non local part
 use partial core corrections
 calculate Harris-corrections to forces
   (improved forces if not selfconsistent)
 use gradient corrections
 use of overlap-Matrix (Vanderbilt PP)
 Methfessel and Paxton  Order N= 1 SIGMA  =   0.10

  energy-cutoff  :      600.00
  volume of cell :       61.57
      direct lattice vectors                 reciprocal lattice vectors
     4.432200126  0.000000000  0.000000000     0.225621581 -0.130262681 -0.092109625
     2.216100063  3.838397904 -0.000000000     0.000000000  0.260525361 -0.092109625
     2.216100063  1.279465968  3.618876249    -0.000000000  0.000000000  0.276328874

  length of vectors
     4.432200126  4.432200126  4.432200126     0.276328874  0.276328874  0.276328874

 k-points in units of 2pi/SCALE and weight: read from INCAR
   0.00000000  0.00000000  0.00000000       0.001
   0.02506906 -0.01447363 -0.01023440       0.011
   0.05013813 -0.02894726 -0.02046881       0.011
   0.07520719 -0.04342089 -0.03070321       0.011
   0.10027626 -0.05789452 -0.04093761       0.011
   0.02506906  0.01447363 -0.02046881       0.008
   0.05013813 -0.00000000 -0.03070321       0.033
   0.07520719 -0.01447363 -0.04093761       0.033
   0.10027626 -0.02894726 -0.05117201       0.033
  -0.10027626  0.08684179  0.03070321       0.033
  -0.07520719  0.07236816  0.02046881       0.033
  -0.05013813  0.05789452  0.01023440       0.033
  -0.02506906  0.04342089  0.00000000       0.016
   0.05013813  0.02894726 -0.04093761       0.008
   0.07520719  0.01447363 -0.05117201       0.033
   0.10027626  0.00000000 -0.06140642       0.033
  -0.10027626  0.11578905  0.02046881       0.033
  -0.07520719  0.10131542  0.01023440       0.033
  -0.05013813  0.08684179  0.00000000       0.016
   0.07520719  0.04342089 -0.06140642       0.008
   0.10027626  0.02894726 -0.07164082       0.033
  -0.10027626  0.14473631  0.01023440       0.033
  -0.07520719  0.13026268  0.00000000       0.016
   0.10027626  0.05789452 -0.08187522       0.008
  -0.10027626  0.17368357  0.00000000       0.016
   0.07520719  0.01447363 -0.02046881       0.033
   0.10027626  0.00000000 -0.03070321       0.066
  -0.10027626  0.11578905  0.05117201       0.066
   0.10027626  0.02894726 -0.04093761       0.033
  -0.10027626  0.14473631  0.04093761       0.066
  -0.07520719  0.13026268  0.03070321       0.066
  -0.05013813  0.11578905  0.02046881       0.033
  -0.10027626  0.17368357  0.03070321       0.033
  -0.07520719  0.15920994  0.02046881       0.033
  -0.07520719  0.15920994  0.05117201       0.033

 k-points in reciprocal lattice and weights: read from INCAR
   0.00000000  0.00000000  0.00000000       0.001
   0.11111111  0.00000000  0.00000000       0.011
   0.22222222 -0.00000000  0.00000000       0.011
   0.33333333  0.00000000  0.00000000       0.011
   0.44444444 -0.00000000  0.00000000       0.011
   0.11111111  0.11111111  0.00000000       0.008
   0.22222222  0.11111111  0.00000000       0.033
   0.33333333  0.11111111  0.00000000       0.033
   0.44444444  0.11111111  0.00000000       0.033
  -0.44444444  0.11111111 -0.00000000       0.033
  -0.33333333  0.11111111 -0.00000000       0.033
  -0.22222222  0.11111111 -0.00000000       0.033
  -0.11111111  0.11111111 -0.00000000       0.016
   0.22222222  0.22222222  0.00000000       0.008
   0.33333333  0.22222222  0.00000000       0.033
   0.44444444  0.22222222  0.00000000       0.033
  -0.44444444  0.22222222 -0.00000000       0.033
  -0.33333333  0.22222222 -0.00000000       0.033
  -0.22222222  0.22222222 -0.00000000       0.016
   0.33333333  0.33333333  0.00000000       0.008
   0.44444444  0.33333333  0.00000000       0.033
  -0.44444444  0.33333333 -0.00000000       0.033
  -0.33333333  0.33333333 -0.00000000       0.016
   0.44444444  0.44444444  0.00000000       0.008
  -0.44444444  0.44444444 -0.00000000       0.016
   0.33333333  0.22222222  0.11111111       0.033
   0.44444444  0.22222222  0.11111111       0.066
  -0.44444444  0.22222222  0.11111111       0.066
   0.44444444  0.33333333  0.11111111       0.033
  -0.44444444  0.33333333  0.11111111       0.066
  -0.33333333  0.33333333  0.11111111       0.066
  -0.22222222  0.33333333  0.11111111       0.033
  -0.44444444  0.44444444  0.11111111       0.033
  -0.33333333  0.44444444  0.11111111       0.033
  -0.33333333  0.44444444  0.22222222       0.033

 position of ions in fractional coordinates (direct lattice)
   0.00000000  0.00000000  0.00000000

 position of ions in cartesian coordinates  (Angst):
   0.00000000  0.00000000  0.00000000

 k-point  1 :   0.0000 0.0000 0.0000  plane waves:    2085
 k-point  2 :   0.1111 0.0000 0.0000  plane waves:    2061
 k-point  3 :   0.2222-0.0000 0.0000  plane waves:    2061
 k-point  4 :   0.3333 0.0000 0.0000  plane waves:    2030
 k-point  5 :   0.4444-0.0000 0.0000  plane waves:    2060
 k-point  6 :   0.1111 0.1111 0.0000  plane waves:    2045
 k-point  7 :   0.2222 0.1111 0.0000  plane waves:    2058
 k-point  8 :   0.3333 0.1111 0.0000  plane waves:    2047
 k-point  9 :   0.4444 0.1111 0.0000  plane waves:    2051
 k-point 10 :  -0.4444 0.1111-0.0000  plane waves:    2044
 k-point 11 :  -0.3333 0.1111-0.0000  plane waves:    2047
 k-point 12 :  -0.2222 0.1111-0.0000  plane waves:    2059
 k-point 13 :  -0.1111 0.1111-0.0000  plane waves:    2049
 k-point 14 :   0.2222 0.2222 0.0000  plane waves:    2033
 k-point 15 :   0.3333 0.2222 0.0000  plane waves:    2039
 k-point 16 :   0.4444 0.2222 0.0000  plane waves:    2055
 k-point 17 :  -0.4444 0.2222-0.0000  plane waves:    2054
 k-point 18 :  -0.3333 0.2222-0.0000  plane waves:    2052
 k-point 19 :  -0.2222 0.2222-0.0000  plane waves:    2045
 k-point 20 :   0.3333 0.3333 0.0000  plane waves:    2048
 k-point 21 :   0.4444 0.3333 0.0000  plane waves:    2054
 k-point 22 :  -0.4444 0.3333-0.0000  plane waves:    2055
 k-point 23 :  -0.3333 0.3333-0.0000  plane waves:    2063
 k-point 24 :   0.4444 0.4444 0.0000  plane waves:    2072
 k-point 25 :  -0.4444 0.4444-0.0000  plane waves:    2068
 k-point 26 :   0.3333 0.2222 0.1111  plane waves:    2054
 k-point 27 :   0.4444 0.2222 0.1111  plane waves:    2053
 k-point 28 :  -0.4444 0.2222 0.1111  plane waves:    2054
 k-point 29 :   0.4444 0.3333 0.1111  plane waves:    2060
 k-point 30 :  -0.4444 0.3333 0.1111  plane waves:    2053
 k-point 31 :  -0.3333 0.3333 0.1111  plane waves:    2064
 k-point 32 :  -0.2222 0.3333 0.1111  plane waves:    2049
 k-point 33 :  -0.4444 0.4444 0.1111  plane waves:    2057
 k-point 34 :  -0.3333 0.4444 0.1111  plane waves:    2081
 k-point 35 :  -0.3333 0.4444 0.2222  plane waves:    2059

 maximum and minimum number of plane-waves per node :       532      498

 maximum number of plane-waves:      2085
 maximum index in each direction:
   IXMAX=    9   IYMAX=    8   IZMAX=    8
   IXMIN=   -9   IYMIN=   -9   IZMIN=   -9

 parallel 3D FFT for wavefunctions:
    minimum data exchange during FFTs selected (reduces bandwidth)
 parallel 3D FFT for charge:
    minimum data exchange during FFTs selected (reduces bandwidth)

 Broyden mixing: mesh for mixing (old mesh)
   NGX = 17   NGY = 17   NGZ = 17
  (NGX  = 72   NGY  = 72   NGZ  = 72)
  gives a total of   4913 points

 initial charge density was supplied:
 charge density of overlapping atoms calculated
 number of electron       8.0000000 magnetization
 keeping initial charge density in first step

 Maximum index for augmentation-charges        72625 (set IRDMAX)

 First call to EWALD:  gamma=   0.449
 Maximum number of real-space cells 3x 3x 3
 Maximum number of reciprocal cells 3x 3x 3

--------------------------------------- Iteration      1(   1)  ---------------------------------------

 eigenvalue-minimisations  :   560
 total energy-change (2. order) : 0.3824136E+02  (-0.3416766E+03)
 number of electron       8.0000000 magnetization
 augmentation part        8.0000000 magnetization

 Free energy of the ion-electron system (eV)
  alpha Z        PSCENC =        21.17661221
  Ewald energy   TEWEN  =      -337.05282163
  -Hartree energ DENC   =       -68.63715467
  -exchange      EXHF   =         0.00000000
  -V(xc)+E(xc)   XCENC  =       -72.82322285
  PAW double counting   =       428.77605987     -340.65282128
  entropy T*S    EENTRO =         0.00150213
  eigenvalues    EBANDS =       -22.06111111
  atomic energy  EATOM  =       429.51431920
  Solvation  Ediel_sol  =         0.00000000
  free energy    TOTEN  =        38.24136186 eV

  energy without entropy =       38.23985973  energy(sigma->0) =       38.24086115

[...]

 eigenvalue-minimisations  :   744
 total energy-change (2. order) :-0.3609268E+02  (-0.3488260E+02)
 number of electron       8.0000000 magnetization
 augmentation part        8.0000000 magnetization

[...]

 Broyden mixing:
  rms(total) = 0.26949E-02    rms(broyden)= 0.25625E-02
  rms(prec ) = 0.68311E-02
  weight for this iteration     100.00

[...]

 eigenvalues of (default mixing * dielectric matrix)
  average eigenvalue GAMMA=   1.8993
  1.8993

[...]

 Broyden mixing:
  rms(total) = 0.33917E-04    rms(broyden)= 0.33831E-04
  rms(prec ) = 0.67972E-04
  weight for this iteration     100.00

 eigenvalues of (default mixing * dielectric matrix)
  average eigenvalue GAMMA=   2.2075
  0.9889  3.4045  2.5755  1.8609

[...]

--------------------------------------- Iteration      1(  10)  ---------------------------------------

 eigenvalue-minimisations  :   405
 total energy-change (2. order) :-0.3394814E-07  (-0.1980649E-08)
 number of electron       8.0000000 magnetization
 augmentation part       -1.3412850 magnetization

 Free energy of the ion-electron system (eV)
  alpha Z        PSCENC =        21.17661221
  Ewald energy   TEWEN  =      -337.05282163
  -Hartree energ DENC   =       -68.70351000
  -exchange      EXHF   =         0.00000000
  -V(xc)+E(xc)   XCENC  =       -72.82228554
  PAW double counting   =       428.61030643     -340.49249516
  entropy T*S    EENTRO =         0.00223069
  eigenvalues    EBANDS =       -60.23755083
  atomic energy  EATOM  =       429.51431920
  Solvation  Ediel_sol  =         0.00000000
  free energy    TOTEN  =        -0.00519462 eV

  energy without entropy =       -0.00742532  energy(sigma->0) =       -0.00593819

 average (electrostatic) potential at core
  the test charge radii are     1.1266
  (the norm of the test charge is              1.0000)
       1 -57.5466

 E-fermi :  -3.9996     XC(G=0):  -6.6417     alpha+bet : -3.5563

 k-point     1 :       0.0000    0.0000    0.0000
  band No.  band energies     occupation
      1     -16.3352      2.00000
      2      -4.0234      1.39010
      3      -4.0234      1.39010
      4      -4.0234      1.39010
      5       2.1930      0.00000
      6       6.6828      0.00000
      7       6.6828      0.00000
      8       6.6828      0.00000

[...]

 k-point    35 :      -0.3333    0.4444    0.2222
  band No.  band energies     occupation
      1     -16.0900      2.00000
      2      -5.0908      2.00000
      3      -4.9053      2.00000
      4      -4.5491      2.00000
      5       4.5219      0.00000
      6       5.5897      0.00000
      7       5.9558      0.00000
      8       7.3598      0.00000

 soft charge-density along one line, spin component           1
         0         1         2         3         4         5         6         7         8         9
 total charge-density along one line

------------------------ aborting loop because EDIFF is reached ----------------------------------------

         DFTD3 V3.0 Rev 1
 IVDW         = 12
 DF pbe
 parameters
 VDW_S6       =    1.0000
 VDW_S8       =    0.7875
 VDW_A1       =    0.4289
 VDW_A2       =    4.4407
 k1-k3        =   16.0000    1.3333   -4.0000
 VDW_RADIUS   =   50.2022 A
 VDW_CNRADIUS =   21.1671 A
 Edisp (eV)   -0.16980

 E6    (eV) :    -0.0965
 E8    (eV) :    -0.0733
 % E8        : 43.19

  FORCE on cell =-STRESS in cart. coord.  units (eV):
  Direction    XX          YY          ZZ          XY          YZ          ZX
  Alpha Z    21.17661    21.17661    21.17661
  Ewald    -112.35094  -112.35094  -112.35094    -0.00000    -0.00000     0.00000
  Hartree    22.90121    22.90121    22.90121     0.00000    -0.00000     0.00000
  E(xc)     -38.73713   -38.73713   -38.73713    -0.00000    -0.00000    -0.00000
  Local     -17.03540   -17.03540   -17.03540     0.00000     0.00000     0.00000
  n-local    43.82351    44.27675    44.50995     0.16032    -0.05938     0.43794
  augment   -12.14490   -12.14490   -12.14490    -0.00000    -0.00000    -0.00000
  Kinetic    90.09943    92.61071    93.95749     1.01285    -0.14942     2.45990
  Fock        0.00000     0.00000     0.00000     0.00000     0.00000     0.00000
  vdW        -0.23101    -0.23101    -0.23101    -0.00000    -0.00000    -0.00000
  Total       0.00437     0.00437     0.00437     0.00000     0.00000     0.00000
  in kB       0.11381     0.11381     0.11381     0.00000     0.00000     0.00000

 VOLUME and BASIS-vectors are now :
  energy-cutoff  :      600.00
  volume of cell :       61.57
      direct lattice vectors                 reciprocal lattice vectors
     4.432200126  0.000000000  0.000000000     0.225621581 -0.130262681 -0.092109625
     2.216100063  3.838397904 -0.000000000     0.000000000  0.260525361 -0.092109625
     2.216100063  1.279465968  3.618876249    -0.000000000  0.000000000  0.276328874

  length of vectors
     4.432200126  4.432200126  4.432200126     0.276328874  0.276328874  0.276328874

 FORCES acting on ions
    electron-ion (+dipol)            ewald-force                    non-local-force                 convergence-correction
   0.645E-15 -.301E-14 -.334E-15   0.119E-15 -.320E-16 -.288E-15   0.129E-24 -.200E-24 0.000E+00   -.737E-14 0.125E-14 -.231E-14
   0.645E-15 -.301E-14 -.334E-15   0.119E-15 -.320E-16 -.288E-15   0.129E-24 -.200E-24 0.000E+00   -.737E-14 0.125E-14 -.231E-14

 POSITION                                       TOTAL-FORCE (eV/Angst)
      0.00000      0.00000      0.00000        -0.000000     -0.000000      0.000000
    total drift:                               -0.000000     -0.000000     -0.000000

  FREE ENERGIE OF THE ION-ELECTRON SYSTEM (eV)
  free  energy   TOTEN  =        -0.17499514 eV

  energy  without entropy=       -0.17722583  energy(sigma->0) =       -0.17573871

 Quasi-Newton relaxation of ions (Broydens 2nd method)
  g(Force)  = 0.000E+00   g(Stress)= 0.554E-06

 Reset! Starting new Quasi-Newton update for ions

 reached required accuracy - stopping structural energy minimisation