 vasp.5.4.4.18Apr17-6-g9f103f2a35 (build Jul 09 2018 16:43:14) complex

 executed on             LinuxIFC date 2018.11.21  22:58:54

 INCAR:
 POTCAR:    Cn-PAW, fit to 4c-PBE, JanMewes Oct18

 POTCAR:    Cn-PAW, fit to 4c-PBE, JanMewes Oct18
   VRHFIN =Cn : 10d 2s

   TITEL  = Cn-PAW, fit to 4c-PBE, JanMewes Oct18
   POMASS =    0.010; ZVAL   =   12.000    mass and valenz
   ENMAX  =  273.073; ENMIN  =  204.805 eV
   QCUT   =   -4.480; QGAM   =    8.960    optimization parameters

  Cn-PAW, fit to 4c-PBE, JanMewes Oct18 :

 POSCAR: Cn HCP
  positions in direct lattice
  velocities in cartesian coordinates
 exchange correlation table for  LEXCH =       14
   RHO(1)=    0.500       N(1)  =     2000
   RHO(2)=  100.500       N(2)  =     4000

 ion  position               nearest neighbor table
   1  0.167  0.333  0.250-   2 3.55   2 3.55   2 3.55   2 3.55   2 3.55   2 3.55
   2  0.833  0.667  0.750-   1 3.55   1 3.55   1 3.55   1 3.55   1 3.55   1 3.55

  LATTYP: Found a hexagonal cell.
 ALAT       =     3.2141488252
 C/A-ratio  =     1.8858304016

  Lattice vectors:

 A1 = (   3.2141488252,   0.0000000000,   0.0000000000)
 A2 = (  -1.6070744127,   2.7835345342,   0.0000000000)
 A3 = (   0.0000000000,   0.0000000000,   6.0613395700)

Analysis of symmetry for initial positions (statically):
 Subroutine PRICEL returns:
 Original cell was already a primitive cell.

 Routine SETGRP: Setting up the symmetry group for a
 hexagonal supercell.

 Subroutine GETGRP returns: Found  8 space group operations
 (whereof  2 operations were pure point group operations)
 out of a pool of 24 trial point group operations.

The static configuration has the point symmetry S_2 .
 The point group associated with its full space group is D_2h.

Analysis of symmetry for dynamics (positions and initial velocities):
 Subroutine PRICEL returns:
 Original cell was already a primitive cell.

[...]

The dynamic configuration has the point symmetry S_2 .
 The point group associated with its full space group is D_2h.

Analysis of structural, dynamic, and magnetic symmetry:
 Subroutine PRICEL returns:
 Original cell was already a primitive cell.

 Routine SETGRP: Setting up the symmetry group for a
 hexagonal supercell.

 Subroutine GETGRP returns: Found  2 space group operations
 (whereof  2 operations were pure point group operations)
 out of a pool of 24 trial point group operations.

The (compounded) configuration has the point symmetry S_2 .

 Subroutine INISYM returns: Found  2 space group operations
 (whereof  2 operations are pure point group operations),
 and found     1 'primitive' translations

Automatic generation of k-mesh.
 generate k-points for:    8    8    4
Space group operators:
 irot       det(A)        alpha          n_x          n_y          n_z        tau_x        tau_y        tau_z
    1     1.000000     0.000001     1.000000     0.000000     0.000000     0.000000     0.000000     0.000000
    2    -1.000000     0.000001     1.000000     0.000000     0.000000     0.000000     0.000000     0.000000

 Subroutine IBZKPT returns following result:

 Found    132 irreducible k-points:

 Following reciprocal coordinates:
            Coordinates               Weight
  0.000000  0.000000  0.000000      1.000000
  0.125000  0.000000  0.000000      2.000000
  0.250000  0.000000  0.000000      2.000000
  0.375000 -0.000000  0.000000      2.000000
  0.500000  0.000000  0.000000      1.000000
  0.000000  0.125000  0.000000      2.000000
  0.125000  0.125000  0.000000      2.000000
  0.250000  0.125000  0.000000      2.000000
  0.375000  0.125000  0.000000      2.000000
  0.500000  0.125000  0.000000      2.000000
 -0.375000  0.125000  0.000000      2.000000
 -0.250000  0.125000  0.000000      2.000000
 -0.125000  0.125000  0.000000      2.000000
  0.000000  0.250000  0.000000      2.000000
  0.125000  0.250000  0.000000      2.000000
  0.250000  0.250000  0.000000      2.000000
  0.375000  0.250000  0.000000      2.000000
  0.500000  0.250000  0.000000      2.000000
 -0.375000  0.250000  0.000000      2.000000
 -0.250000  0.250000  0.000000      2.000000
 -0.125000  0.250000  0.000000      2.000000
  0.000000  0.375000  0.000000      2.000000
  0.125000  0.375000  0.000000      2.000000
  0.250000  0.375000  0.000000      2.000000
  0.375000  0.375000  0.000000      2.000000
  0.500000  0.375000  0.000000      2.000000
 -0.375000  0.375000  0.000000      2.000000
 -0.250000  0.375000  0.000000      2.000000
 -0.125000  0.375000  0.000000      2.000000
  0.000000  0.500000  0.000000      1.000000
  0.125000  0.500000  0.000000      2.000000
  0.250000  0.500000  0.000000      2.000000
  0.375000  0.500000  0.000000      2.000000
  0.500000  0.500000  0.000000      1.000000
  0.000000  0.000000  0.250000      2.000000
  0.125000  0.000000  0.250000      2.000000
  0.250000  0.000000  0.250000      2.000000
  0.375000 -0.000000  0.250000      2.000000
  0.500000  0.000000  0.250000      2.000000
 -0.375000  0.000000  0.250000      2.000000
 -0.250000  0.000000  0.250000      2.000000
 -0.125000  0.000000  0.250000      2.000000
  0.000000  0.125000  0.250000      2.000000
  0.125000  0.125000  0.250000      2.000000
  0.250000  0.125000  0.250000      2.000000
  0.375000  0.125000  0.250000      2.000000
  0.500000  0.125000  0.250000      2.000000
 -0.375000  0.125000  0.250000      2.000000
 -0.250000  0.125000  0.250000      2.000000
 -0.125000  0.125000  0.250000      2.000000
  0.000000  0.250000  0.250000      2.000000
  0.125000  0.250000  0.250000      2.000000
  0.250000  0.250000  0.250000      2.000000
  0.375000  0.250000  0.250000      2.000000
  0.500000  0.250000  0.250000      2.000000
 -0.375000  0.250000  0.250000      2.000000
 -0.250000  0.250000  0.250000      2.000000
 -0.125000  0.250000  0.250000      2.000000
  0.000000  0.375000  0.250000      2.000000
  0.125000  0.375000  0.250000      2.000000
[...]
 -0.250000  0.250000  0.500000      2.000000
 -0.125000  0.250000  0.500000      2.000000
  0.000000  0.375000  0.500000      2.000000
  0.125000  0.375000  0.500000      2.000000
  0.250000  0.375000  0.500000      2.000000
  0.375000  0.375000  0.500000      2.000000
  0.500000  0.375000  0.500000      2.000000
 -0.375000  0.375000  0.500000      2.000000
 -0.250000  0.375000  0.500000      2.000000
 -0.125000  0.375000  0.500000      2.000000
  0.000000  0.500000  0.500000      1.000000
  0.125000  0.500000  0.500000      2.000000
  0.250000  0.500000  0.500000      2.000000
  0.375000  0.500000  0.500000      2.000000
  0.500000  0.500000  0.500000      1.000000

 Following cartesian coordinates:
            Coordinates               Weight
  0.000000  0.000000  0.000000      1.000000
  0.038891  0.022453  0.000000      2.000000
  0.077781  0.044907  0.000000      2.000000
  0.116672  0.067360  0.000000      2.000000
  0.155562  0.089814  0.000000      1.000000
  0.000000  0.044907  0.000000      2.000000
  0.038891  0.067360  0.000000      2.000000
  0.077781  0.089814  0.000000      2.000000
  0.116672  0.112267  0.000000      2.000000
  0.155562  0.134721  0.000000      2.000000
 -0.116672 -0.022453  0.000000      2.000000
 -0.077781 -0.000000  0.000000      2.000000
 -0.038891  0.022453  0.000000      2.000000
  0.000000  0.089814  0.000000      2.000000
  0.038891  0.112267  0.000000      2.000000
  0.077781  0.134721  0.000000      2.000000
  0.116672  0.157174  0.000000      2.000000
  0.155562  0.179628  0.000000      2.000000
 -0.116672  0.022453  0.000000      2.000000
 -0.077781  0.044907  0.000000      2.000000
 -0.038891  0.067360  0.000000      2.000000
  0.000000  0.134721  0.000000      2.000000
  0.038891  0.157174  0.000000      2.000000
  0.077781  0.179628  0.000000      2.000000
  0.116672  0.202081  0.000000      2.000000
  0.155562  0.224535  0.000000      2.000000
 -0.116672  0.067360  0.000000      2.000000
 -0.077781  0.089814  0.000000      2.000000
 -0.038891  0.112267  0.000000      2.000000
  0.000000  0.179628  0.000000      1.000000
  0.038891  0.202081  0.000000      2.000000
  0.077781  0.224535  0.000000      2.000000
  0.116672  0.246988  0.000000      2.000000
  0.155562  0.269442  0.000000      1.000000
  0.000000  0.000000  0.041245      2.000000
  0.038891  0.022453  0.041245      2.000000
  0.077781  0.044907  0.041245      2.000000
  0.116672  0.067360  0.041245      2.000000
  0.155562  0.089814  0.041245      2.000000
 -0.116672 -0.067360  0.041245      2.000000
 -0.077781 -0.044907  0.041245      2.000000
 -0.038891 -0.022453  0.041245      2.000000
  0.000000  0.044907  0.041245      2.000000
  0.038891  0.067360  0.041245      2.000000
  0.077781  0.089814  0.041245      2.000000
  0.116672  0.112267  0.041245      2.000000
  0.155562  0.134721  0.041245      2.000000
 -0.116672 -0.022453  0.041245      2.000000
 -0.077781 -0.000000  0.041245      2.000000
 -0.038891  0.022453  0.041245      2.000000
  0.000000  0.089814  0.041245      2.000000
  0.038891  0.112267  0.041245      2.000000
  0.077781  0.134721  0.041245      2.000000
  0.116672  0.157174  0.041245      2.000000
  0.155562  0.179628  0.041245      2.000000
 -0.116672  0.022453  0.041245      2.000000
 -0.077781  0.044907  0.041245      2.000000
 -0.038891  0.067360  0.041245      2.000000
  0.000000  0.134721  0.041245      2.000000
  0.038891  0.157174  0.041245      2.000000
[...]
 -0.077781  0.044907  0.082490      2.000000
 -0.038891  0.067360  0.082490      2.000000
  0.000000  0.134721  0.082490      2.000000
  0.038891  0.157174  0.082490      2.000000
  0.077781  0.179628  0.082490      2.000000
  0.116672  0.202081  0.082490      2.000000
  0.155562  0.224535  0.082490      2.000000
 -0.116672  0.067360  0.082490      2.000000
 -0.077781  0.089814  0.082490      2.000000
 -0.038891  0.112267  0.082490      2.000000
  0.000000  0.179628  0.082490      1.000000
  0.038891  0.202081  0.082490      2.000000
  0.077781  0.224535  0.082490      2.000000
  0.116672  0.246988  0.082490      2.000000
  0.155562  0.269442  0.082490      1.000000

 SYSTEM =  Cn_HCP
 POSCAR =  Cn HCP

 Startparameter for this run:
   NWRITE =      2    write-flag & timer
   PREC   = accura    normal or accurate (medium, high low for compatibility)
   ISTART =      0    job   : 0-new  1-cont  2-samecut
   ICHARG =      2    charge: 1-file 2-atom 10-const
   ISPIN  =      1    spin polarized calculation?
   LNONCOLLINEAR =      T non collinear calculations
   LSORBIT =      T    spin-orbit coupling
   INIWAV =      1    electr: 0-lowe 1-rand  2-diag
   LASPH  =      F    aspherical Exc in radial PAW
   METAGGA=      F    non-selfconsistent MetaGGA calc.

 Electronic Relaxation 1
   ENCUT  =  600.0 eV  44.10 Ry    6.64 a.u.   6.42  6.42 12.11*2*pi/ulx,y,z
   ENINI  =  600.0     initial cutoff
   ENAUG  =  361.0 eV  augmentation charge cutoff
   NELM   =    100;   NELMIN=  5; NELMDL= -5     # of ELM steps
   EDIFF  = 0.1E-06   stopping-criterion for ELM
   LREAL  =      F    real-space projection
   NLSPLINE    = F    spline interpolate recip. space projectors
   LCOMPAT=      F    compatible to vasp.4.4
   GGA_COMPAT  = F    GGA compatible to vasp.4.4-vasp.4.6
   LMAXPAW     = -100 max onsite density
[...]

 eigenvalue-minimisations  :  8976
 total energy-change (2. order) : 0.3180138E+03  (-0.1191763E+04)
 number of electron      24.0000000 magnetization       2.0000000      2.0000000      2.0000000
 augmentation part       24.0000000 magnetization       2.0000000      2.0000000      2.0000000

 Free energy of the ion-electron system (eV)
  alpha Z        PSCENC =       165.99778541
  Ewald energy   TEWEN  =     -1986.76960569
  -Hartree energ DENC   =      -283.27954492
  -exchange      EXHF   =         0.00000000
  -V(xc)+E(xc)   XCENC  =      -214.06503990
  PAW double counting   =      2116.55855324    -1844.98179328
  entropy T*S    EENTRO =        -0.00044429
  eigenvalues    EBANDS =       319.06002228
  atomic energy  EATOM  =      2045.49387584
  Solvation  Ediel_sol  =         0.00000000
  free energy    TOTEN  =       318.01380867 eV

  energy without entropy =      318.01425296  energy(sigma->0) =      318.01395677

[...]

 eigenvalue-minimisations  :  9714
 total energy-change (2. order) :-0.2730963E+03  (-0.2330096E+03)
 number of electron      24.0000000 magnetization       2.0000000      2.0000000      2.0000000
 augmentation part       24.0000000 magnetization       2.0000000      2.0000000      2.0000000

[...]

 Broyden mixing:
  rms(total) = 0.76679E+00    rms(broyden)= 0.76678E+00
  rms(prec ) = 0.82774E+00
  weight for this iteration     100.00

[...]

 eigenvalues of (default mixing * dielectric matrix)
  average eigenvalue GAMMA=   0.8643
  0.8643

[...]

 average (electrostatic) potential at core
  the test charge radii are     1.2024
  (the norm of the test charge is              1.0000)
       1 -64.0520       2 -64.0520

 E-fermi :   2.9437     XC(G=0): -11.3015     alpha+bet : -8.5812

 k-point     1 :       0.0000    0.0000    0.0000
  band No.  band energies     occupation
      1      -5.9085      1.00000
      2      -5.9083      1.00000
      3      -4.1882      1.00000
      4      -4.1881      1.00000
      5      -2.3018      1.00000
      6      -2.3017      1.00000
      7      -2.2808      1.00000
      8      -2.2807      1.00000
      9      -2.2662      1.00000
     10      -2.2662      1.00000
     11      -0.8631      1.00000
     12      -0.8630      1.00000
     13       0.5804      1.00000
     14       0.5804      1.00000
     15       0.6940      1.00000
     16       0.6940      1.00000
     17       0.8124      1.00000
     18       0.8125      1.00000
     19       1.4901      1.00000
     20       1.4901      1.00000
     21       1.9591      1.00000
     22       1.9591      1.00000
     23       2.2257      1.00000
     24       2.2258      1.00000
     25       2.5876      1.00000
     26       2.5879      1.00000
     27      12.0803      0.00000
     28      12.0804      0.00000
     29      15.3072      0.00000
     30      15.3073      0.00000
     31      16.8439      0.00000
     32      16.8835      0.00000
     33      17.5380      0.00000
     34      17.7812      0.00000

[...]

 soft charge-density along one line, spin component           1
         0         1         2         3         4         5         6         7         8         9
 total charge-density along one line

[...]

------------------------ aborting loop because EDIFF is reached ----------------------------------------

  FORCE on cell =-STRESS in cart. coord.  units (eV):
  Direction    XX          YY          ZZ          XY          YZ          ZX
  Alpha Z   165.99779   165.99779   165.99779
  Ewald    -611.68178  -611.68062  -763.40745     0.00101    -0.00000    -0.00000
  Hartree   115.23452   115.23510    42.38145     0.00050    -0.00000     0.00000
  E(xc)    -141.92623  -141.92623  -142.20819     0.00000    -0.00000    -0.00000
  Local       8.00505     8.00332   229.81684    -0.00149    -0.00000    -0.00000
  n-local   -96.10743   -96.10742   -97.30908     0.00001     0.00000     0.00000
  augment    41.48405    41.48404    41.78652    -0.00000     0.00000     0.00000
  Kinetic   519.33954   519.33952   522.27868    -0.00002     0.00001     0.00000
  Fock        0.00000     0.00000     0.00000     0.00000     0.00000     0.00000
  Total       0.34550     0.34550    -0.66345     0.00001     0.00001     0.00001
  in kB      10.20768    10.20775   -19.60130     0.00025     0.00026     0.00022

 VOLUME and BASIS-vectors are now :
  energy-cutoff  :      600.00
  volume of cell :       54.23
      direct lattice vectors                 reciprocal lattice vectors
     3.214148825  0.000000000  0.000000000     0.311124361  0.179627734  0.000000000
    -1.607074413  2.783534534  0.000000000     0.000000000  0.359255467  0.000000000
     0.000000000  0.000000000  6.061339570     0.000000000  0.000000000  0.164980033

[...]

 FORCES acting on ions
    electron-ion (+dipol)            ewald-force                    non-local-force                 convergence-correction
   0.261E-03 -.198E-03 -.159E-03   -.330E-03 0.190E-03 -.325E-13   0.246E-04 0.974E-05 0.214E-04   0.480E-05 0.467E-04 0.162E-03
   -.360E-03 0.255E-03 0.159E-03   0.330E-03 -.190E-03 0.325E-13   -.246E-04 -.974E-05 -.214E-04   -.474E-05 -.467E-04 -.162E-03
   -.986E-04 0.569E-04 0.723E-12   0.152E-13 0.193E-13 0.000E+00   0.339E-20 0.000E+00 0.000E+00   0.558E-07 -.322E-07 0.251E-12

 POSITION                                       TOTAL-FORCE (eV/Angst)
      0.00002      0.92784      1.51533         0.000010      0.000021      0.000024
      1.60706      1.85570      4.54600        -0.000010     -0.000021     -0.000024
    total drift:                               -0.000099      0.000057      0.000000

  FREE ENERGIE OF THE ION-ELECTRON SYSTEM (eV)
  free  energy   TOTEN  =        -2.90963141 eV

  energy  without entropy=       -2.90964557  energy(sigma->0) =       -2.90963613

 Quasi-Newton relaxation of ions (Broydens 2nd method)
  g(Force)  = 0.216E-10   g(Stress)= 0.327E-02

 Reset! Starting new Quasi-Newton update for ions

[...]

 d Force =-0.1776463E-10[-0.571E-10, 0.216E-10]  d Energy = 0.3193358E-02-0.319E-02
 d Force =-0.3953691E-10[-0.904E-10, 0.113E-10]  d Ewald  = 0.4825403E+00-0.483E+00

[...]

 retain information from N=  1 steps
 eigenvalues of (default step * inverse Hessian matrix)
  average eigenvalue of G=  18.6500
 eigenvalue spectrum of G is 18.6500

[...]

 d Force = 0.4012654E-08[ 0.500E-08, 0.303E-08]  d Energy = 0.3506692E-01-0.351E-01
 d Force =-0.1833746E-06[-0.372E-06, 0.563E-08]  d Ewald  = 0.5463024E+01-0.546E+01

[...]

 d Force = 0.5124144E-08[ 0.711E-08, 0.314E-08]  d Energy = 0.6744411E-02-0.674E-02
 d Force =-0.2784690E-06[-0.338E-06,-0.219E-06]  d Ewald  = 0.7396856E+00-0.740E+00

[...]

 d Force =-0.2350314E-08[-0.136E-07, 0.888E-08]  d Energy = 0.1139650E-02-0.114E-02
 d Force =-0.4742704E-06[-0.556E-06,-0.393E-06]  d Ewald  =-0.9529069E-01 0.953E-01

[...]

 retain information from N=  1 steps
 eigenvalues of (default step * inverse Hessian matrix)
  average eigenvalue of G=  61.3512
 eigenvalue spectrum of G is 61.3512

[...]

 d Force = 0.8678658E-08[ 0.799E-08, 0.936E-08]  d Energy = 0.1786491E-03-0.179E-03
 d Force = 0.3244481E-06[ 0.286E-06, 0.363E-06]  d Ewald  =-0.1517362E+00 0.152E+00

[...]

 retain information from N=  1 steps
 eigenvalues of (default step * inverse Hessian matrix)
  average eigenvalue of G= 126.8910
 eigenvalue spectrum of G is126.8910

[...]

 eigenvalue-minimisations  :  5814
 total energy-change (2. order) : 0.2384495E-06  (-0.5029814E-08)
 number of electron      24.0000000 magnetization       0.0000055      0.0000052      0.0000108
 augmentation part        3.2378496 magnetization       0.0000010      0.0000008      0.0000034

 Broyden mixing:
  rms(total) = 0.85299E-03    rms(broyden)= 0.85299E-03
  rms(prec ) = 0.19804E-02
  weight for this iteration     100.00

 eigenvalues of (default mixing * dielectric matrix)
  average eigenvalue GAMMA=   1.2843
  4.4776  3.3687  1.7446  1.7446  2.7993  2.7993  2.5751  2.5751  2.1330  2.1330
  2.3722  2.2602  2.0008  0.5760  0.5760  1.6526  1.6526  1.6359  1.6359  1.3162
  1.3162  0.9569  0.9569  0.0040  0.0863  1.2555  1.2555  0.2009  0.8536  0.8536
  0.8016  0.8016  0.5477  0.5477  0.7704  0.7111  0.7111  0.7030  0.5669  0.6696
  0.6460  0.6460  0.6006  0.6153  0.6153  0.6556  0.6338  0.6338

[...]

--------------------------------------- Iteration      7(  51)  ---------------------------------------

 eigenvalue-minimisations  :  5122
 total energy-change (2. order) :-0.6420760E-07  (-0.2619517E-08)
 number of electron      24.0000000 magnetization       0.0000055      0.0000052      0.0000108
 augmentation part        3.2378496 magnetization       0.0000010      0.0000008      0.0000034

 Free energy of the ion-electron system (eV)
  alpha Z        PSCENC =       165.99778541
  Ewald energy   TEWEN  =     -1992.97108334
  -Hartree energ DENC   =      -267.32780984
  -exchange      EXHF   =         0.00000000
  -V(xc)+E(xc)   XCENC  =      -214.91940413
  PAW double counting   =      2107.72747283    -1837.05116829
  entropy T*S    EENTRO =         0.00272061
  eigenvalues    EBANDS =        -9.90834490
  atomic energy  EATOM  =      2045.49387584
  Solvation  Ediel_sol  =         0.00000000
  free energy    TOTEN  =        -2.95595583 eV

  energy without entropy =       -2.95867643  energy(sigma->0) =       -2.95686270

 average (electrostatic) potential at core
  the test charge radii are     1.2024
  (the norm of the test charge is              1.0000)
       1 -64.0331       2 -64.0331

 E-fermi :   2.4844     XC(G=0): -11.3221     alpha+bet : -8.5812

[...]

 k-point   132 :       0.5000    0.5000    0.5000
  band No.  band energies     occupation
      1      -2.9764      1.00000
      2      -2.9763      1.00000
      3      -2.9762      1.00000
      4      -2.9762      1.00000
      5      -2.2941      1.00000
      6      -2.2940      1.00000
      7      -2.2940      1.00000
      8      -2.2940      1.00000
      9      -0.3525      1.00000
     10      -0.3525      1.00000
     11      -0.3523      1.00000
     12      -0.3523      1.00000
     13       0.7273      1.00000
     14       0.7273      1.00000
     15       0.7273      1.00000
     16       0.7273      1.00000
     17       1.8685      1.00000
     18       1.8685      1.00000
     19       1.8685      1.00000
     20       1.8686      1.00000
     21       2.2731      1.00546
     22       2.2731      1.00546
     23       2.2731      1.00547
     24       2.2731      1.00547
     25       3.9339     -0.00000
     26       3.9340     -0.00000
     27       3.9340     -0.00000
     28       3.9340     -0.00000
     29      11.7159      0.00000
     30      11.7159      0.00000
     31      11.7159      0.00000
     32      11.7159      0.00000
     33      15.0493      0.00000
     34      15.0493      0.00000

[...]

 soft charge-density along one line, spin component           4
         0         1         2         3         4         5         6         7         8         9
 total charge-density along one line

------------------------ aborting loop because EDIFF is reached ----------------------------------------

  FORCE on cell =-STRESS in cart. coord.  units (eV):
  Direction    XX          YY          ZZ          XY          YZ          ZX
  Alpha Z   165.99779   165.99779   165.99779
  Ewald    -675.44947  -675.44513  -642.07787     0.00147    -0.00035    -0.00040
  Hartree    83.88510    83.88668    99.47617     0.00075    -0.00015    -0.00017
  E(xc)    -142.00001  -142.00000  -141.87905     0.00001    -0.00000    -0.00000
  Local     101.95016   101.94466    54.27103    -0.00219     0.00049     0.00056
  n-local   -97.22279   -97.22277   -97.13871     0.00001    -0.00001    -0.00001
  augment    41.62873    41.62871    41.48629     0.00000     0.00000     0.00000
  Kinetic   520.83337   520.83326   519.47651    -0.00002     0.00002     0.00002
  Fock        0.00000     0.00000     0.00000     0.00000     0.00000     0.00000
  Total      -0.37713    -0.37680    -0.38785     0.00003     0.00001     0.00001
  in kB     -11.14218   -11.13254   -11.45889     0.00088     0.00033     0.00024

 VOLUME and BASIS-vectors are now :
  energy-cutoff  :      600.00
  volume of cell :       54.23
      direct lattice vectors                 reciprocal lattice vectors
     3.418685135 -0.000001395  0.000003029     0.292510189  0.168879816 -0.000000492
    -1.709343772  2.960688147  0.000000718     0.000000138  0.337759394 -0.000000335
     0.000005950  0.000005310  5.357714219    -0.000000165 -0.000000141  0.186646760

  length of vectors
     3.418685135  3.418703034  5.357714219     0.337761163  0.337759394  0.186646760

 FORCES acting on ions
    electron-ion (+dipol)            ewald-force                    non-local-force                 convergence-correction
   0.132E-02 0.342E-02 0.637E-01   -.498E-03 0.920E-03 0.869E-02   -.402E-03 -.615E-03 -.388E-02   -.564E-03 -.364E-02 -.677E-01
   -.143E-02 -.336E-02 -.637E-01   0.498E-03 -.920E-03 -.869E-02   0.402E-03 0.615E-03 0.388E-02   0.564E-03 0.364E-02 0.677E-01
   -.110E-03 0.637E-04 -.689E-10   -.877E-14 0.699E-14 -.278E-16   0.000E+00 0.108E-18 0.000E+00   0.258E-07 -.149E-07 -.105E-12

 POSITION                                       TOTAL-FORCE (eV/Angst)
      0.00001      0.98687      1.33942        -0.000092      0.000055      0.000784
      1.70934      1.97382      4.01830         0.000092     -0.000055     -0.000784
    total drift:                               -0.000110      0.000064     -0.000000

  FREE ENERGIE OF THE ION-ELECTRON SYSTEM (eV)
  free  energy   TOTEN  =        -2.95595583 eV

  energy  without entropy=       -2.95867643  energy(sigma->0) =       -2.95686270

 d Force = 0.2536699E-07[ 0.234E-07, 0.273E-07]  d Energy = 0.1431478E-05-0.141E-05
 d Force = 0.4443973E-06[ 0.251E-06, 0.637E-06]  d Ewald  =-0.2367452E+00 0.237E+00

 Quasi-Newton relaxation of ions (Broydens 2nd method)
  g(Force)  = 0.121E-07   g(Stress)= 0.381E-06

 retain information from N=  1 steps
 eigenvalues of (default step * inverse Hessian matrix)
  average eigenvalue of G= 273.1325
 eigenvalue spectrum of G is273.1325

 reached required accuracy - stopping structural energy minimisation

 Spin-Orbit-Coupling matrix elements

 Ion:    1  E_soc:     -2.7202896
 l=   1
     0.0000000    -0.1260587    -0.1220320
    -0.1260587     0.0000000    -0.1260584
    -0.1220320    -0.1260584     0.0000000
 l=   2
     0.0000000    -0.0654691     0.0000000    -0.0654685    -0.2597386
    -0.0654691     0.0000000    -0.1995838    -0.0652152    -0.0654688
     0.0000000    -0.1995838     0.0000000    -0.1995826     0.0000000
    -0.0654685    -0.0652152    -0.1995826     0.0000000    -0.0654690
    -0.2597386    -0.0654688     0.0000000    -0.0654690     0.0000000
 l=   3
     0.0000000     0.0000000     0.0000000     0.0000000     0.0000000     0.0000000     0.0000000
     0.0000000     0.0000000     0.0000000     0.0000000     0.0000000     0.0000000     0.0000000
     0.0000000     0.0000000     0.0000000     0.0000000     0.0000000     0.0000000     0.0000000
     0.0000000     0.0000000     0.0000000     0.0000000     0.0000000     0.0000000     0.0000000
     0.0000000     0.0000000     0.0000000     0.0000000     0.0000000     0.0000000     0.0000000
     0.0000000     0.0000000     0.0000000     0.0000000     0.0000000     0.0000000     0.0000000
     0.0000000     0.0000000     0.0000000     0.0000000     0.0000000     0.0000000     0.0000000

 Ion:    2  E_soc:     -2.7202896
 l=   1
     0.0000000    -0.1260587    -0.1220320
    -0.1260587     0.0000000    -0.1260584
    -0.1220320    -0.1260584     0.0000000
 l=   2
     0.0000000    -0.0654691     0.0000000    -0.0654685    -0.2597386
    -0.0654691     0.0000000    -0.1995838    -0.0652152    -0.0654688
     0.0000000    -0.1995838     0.0000000    -0.1995826     0.0000000
    -0.0654685    -0.0652152    -0.1995826     0.0000000    -0.0654690
    -0.2597386    -0.0654688     0.0000000    -0.0654690     0.0000000
 l=   3
     0.0000000     0.0000000     0.0000000     0.0000000     0.0000000     0.0000000     0.0000000
     0.0000000     0.0000000     0.0000000     0.0000000     0.0000000     0.0000000     0.0000000
     0.0000000     0.0000000     0.0000000     0.0000000     0.0000000     0.0000000     0.0000000
     0.0000000     0.0000000     0.0000000     0.0000000     0.0000000     0.0000000     0.0000000
     0.0000000     0.0000000     0.0000000     0.0000000     0.0000000     0.0000000     0.0000000
     0.0000000     0.0000000     0.0000000     0.0000000     0.0000000     0.0000000     0.0000000
     0.0000000     0.0000000     0.0000000     0.0000000     0.0000000     0.0000000     0.0000000