 vasp.5.4.4.18Apr17-6-g9f103f2a35 (build Nov 03 2018 10:20:46) complex

 executed on             LinuxIFC date 2018.12.22  09:59:25

 INCAR:
 POTCAR:    Cn-PAW, fit to 4c-PBE, JanMewes Oct18

 POTCAR:    Cn-PAW, fit to 4c-PBE, JanMewes Oct18
   VRHFIN =Cn : 10d 2s

   TITEL  = Cn-PAW, fit to 4c-PBE, JanMewes Oct18
   POMASS =    0.010; ZVAL   =   12.000    mass and valenz
   ENMAX  =  273.073; ENMIN  =  204.805 eV
   QCUT   =   -4.480; QGAM   =    8.960    optimization parameters

  Cn-PAW, fit to 4c-PBE, JanMewes Oct18 :

 POSCAR: Cn HCP
  positions in direct lattice
  velocities in cartesian coordinates
 exchange correlation table for  LEXCH =       14
   RHO(1)=    0.500       N(1)  =     2000
   RHO(2)=  100.500       N(2)  =     4000

 ion  position               nearest neighbor table
   1  0.167  0.333  0.250-   2 3.33   2 3.33   2 3.33   2 3.33   2 3.33   2 3.33
   2  0.833  0.667  0.750-   1 3.33   1 3.33   1 3.33   1 3.33   1 3.33   1 3.33

  LATTYP: Found a triclinic cell.
 ALAT       =     3.4187006211
 B/A-ratio  =     0.9999954701
 C/A-ratio  =     1.5671785314
 COS(alpha) =     0.0000019965
 COS(beta)  =     0.0000025096
 COS(gamma) =     0.4999970294

  Lattice vectors:

 A1 = (  -1.7093413627,  -2.9606867518,  -0.0000037468)
 A2 = (  -3.4186851347,   0.0000013948,  -0.0000030290)
 A3 = (  -0.0000059499,  -0.0000053103,  -5.3577142187)

Analysis of symmetry for initial positions (statically):
 Subroutine PRICEL returns:
 Original cell was already a primitive cell.

 Routine SETGRP: Setting up the symmetry group for a
 triclinic supercell.

 Subroutine GETGRP returns: Found  2 space group operations
 (whereof  1 operations were pure point group operations)
 out of a pool of  2 trial point group operations.

The static configuration has the point symmetry C_1 .
 The point group associated with its full space group is S_2 .

Analysis of symmetry for dynamics (positions and initial velocities):
 Subroutine PRICEL returns:
 Original cell was already a primitive cell.

[...]

The dynamic configuration has the point symmetry C_1 .
 The point group associated with its full space group is S_2 .

Analysis of structural, dynamic, and magnetic symmetry:
 Subroutine PRICEL returns:
 Original cell was already a primitive cell.

 Routine SETGRP: Setting up the symmetry group for a
 triclinic supercell.

 Subroutine GETGRP returns: Found  2 space group operations
 (whereof  1 operations were pure point group operations)
 out of a pool of  2 trial point group operations.

The (compounded) configuration has the point symmetry C_1 .
 The point group associated with its full space group is S_2 .

 Subroutine INISYM returns: Found  2 space group operations
 (whereof  1 operations are pure point group operations),
 and found     1 'primitive' translations

Automatic generation of k-mesh.
 generate k-points for:    8    8    4
Space group operators:
 irot       det(A)        alpha          n_x          n_y          n_z        tau_x        tau_y        tau_z
    1     1.000000     0.000000     1.000000     0.000000     0.000000     0.000000     0.000000     0.000000
    2    -1.000000     0.000000     1.000000     0.000000     0.000000    -1.000000    -0.000000    -0.000000

 Subroutine IBZKPT returns following result:

 Found    132 irreducible k-points:

 Following reciprocal coordinates:
            Coordinates               Weight
  0.000000  0.000000  0.000000      1.000000
  0.125000  0.000000  0.000000      2.000000
  0.250000  0.000000  0.000000      2.000000
  0.375000 -0.000000  0.000000      2.000000
  0.500000  0.000000  0.000000      1.000000
 -0.000000  0.125000  0.000000      2.000000
  0.125000  0.125000  0.000000      2.000000
  0.250000  0.125000 -0.000000      2.000000
  0.375000  0.125000 -0.000000      2.000000
  0.500000  0.125000  0.000000      2.000000
 -0.375000  0.125000 -0.000000      2.000000
 -0.250000  0.125000 -0.000000      2.000000
 -0.125000  0.125000  0.000000      2.000000
 -0.000000  0.250000  0.000000      2.000000
  0.125000  0.250000  0.000000      2.000000
  0.250000  0.250000  0.000000      2.000000
  0.375000  0.250000  0.000000      2.000000
  0.500000  0.250000 -0.000000      2.000000
 -0.375000  0.250000  0.000000      2.000000
 -0.250000  0.250000  0.000000      2.000000
 -0.125000  0.250000  0.000000      2.000000
 -0.000000  0.375000  0.000000      2.000000
  0.125000  0.375000  0.000000      2.000000
  0.250000  0.375000  0.000000      2.000000
  0.375000  0.375000  0.000000      2.000000
  0.500000  0.375000  0.000000      2.000000
 -0.375000  0.375000  0.000000      2.000000
 -0.250000  0.375000  0.000000      2.000000
 -0.125000  0.375000  0.000000      2.000000
 -0.000000  0.500000  0.000000      1.000000
  0.125000  0.500000  0.000000      2.000000
  0.250000  0.500000  0.000000      2.000000
  0.375000  0.500000  0.000000      2.000000
  0.500000  0.500000  0.000000      1.000000
 -0.000000 -0.000000  0.250000      2.000000
  0.125000  0.000000  0.250000      2.000000
  0.250000 -0.000000  0.250000      2.000000
  0.375000 -0.000000  0.250000      2.000000
  0.500000  0.000000  0.250000      2.000000
 -0.375000 -0.000000  0.250000      2.000000
 -0.250000 -0.000000  0.250000      2.000000
 -0.125000  0.000000  0.250000      2.000000
  0.000000  0.125000  0.250000      2.000000
  0.125000  0.125000  0.250000      2.000000
  0.250000  0.125000  0.250000      2.000000
  0.375000  0.125000  0.250000      2.000000
  0.500000  0.125000  0.250000      2.000000
 -0.375000  0.125000  0.250000      2.000000
 -0.250000  0.125000  0.250000      2.000000
 -0.125000  0.125000  0.250000      2.000000
  0.000000  0.250000  0.250000      2.000000
  0.125000  0.250000  0.250000      2.000000
  0.250000  0.250000  0.250000      2.000000
  0.375000  0.250000  0.250000      2.000000
  0.500000  0.250000  0.250000      2.000000
 -0.375000  0.250000  0.250000      2.000000
 -0.250000  0.250000  0.250000      2.000000
 -0.125000  0.250000  0.250000      2.000000
 -0.000000  0.375000  0.250000      2.000000
  0.125000  0.375000  0.250000      2.000000
[...]
 -0.250000  0.250000  0.500000      2.000000
 -0.125000  0.250000  0.500000      2.000000
  0.000000  0.375000  0.500000      2.000000
  0.125000  0.375000  0.500000      2.000000
  0.250000  0.375000  0.500000      2.000000
  0.375000  0.375000  0.500000      2.000000
  0.500000  0.375000  0.500000      2.000000
 -0.375000  0.375000  0.500000      2.000000
 -0.250000  0.375000  0.500000      2.000000
 -0.125000  0.375000  0.500000      2.000000
  0.000000  0.500000  0.500000      1.000000
  0.125000  0.500000  0.500000      2.000000
  0.250000  0.500000  0.500000      2.000000
  0.375000  0.500000  0.500000      2.000000
  0.500000  0.500000  0.500000      1.000000

 Following cartesian coordinates:
            Coordinates               Weight
  0.000000  0.000000  0.000000      1.000000
  0.036564  0.021110 -0.000000      2.000000
  0.073128  0.042220 -0.000000      2.000000
  0.109691  0.063330 -0.000000      2.000000
  0.146255  0.084440 -0.000000      1.000000
  0.000000  0.042220 -0.000000      2.000000
  0.036564  0.063330 -0.000000      2.000000
  0.073128  0.084440 -0.000000      2.000000
  0.109691  0.105550 -0.000000      2.000000
  0.146255  0.126660 -0.000000      2.000000
 -0.109691 -0.021110  0.000000      2.000000
 -0.073128 -0.000000  0.000000      2.000000
 -0.036564  0.021110  0.000000      2.000000
  0.000000  0.084440 -0.000000      2.000000
  0.036564  0.105550 -0.000000      2.000000
  0.073128  0.126660 -0.000000      2.000000
  0.109691  0.147770 -0.000000      2.000000
  0.146255  0.168880 -0.000000      2.000000
 -0.109691  0.021110  0.000000      2.000000
 -0.073128  0.042220  0.000000      2.000000
 -0.036564  0.063330 -0.000000      2.000000
  0.000000  0.126660 -0.000000      2.000000
  0.036564  0.147770 -0.000000      2.000000
  0.073128  0.168880 -0.000000      2.000000
  0.109691  0.189990 -0.000000      2.000000
  0.146255  0.211100 -0.000000      2.000000
 -0.109691  0.063330  0.000000      2.000000
 -0.073127  0.084440 -0.000000      2.000000
 -0.036564  0.105550 -0.000000      2.000000
  0.000000  0.168880 -0.000000      1.000000
  0.036564  0.189990 -0.000000      2.000000
  0.073128  0.211100 -0.000000      2.000000
  0.109691  0.232210 -0.000000      2.000000
  0.146255  0.253320 -0.000000      1.000000
 -0.000000 -0.000000  0.046662      2.000000
  0.036564  0.021110  0.046662      2.000000
  0.073128  0.042220  0.046662      2.000000
  0.109691  0.063330  0.046662      2.000000
  0.146255  0.084440  0.046661      2.000000
 -0.109691 -0.063330  0.046662      2.000000
 -0.073128 -0.042220  0.046662      2.000000
 -0.036564 -0.021110  0.046662      2.000000
 -0.000000  0.042220  0.046662      2.000000
  0.036564  0.063330  0.046662      2.000000
  0.073128  0.084440  0.046662      2.000000
  0.109691  0.105550  0.046661      2.000000
  0.146255  0.126660  0.046661      2.000000
 -0.109691 -0.021110  0.046662      2.000000
 -0.073128 -0.000000  0.046662      2.000000
 -0.036564  0.021110  0.046662      2.000000
 -0.000000  0.084440  0.046662      2.000000
  0.036564  0.105550  0.046662      2.000000
  0.073128  0.126660  0.046661      2.000000
  0.109691  0.147770  0.046661      2.000000
  0.146255  0.168880  0.046661      2.000000
 -0.109691  0.021110  0.046662      2.000000
 -0.073128  0.042220  0.046662      2.000000
 -0.036564  0.063330  0.046662      2.000000
  0.000000  0.126660  0.046662      2.000000
  0.036564  0.147770  0.046662      2.000000
[...]
 -0.073128  0.042220  0.093323      2.000000
 -0.036564  0.063330  0.093323      2.000000
 -0.000000  0.126660  0.093323      2.000000
  0.036564  0.147770  0.093323      2.000000
  0.073128  0.168880  0.093323      2.000000
  0.109691  0.189990  0.093323      2.000000
  0.146255  0.211100  0.093323      2.000000
 -0.109691  0.063330  0.093323      2.000000
 -0.073128  0.084440  0.093323      2.000000
 -0.036564  0.105550  0.093323      2.000000
 -0.000000  0.168880  0.093323      1.000000
  0.036564  0.189990  0.093323      2.000000
  0.073128  0.211100  0.093323      2.000000
  0.109691  0.232210  0.093323      2.000000
  0.146255  0.253320  0.093323      1.000000

 SYSTEM =  Cn_HCP
 POSCAR =  Cn HCP

 Startparameter for this run:
   NWRITE =      2    write-flag & timer
   PREC   = accura    normal or accurate (medium, high low for compatibility)
   ISTART =      0    job   : 0-new  1-cont  2-samecut
   ICHARG =      2    charge: 1-file 2-atom 10-const
   ISPIN  =      1    spin polarized calculation?
   LNONCOLLINEAR =      T non collinear calculations
   LSORBIT =      T    spin-orbit coupling
   INIWAV =      1    electr: 0-lowe 1-rand  2-diag
   LASPH  =      F    aspherical Exc in radial PAW
   METAGGA=      F    non-selfconsistent MetaGGA calc.

 Electronic Relaxation 1
   ENCUT  =  600.0 eV  44.10 Ry    6.64 a.u.   6.83  6.83 10.70*2*pi/ulx,y,z
   ENINI  =  600.0     initial cutoff
   ENAUG  =  361.0 eV  augmentation charge cutoff
   NELM   =    100;   NELMIN=  5; NELMDL= -5     # of ELM steps
   EDIFF  = 0.1E-06   stopping-criterion for ELM
   LREAL  =      F    real-space projection
[...]
 k-point 42 :  -0.1250 0.0000 0.2500  plane waves:    3596
 k-point 43 :   0.0000 0.1250 0.2500  plane waves:    3596
 k-point 44 :   0.1250 0.1250 0.2500  plane waves:    3616
 k-point 45 :   0.2500 0.1250 0.2500  plane waves:    3632
 k-point 46 :   0.3750 0.1250 0.2500  plane waves:    3626
 k-point 47 :   0.5000 0.1250 0.2500  plane waves:    3626
 k-point 48 :  -0.3750 0.1250 0.2500  plane waves:    3632
 k-point 49 :  -0.2500 0.1250 0.2500  plane waves:    3620
 k-point 50 :  -0.1250 0.1250 0.2500  plane waves:    3596
 k-point 51 :   0.0000 0.2500 0.2500  plane waves:    3620
 k-point 52 :   0.1250 0.2500 0.2500  plane waves:    3632
 k-point 53 :   0.2500 0.2500 0.2500  plane waves:    3620
 k-point 54 :   0.3750 0.2500 0.2500  plane waves:    3616
 k-point 55 :   0.5000 0.2500 0.2500  plane waves:    3620
 k-point 56 :  -0.3750 0.2500 0.2500  plane waves:    3632
 k-point 57 :  -0.2500 0.2500 0.2500  plane waves:    3620
 k-point 58 :  -0.1250 0.2500 0.2500  plane waves:    3616
 k-point 59 :  -0.0000 0.3750 0.2500  plane waves:    3630
 k-point 60 :   0.1250 0.3750 0.2500  plane waves:    3626
[...]
 k-point 85 :   0.2500-0.2500 0.2500  plane waves:    3620
 k-point 86 :   0.3750-0.2500 0.2500  plane waves:    3632
 k-point 87 :   0.5000-0.2500 0.2500  plane waves:    3620
 k-point 88 :  -0.3750-0.2500 0.2500  plane waves:    3614
 k-point 89 :  -0.2500-0.2500 0.2500  plane waves:    3620
 k-point 90 :  -0.1250-0.2500 0.2500  plane waves:    3632
 k-point 91 :   0.0000-0.1250 0.2500  plane waves:    3596
 k-point 92 :   0.1250-0.1250 0.2500  plane waves:    3596
 k-point 93 :   0.2500-0.1250 0.2500  plane waves:    3620
 k-point 94 :   0.3750-0.1250 0.2500  plane waves:    3632
 k-point 95 :   0.5000-0.1250 0.2500  plane waves:    3626
 k-point 96 :  -0.3750-0.1250 0.2500  plane waves:    3626
 k-point 97 :  -0.2500-0.1250 0.2500  plane waves:    3632
 k-point 98 :  -0.1250-0.1250 0.2500  plane waves:    3616
 k-point 99 :  -0.0000-0.0000 0.5000  plane waves:    3644
 k-point ** :   0.1250 0.0000 0.5000  plane waves:    3604
 k-point ** :   0.2500 0.0000 0.5000  plane waves:    3616
 k-point ** :   0.3750-0.0000 0.5000  plane waves:    3624
 k-point ** :   0.5000-0.0000 0.5000  plane waves:    3592
 k-point ** :   0.0000 0.1250 0.5000  plane waves:    3604
 k-point ** :   0.1250 0.1250 0.5000  plane waves:    3584
 k-point ** :   0.2500 0.1250 0.5000  plane waves:    3612
 k-point ** :   0.3750 0.1250 0.5000  plane waves:    3624
 k-point ** :   0.5000 0.1250 0.5000  plane waves:    3624
 k-point ** :  -0.3750 0.1250 0.5000  plane waves:    3612
 k-point ** :  -0.2500 0.1250 0.5000  plane waves:    3584
 k-point ** :  -0.1250 0.1250 0.5000  plane waves:    3604
 k-point ** :   0.0000 0.2500 0.5000  plane waves:    3616
 k-point ** :   0.1250 0.2500 0.5000  plane waves:    3612
 k-point ** :   0.2500 0.2500 0.5000  plane waves:    3628
 k-point ** :   0.3750 0.2500 0.5000  plane waves:    3648
 k-point ** :   0.5000 0.2500 0.5000  plane waves:    3628
 k-point ** :  -0.3750 0.2500 0.5000  plane waves:    3612
 k-point ** :  -0.2500 0.2500 0.5000  plane waves:    3616
 k-point ** :  -0.1250 0.2500 0.5000  plane waves:    3584
 k-point ** :   0.0000 0.3750 0.5000  plane waves:    3624
 k-point ** :   0.1250 0.3750 0.5000  plane waves:    3624
 k-point ** :   0.2500 0.3750 0.5000  plane waves:    3648
 k-point ** :   0.3750 0.3750 0.5000  plane waves:    3648
 k-point ** :   0.5000 0.3750 0.5000  plane waves:    3624
 k-point ** :  -0.3750 0.3750 0.5000  plane waves:    3624
 k-point ** :  -0.2500 0.3750 0.5000  plane waves:    3612
 k-point ** :  -0.1250 0.3750 0.5000  plane waves:    3612
 k-point ** :   0.0000 0.5000 0.5000  plane waves:    3592
 k-point ** :   0.1250 0.5000 0.5000  plane waves:    3624
 k-point ** :   0.2500 0.5000 0.5000  plane waves:    3628
 k-point ** :   0.3750 0.5000 0.5000  plane waves:    3624
 k-point ** :   0.5000 0.5000 0.5000  plane waves:    3592

 maximum and minimum number of plane-waves per node :       948      878

 maximum number of plane-waves:      3648
 maximum index in each direction:
   IXMAX=    7   IYMAX=    7   IZMAX=   10
   IXMIN=   -7   IYMIN=   -7   IZMIN=  -11

 parallel 3D FFT for wavefunctions:
    minimum data exchange during FFTs selected (reduces bandwidth)
 parallel 3D FFT for charge:
    minimum data exchange during FFTs selected (reduces bandwidth)

 Broyden mixing: mesh for mixing (old mesh)
   NGX = 13   NGY = 13   NGZ = 21
  (NGX  = 56   NGY  = 56   NGZ  = 96)
  gives a total of   3549 points

 initial charge density was supplied:
 charge density of overlapping atoms calculated
 number of electron      24.0000000 magnetization       2.0000000      2.0000000      2.0000000
 keeping initial charge density in first step

 Maximum index for augmentation-charges        40366 (set IRDMAX)

 First call to EWALD:  gamma=   0.468
 Maximum number of real-space cells 3x 3x 2
 Maximum number of reciprocal cells 3x 3x 4

--------------------------------------- Iteration      1(   1)  ---------------------------------------

 eigenvalue-minimisations  :  8976
 total energy-change (2. order) : 0.3173804E+03  (-0.1188808E+04)
 number of electron      24.0000000 magnetization       2.0000000      2.0000000      2.0000000
 augmentation part       24.0000000 magnetization       2.0000000      2.0000000      2.0000000

 Free energy of the ion-electron system (eV)
  alpha Z        PSCENC =       165.99778541
  Ewald energy   TEWEN  =     -1992.97108334
  -Hartree energ DENC   =      -277.46448420
  -exchange      EXHF   =         0.00000000
  -V(xc)+E(xc)   XCENC  =      -214.13620461
  PAW double counting   =      2116.55855324    -1844.98179328
  entropy T*S    EENTRO =         0.00012677
  eigenvalues    EBANDS =       318.88359521
  atomic energy  EATOM  =      2045.49387584
  Solvation  Ediel_sol  =         0.00000000
  free energy    TOTEN  =       317.38037103 eV

  energy without entropy =      317.38024425  energy(sigma->0) =      317.38032877

[...]

 eigenvalue-minimisations  :  9846
 total energy-change (2. order) :-0.2730075E+03  (-0.2317275E+03)
 number of electron      24.0000000 magnetization       2.0000000      2.0000000      2.0000000
 augmentation part       24.0000000 magnetization       2.0000000      2.0000000      2.0000000

[...]

 Broyden mixing:
  rms(total) = 0.77466E+00    rms(broyden)= 0.77465E+00
  rms(prec ) = 0.84248E+00
  weight for this iteration     100.00

[...]

 eigenvalues of (default mixing * dielectric matrix)
  average eigenvalue GAMMA=   0.8413
  0.8413

[...]

 eigenvalue-minimisations  :  9550
 total energy-change (2. order) : 0.1338354E-03  (-0.4436508E-04)
 number of electron      24.0000000 magnetization       0.0000743      0.0000740      0.0000617
 augmentation part        3.2378875 magnetization       0.0001217      0.0001250      0.0001267

[...]

 Broyden mixing:
  rms(total) = 0.36518E-03    rms(broyden)= 0.36518E-03
  rms(prec ) = 0.69044E-03
  weight for this iteration     100.00

 eigenvalues of (default mixing * dielectric matrix)
  average eigenvalue GAMMA=   1.2737
  2.8948  2.4226  1.1133  1.0479  0.7335  0.7335  0.6219  0.6219

[...]

--------------------------------------- Iteration      1(  14)  ---------------------------------------

 eigenvalue-minimisations  :  9163
 total energy-change (2. order) :-0.1876515E-07  (-0.5149275E-07)
 number of electron      24.0000000 magnetization       0.0000025      0.0000026      0.0000086
 augmentation part        3.2384484 magnetization      -0.0000085     -0.0000082     -0.0000070

 Free energy of the ion-electron system (eV)
  alpha Z        PSCENC =       165.99778541
  Ewald energy   TEWEN  =     -1992.97108334
  -Hartree energ DENC   =      -267.28080378
  -exchange      EXHF   =         0.00000000
  -V(xc)+E(xc)   XCENC  =      -214.92056048
  PAW double counting   =      2107.53238889    -1836.85682176
  entropy T*S    EENTRO =         0.00267632
  eigenvalues    EBANDS =        -9.95331731
  atomic energy  EATOM  =      2045.49387584
  Solvation  Ediel_sol  =         0.00000000
  free energy    TOTEN  =        -2.95586023 eV

  energy without entropy =       -2.95853655  energy(sigma->0) =       -2.95675234

 average (electrostatic) potential at core
  the test charge radii are     1.2024
  (the norm of the test charge is              1.0000)
       1 -64.0369       2 -64.0369

 E-fermi :   2.4835     XC(G=0): -11.3226     alpha+bet : -8.5812

 k-point     1 :       0.0000    0.0000    0.0000
  band No.  band energies     occupation
      1      -5.8261      1.00000
      2      -5.8260      1.00000
      3      -3.2034      1.00000
      4      -3.2033      1.00000
      5      -2.2094      1.00000
      6      -2.2094      1.00000
      7      -2.1960      1.00000
      8      -2.1959      1.00000
      9      -2.1788      1.00000
     10      -2.1788      1.00000
     11      -0.3251      1.00000
     12      -0.3250      1.00000
     13       0.6561      1.00000
     14       0.6561      1.00000
     15       0.8600      1.00000
     16       0.8600      1.00000
     17       0.8981      1.00000
     18       0.8981      1.00000
     19       1.0261      1.00000
     20       1.0261      1.00000
     21       1.9821      1.00000
     22       1.9821      1.00000
     23       2.5627      0.01196
     24       2.5628      0.01184
     25       3.0687     -0.00000
     26       3.0689     -0.00000
     27      13.1498      0.00000
     28      13.1498      0.00000
     29      13.3414      0.00000
     30      13.3414      0.00000
     31      15.9827      0.00000
     32      15.9840      0.00000
     33      17.7494      0.00000
     34      17.8146      0.00000

[...]

 k-point   132 :       0.5000    0.5000    0.5000
  band No.  band energies     occupation
      1      -2.9778      1.00000
      2      -2.9778      1.00000
      3      -2.9778      1.00000
      4      -2.9778      1.00000
      5      -2.2961      1.00000
      6      -2.2961      1.00000
      7      -2.2961      1.00000
      8      -2.2961      1.00000
      9      -0.3542      1.00000
     10      -0.3542      1.00000
     11      -0.3542      1.00000
     12      -0.3542      1.00000
     13       0.7254      1.00000
     14       0.7254      1.00000
     15       0.7254      1.00000
     16       0.7254      1.00000
     17       1.8668      1.00000
     18       1.8668      1.00000
     19       1.8668      1.00000
     20       1.8669      1.00000
     21       2.2707      1.00517
     22       2.2707      1.00517
     23       2.2707      1.00518
     24       2.2707      1.00518
     25       3.9331     -0.00000
     26       3.9332     -0.00000
     27       3.9333     -0.00000
     28       3.9333     -0.00000
     29      11.7150      0.00000
     30      11.7151      0.00000
     31      11.7151      0.00000
     32      11.7152      0.00000
     33      15.0495      0.00000
     34      15.0689      0.00000

 soft charge-density along one line, spin component           1
         0         1         2         3         4         5         6         7         8         9
 total charge-density along one line

[...]

 soft charge-density along one line, spin component           4
         0         1         2         3         4         5         6         7         8         9
 total charge-density along one line

------------------------ aborting loop because EDIFF is reached ----------------------------------------

  FORCE on cell =-STRESS in cart. coord.  units (eV):
  Direction    XX          YY          ZZ          XY          YZ          ZX
  Alpha Z   165.99779   165.99779   165.99779
  Ewald    -675.44947  -675.44513  -642.07787     0.00147    -0.00035    -0.00040
  Hartree    83.90308    83.90525    99.49320     0.00071    -0.00014    -0.00017
  E(xc)    -141.99544  -141.99543  -141.87050     0.00000    -0.00000    -0.00000
  Local     101.97400   101.96762    54.29384    -0.00214     0.00048     0.00055
  n-local   -97.26159   -97.26157   -97.17296     0.00001    -0.00000    -0.00000
  augment    41.63774    41.63772    41.49595    -0.00001     0.00000     0.00000
  Kinetic   520.85176   520.85165   519.50583    -0.00004     0.00001     0.00002
  Fock        0.00000     0.00000     0.00000     0.00000     0.00000     0.00000
  Total      -0.34213    -0.34211    -0.33472     0.00001    -0.00000    -0.00000
  in kB     -10.10815   -10.10754    -9.88927     0.00040    -0.00014    -0.00010

 VOLUME and BASIS-vectors are now :
  energy-cutoff  :      600.00
  volume of cell :       54.23
      direct lattice vectors                 reciprocal lattice vectors
     3.418685135 -0.000001395  0.000003029     0.292510189  0.168879816 -0.000000492
    -1.709343772  2.960688147  0.000000718     0.000000138  0.337759394 -0.000000335
     0.000005950  0.000005310  5.357714219    -0.000000165 -0.000000141  0.186646760

  length of vectors
     3.418685135  3.418703034  5.357714219     0.337761163  0.337759394  0.186646760

 FORCES acting on ions
    electron-ion (+dipol)            ewald-force                    non-local-force                 convergence-correction
   0.468E-03 -.874E-03 -.848E-02   -.498E-03 0.920E-03 0.869E-02   0.157E-04 -.384E-04 -.897E-04   0.100E-04 -.375E-06 -.918E-04
   -.468E-03 0.874E-03 0.848E-02   0.498E-03 -.920E-03 -.869E-02   -.157E-04 0.384E-04 0.897E-04   -.100E-04 0.375E-06 0.918E-04
   0.228E-10 -.132E-10 -.549E-10   -.877E-14 -.120E-15 -.173E-16   0.000E+00 0.000E+00 0.000E+00   -.169E-13 0.634E-14 -.361E-14

 POSITION                                       TOTAL-FORCE (eV/Angst)
      0.00001      0.98687      1.33942        -0.000005      0.000007      0.000027
      1.70934      1.97382      4.01830         0.000005     -0.000007     -0.000027
    total drift:                                0.000000     -0.000000     -0.000000

  FREE ENERGIE OF THE ION-ELECTRON SYSTEM (eV)
  free  energy   TOTEN  =        -2.95586023 eV

  energy  without entropy=       -2.95853655  energy(sigma->0) =       -2.95675234

 Quasi-Newton relaxation of ions (Broydens 2nd method)
  g(Force)  = 0.158E-10   g(Stress)= 0.176E-06

 Reset! Starting new Quasi-Newton update for ions

 reached required accuracy - stopping structural energy minimisation

 Spin-Orbit-Coupling matrix elements

 Ion:    1  E_soc:     -2.7197661
 l=   1
     0.0000000    -0.1260116    -0.1219841
    -0.1260116     0.0000000    -0.1260113
    -0.1219841    -0.1260113     0.0000000
 l=   2
     0.0000000    -0.0654631     0.0000000    -0.0654626    -0.2597143
    -0.0654631     0.0000000    -0.1995506    -0.0652105    -0.0654629
     0.0000000    -0.1995506     0.0000000    -0.1995492     0.0000000
    -0.0654626    -0.0652105    -0.1995492     0.0000000    -0.0654630
    -0.2597143    -0.0654629     0.0000000    -0.0654630     0.0000000
 l=   3
     0.0000000     0.0000000     0.0000000     0.0000000     0.0000000     0.0000000     0.0000000
     0.0000000     0.0000000     0.0000000     0.0000000     0.0000000     0.0000000     0.0000000
     0.0000000     0.0000000     0.0000000     0.0000000     0.0000000     0.0000000     0.0000000
     0.0000000     0.0000000     0.0000000     0.0000000     0.0000000     0.0000000     0.0000000
     0.0000000     0.0000000     0.0000000     0.0000000     0.0000000     0.0000000     0.0000000
     0.0000000     0.0000000     0.0000000     0.0000000     0.0000000     0.0000000     0.0000000
     0.0000000     0.0000000     0.0000000     0.0000000     0.0000000     0.0000000     0.0000000

 Ion:    2  E_soc:     -2.7197661
 l=   1
     0.0000000    -0.1260116    -0.1219841
    -0.1260116     0.0000000    -0.1260113
    -0.1219841    -0.1260113     0.0000000
 l=   2
     0.0000000    -0.0654631     0.0000000    -0.0654626    -0.2597143
    -0.0654631     0.0000000    -0.1995506    -0.0652105    -0.0654629
     0.0000000    -0.1995506     0.0000000    -0.1995492     0.0000000
    -0.0654626    -0.0652105    -0.1995492     0.0000000    -0.0654630
    -0.2597143    -0.0654629     0.0000000    -0.0654630     0.0000000
 l=   3
     0.0000000     0.0000000     0.0000000     0.0000000     0.0000000     0.0000000     0.0000000
     0.0000000     0.0000000     0.0000000     0.0000000     0.0000000     0.0000000     0.0000000
     0.0000000     0.0000000     0.0000000     0.0000000     0.0000000     0.0000000     0.0000000
     0.0000000     0.0000000     0.0000000     0.0000000     0.0000000     0.0000000     0.0000000
     0.0000000     0.0000000     0.0000000     0.0000000     0.0000000     0.0000000     0.0000000
     0.0000000     0.0000000     0.0000000     0.0000000     0.0000000     0.0000000     0.0000000
     0.0000000     0.0000000     0.0000000     0.0000000     0.0000000     0.0000000     0.0000000