 vasp.5.4.4.18Apr17-6-g9f103f2a35 (build Nov 03 2018 10:20:46) complex

 executed on             LinuxIFC date 2018.12.20  14:39:15

 INCAR:
 POTCAR:    PAW Og, JanMewes Oct 18

 POTCAR:    PAW Og, JanMewes Oct 18
   VRHFIN =Og : 10d 2s 6p, PE

   TITEL  = PAW Og, JanMewes Oct 18
   POMASS =    0.010; ZVAL   =   18.000    mass and valenz
   ENMAX  =  339.336; ENMIN  =  254.502 eV
   QCUT   =   -4.994; QGAM   =    9.988    optimization parameters

  PAW Og, JanMewes Oct 18               :

 POSCAR: Og_FCC
  positions in direct lattice
  velocities in cartesian coordinates

 METAGGA = SCAN     LMAXTAU =  0    LMIXTAU =  F

 ion  position               nearest neighbor table
   1  0.000  0.000  0.000-

IMPORTANT INFORMATION: All symmetrisations will be switched off!
NOSYMM: (Re-)initialisation of all symmetry stuff for point group C_1.

 KPOINTS: k-points

Automatic generation of k-mesh.
Space group operators:
 irot       det(A)        alpha          n_x          n_y          n_z        tau_x        tau_y        tau_z
    1     1.000000     0.000000     1.000000     0.000000     0.000000     0.000000     0.000000     0.000000

 Subroutine IBZKPT returns following result:

 Found    216 irreducible k-points:

 Following reciprocal coordinates:
            Coordinates               Weight
  0.000000  0.000000  0.000000      1.000000
  0.166667 -0.000000 -0.000000      1.000000
  0.333333 -0.000000  0.000000      1.000000
  0.500000 -0.000000  0.000000      1.000000
 -0.333333  0.000000 -0.000000      1.000000
 -0.166667  0.000000  0.000000      1.000000
 -0.000000  0.166667  0.000000      1.000000
  0.166667  0.166667  0.000000      1.000000
  0.333333  0.166667  0.000000      1.000000
  0.500000  0.166667  0.000000      1.000000
 -0.333333  0.166667 -0.000000      1.000000
 -0.166667  0.166667 -0.000000      1.000000
 -0.000000  0.333333 -0.000000      1.000000
  0.166667  0.333333 -0.000000      1.000000
  0.333333  0.333333  0.000000      1.000000
  0.500000  0.333333 -0.000000      1.000000
 -0.333333  0.333333 -0.000000      1.000000
 -0.166667  0.333333 -0.000000      1.000000
  0.000000  0.500000 -0.000000      1.000000
  0.166667  0.500000 -0.000000      1.000000
  0.333333  0.500000  0.000000      1.000000
  0.500000  0.500000  0.000000      1.000000
 -0.333333  0.500000 -0.000000      1.000000
 -0.166667  0.500000 -0.000000      1.000000
  0.000000 -0.333333  0.000000      1.000000
  0.166667 -0.333333  0.000000      1.000000
  0.333333 -0.333333  0.000000      1.000000
  0.500000 -0.333333  0.000000      1.000000
 -0.333333 -0.333333 -0.000000      1.000000
 -0.166667 -0.333333  0.000000      1.000000
  0.000000 -0.166667  0.000000      1.000000
  0.166667 -0.166667  0.000000      1.000000
  0.333333 -0.166667  0.000000      1.000000
  0.500000 -0.166667  0.000000      1.000000
 -0.333333 -0.166667  0.000000      1.000000
 -0.166667 -0.166667  0.000000      1.000000
  0.000000  0.000000  0.166667      1.000000
  0.166667 -0.000000  0.166667      1.000000
  0.333333 -0.000000  0.166667      1.000000
  0.500000 -0.000000  0.166667      1.000000
 -0.333333  0.000000  0.166667      1.000000
 -0.166667  0.000000  0.166667      1.000000
 -0.000000  0.166667  0.166667      1.000000
  0.166667  0.166667  0.166667      1.000000
  0.333333  0.166667  0.166667      1.000000
  0.500000  0.166667  0.166667      1.000000
 -0.333333  0.166667  0.166667      1.000000
 -0.166667  0.166667  0.166667      1.000000
  0.000000  0.333333  0.166667      1.000000
  0.166667  0.333333  0.166667      1.000000
  0.333333  0.333333  0.166667      1.000000
  0.500000  0.333333  0.166667      1.000000
 -0.333333  0.333333  0.166667      1.000000
 -0.166667  0.333333  0.166667      1.000000
  0.000000  0.500000  0.166667      1.000000
  0.166667  0.500000  0.166667      1.000000
  0.333333  0.500000  0.166667      1.000000
  0.500000  0.500000  0.166667      1.000000
 -0.333333  0.500000  0.166667      1.000000
 -0.166667  0.500000  0.166667      1.000000
[...]
  0.500000  0.500000 -0.166667      1.000000
 -0.333333  0.500000 -0.166667      1.000000
 -0.166667  0.500000 -0.166667      1.000000
 -0.000000 -0.333333 -0.166667      1.000000
  0.166667 -0.333333 -0.166667      1.000000
  0.333333 -0.333333 -0.166667      1.000000
  0.500000 -0.333333 -0.166667      1.000000
 -0.333333 -0.333333 -0.166667      1.000000
 -0.166667 -0.333333 -0.166667      1.000000
  0.000000 -0.166667 -0.166667      1.000000
  0.166667 -0.166667 -0.166667      1.000000
  0.333333 -0.166667 -0.166667      1.000000
  0.500000 -0.166667 -0.166667      1.000000
 -0.333333 -0.166667 -0.166667      1.000000
 -0.166667 -0.166667 -0.166667      1.000000

 Following cartesian coordinates:
            Coordinates               Weight
  0.000000  0.000000  0.000000      1.000000
  0.038382 -0.022160 -0.015669      1.000000
  0.076763 -0.044319 -0.031339      1.000000
  0.115145 -0.066479 -0.047008      1.000000
 -0.076763  0.044319  0.031339      1.000000
 -0.038382  0.022160  0.015669      1.000000
  0.000000  0.044319 -0.015669      1.000000
  0.038382  0.022160 -0.031339      1.000000
  0.076763  0.000000 -0.047008      1.000000
  0.115145 -0.022160 -0.062677      1.000000
 -0.076763  0.088639  0.015669      1.000000
 -0.038382  0.066479  0.000000      1.000000
  0.000000  0.088639 -0.031339      1.000000
  0.038382  0.066479 -0.047008      1.000000
  0.076763  0.044319 -0.062677      1.000000
  0.115145  0.022160 -0.078346      1.000000
 -0.076763  0.132958  0.000000      1.000000
 -0.038382  0.110798 -0.015669      1.000000
  0.000000  0.132958 -0.047008      1.000000
  0.038382  0.110798 -0.062677      1.000000
  0.076763  0.088639 -0.078346      1.000000
  0.115145  0.066479 -0.094016      1.000000
 -0.076763  0.177278 -0.015669      1.000000
 -0.038382  0.155118 -0.031339      1.000000
 -0.000000 -0.088639  0.031339      1.000000
  0.038382 -0.110798  0.015669      1.000000
  0.076763 -0.132958 -0.000000      1.000000
  0.115145 -0.155118 -0.015669      1.000000
 -0.076763 -0.044319  0.062677      1.000000
 -0.038382 -0.066479  0.047008      1.000000
 -0.000000 -0.044319  0.015669      1.000000
  0.038382 -0.066479 -0.000000      1.000000
  0.076763 -0.088639 -0.015669      1.000000
  0.115145 -0.110798 -0.031339      1.000000
 -0.076763 -0.000000  0.047008      1.000000
 -0.038382 -0.022160  0.031339      1.000000
 -0.000000  0.000000  0.047008      1.000000
  0.038382 -0.022160  0.031339      1.000000
  0.076763 -0.044319  0.015669      1.000000
  0.115145 -0.066479  0.000000      1.000000
 -0.076763  0.044319  0.078346      1.000000
 -0.038382  0.022160  0.062677      1.000000
 -0.000000  0.044319  0.031339      1.000000
  0.038382  0.022160  0.015669      1.000000
  0.076763  0.000000  0.000000      1.000000
  0.115145 -0.022160 -0.015669      1.000000
 -0.076763  0.088639  0.062677      1.000000
 -0.038382  0.066479  0.047008      1.000000
 -0.000000  0.088639  0.015669      1.000000
  0.038382  0.066479  0.000000      1.000000
  0.076763  0.044319 -0.015669      1.000000
  0.115145  0.022160 -0.031339      1.000000
 -0.076763  0.132958  0.047008      1.000000
 -0.038382  0.110798  0.031339      1.000000
 -0.000000  0.132958  0.000000      1.000000
  0.038382  0.110798 -0.015669      1.000000
  0.076763  0.088639 -0.031339      1.000000
  0.115145  0.066479 -0.047008      1.000000
 -0.076763  0.177278  0.031339      1.000000
 -0.038382  0.155118  0.015669      1.000000
[...]
  0.115145  0.066479 -0.141023      1.000000
 -0.076763  0.177278 -0.062677      1.000000
 -0.038382  0.155118 -0.078346      1.000000
  0.000000 -0.088639 -0.015669      1.000000
  0.038382 -0.110798 -0.031339      1.000000
  0.076763 -0.132958 -0.047008      1.000000
  0.115145 -0.155118 -0.062677      1.000000
 -0.076763 -0.044319  0.015669      1.000000
 -0.038382 -0.066479 -0.000000      1.000000
  0.000000 -0.044319 -0.031339      1.000000
  0.038382 -0.066479 -0.047008      1.000000
  0.076763 -0.088639 -0.062677      1.000000
  0.115145 -0.110798 -0.078346      1.000000
 -0.076763 -0.000000 -0.000000      1.000000
 -0.038382 -0.022160 -0.015669      1.000000

 SYSTEM =  Og_FCC
 POSCAR =  Og_FCC

 Startparameter for this run:
   NWRITE =      2    write-flag & timer
   PREC   = accura    normal or accurate (medium, high low for compatibility)
   ISTART =      0    job   : 0-new  1-cont  2-samecut
   ICHARG =      2    charge: 1-file 2-atom 10-const
   ISPIN  =      1    spin polarized calculation?
   LNONCOLLINEAR =      T non collinear calculations
   LSORBIT =      T    spin-orbit coupling
   INIWAV =      1    electr: 0-lowe 1-rand  2-diag
   LASPH  =      F    aspherical Exc in radial PAW
   METAGGA=      F    non-selfconsistent MetaGGA calc.

 Electronic Relaxation 1
   ENCUT  =  300.0 eV  22.05 Ry    4.70 a.u.   6.21  6.21  6.21*2*pi/ulx,y,z
   ENINI  =  300.0     initial cutoff
   ENAUG  =  361.0 eV  augmentation charge cutoff
   NELM   =     50;   NELMIN=  2; NELMDL= -5     # of ELM steps
   EDIFF  = 0.1E-07   stopping-criterion for ELM
   LREAL  =      F    real-space projection
   NLSPLINE    = F    spline interpolate recip. space projectors
   LCOMPAT=      F    compatible to vasp.4.4
   GGA_COMPAT  = F    GGA compatible to vasp.4.4-vasp.4.6
   LMAXPAW     = -100 max onsite density
   LMAXMIX     =    2 max onsite mixed and CHGCAR
   VOSKOWN=      0    Vosko Wilk Nusair interpolation
   ROPT   =    0.00000
 Ionic relaxation
   EDIFFG = 0.1E-04   stopping-criterion for IOM
   NSW    =      1    number of steps for IOM
   NBLOCK =      1;   KBLOCK =      1    inner block; outer block
   IBRION =     -1    ionic relax: 0-MD 1-quasi-New 2-CG
   NFREE  =      5    steps in history (QN), initial steepest desc. (CG)
   ISIF   =      3    stress and relaxation
   IWAVPR =     10    prediction:  0-non 1-charg 2-wave 3-comb
   ISYM   =      0    0-nonsym 1-usesym 2-fastsym
   LCORR  =      T    Harris-Foulkes like correction to forces

   POTIM  = 0.1000    time-step for ionic-motion
   TEIN   =    0.0    initial temperature
   TEBEG  =    0.0;   TEEND  =   0.0 temperature during run
   SMASS  =  -3.00    Nose mass-parameter (am)
   estimated Nose-frequenzy (Omega)   =  0.10E-29 period in steps =****** mass=  -0.442E-27a.u.
   SCALEE = 1.0000    scale energy and forces
   NPACO  =    256;   APACO  = 16.0  distance and # of slots for P.C.
   PSTRESS=    0.0 pullay stress

  Mass of Ions in am
   POMASS =   0.01
  Ionic Valenz
   ZVAL   =  18.00
  Atomic Wigner-Seitz radii
  virtual crystal weights
   VCA    =   1.00
   NELECT =      18.0000    total number of electrons
   NUPDOWN=      -1.0000    fix difference up-down

 DOS related values:
   EMIN   =  10.00;   EMAX   =-10.00  energy-range for DOS
   EFERMI =   0.00
   ISMEAR =     0;   SIGMA  =   0.00  broadening in eV -4-tet -1-fermi 0-gaus

 Electronic relaxation 2 (details)
   IALGO  =     38    algorithm
   LDIAG  =      T    sub-space diagonalisation (order eigenvalues)
   LSUBROT=      F    optimize rotation matrix (better conditioning)
   TURBO    =      0    0=normal 1=particle mesh
   IRESTART =      0    0=no restart 2=restart with 2 vectors
   NREBOOT  =      0    no. of reboots
[...]
   27.011646    0.834170    0.834120    0.834243    0.000007    0.000001   -0.000013
   27.562904    0.775229    0.775178    0.775304    0.000007    0.000002   -0.000014
   28.114162    0.807812    0.807759    0.807891    0.000007    0.000003   -0.000014
   28.665420    0.857185    0.857131    0.857269    0.000007    0.000003   -0.000014
   29.216678    0.842020    0.841963    0.842108    0.000007    0.000004   -0.000015
   29.767937    0.843890    0.843830    0.843983    0.000006    0.000005   -0.000015
   30.319195    0.892924    0.892861    0.893023    0.000004    0.000006   -0.000017
   30.870453    0.833937    0.833867    0.834040    0.000004    0.000007   -0.000016
   31.421711    0.857549    0.857476    0.857662    0.000003    0.000006   -0.000017
   31.972969    0.824733    0.824652    0.824855   -0.000000    0.000007   -0.000018
   32.524227    0.884524    0.884434    0.884657   -0.000005    0.000008   -0.000018
[...]
   46.856937    0.900532    0.900645    0.900254   -0.000092   -0.000016    0.000064
   47.408195    0.904763    0.904843    0.904564   -0.000063   -0.000016    0.000044
   47.959453    0.908364    0.908428    0.908204   -0.000048   -0.000014    0.000035
   48.510711    0.911556    0.911611    0.911421   -0.000039   -0.000013    0.000029
   49.061970    0.914450    0.914498    0.914332   -0.000033   -0.000012    0.000025
   49.613228    0.917110    0.917153    0.917005   -0.000029   -0.000011    0.000022
   50.164486    0.919580    0.919619    0.919484   -0.000026   -0.000010    0.000019
   50.715744    0.921889    0.921924    0.921801   -0.000023   -0.000009    0.000018
   51.267002    0.924059    0.924092    0.923979   -0.000021   -0.000009    0.000016
   51.818260    0.926108    0.926139    0.926033   -0.000019   -0.000008    0.000015
   52.369518    0.928050    0.928079    0.927980   -0.000018   -0.000008    0.000014
   52.920776    0.929894    0.929922    0.929829   -0.000016   -0.000007    0.000013
   53.472034    0.931651    0.931677    0.931589   -0.000015   -0.000007    0.000012
   54.023292    0.933328    0.933352    0.933269   -0.000014   -0.000007    0.000011
   54.574550    0.934931    0.934954    0.934875   -0.000014   -0.000006    0.000011

  frequency dependent IMAGINARY DIELECTRIC FUNCTION (independent particle, no local field effects) current-current (2nd set in vasprun.xml)
     E(ev)      X         Y         Z        XY        YZ        ZX
    0.000000  307.630537  307.631409  307.631785   -0.000737   -0.005897   -0.000112
    0.551258    5.060819    5.060829    5.060856   -0.000027   -0.000560    0.000020
    1.102516    1.077145    1.077146    1.077159   -0.000007   -0.000278    0.000015
    1.653774    1.369525    1.369529    1.369538   -0.000005   -0.000186    0.000010
    2.205032    2.539411    2.539420    2.539427   -0.000016   -0.000142   -0.000001
    2.756290    2.052853    2.052859    2.052865   -0.000007   -0.000112    0.000004
    3.307549    5.059915    5.059930    5.059937   -0.000016   -0.000096   -0.000004
    3.858807    2.030790    2.030799    2.030804   -0.000018   -0.000077   -0.000005
    4.410065    3.226383    3.226427    3.226434   -0.000069   -0.000073   -0.000038
    4.961323    5.065554    5.065240    5.065221    0.000221    0.000070    0.000172
    5.512581    2.690233    2.690241    2.690245   -0.000011   -0.000052   -0.000001
    6.063839    3.512648    3.512875    3.512883   -0.000168   -0.000135   -0.000115
    6.615097    9.349927    9.349920    9.349926   -0.000178    0.000019   -0.000087
    7.166355    3.578621    3.578614    3.578617    0.000002   -0.000022    0.000013
    7.717613    1.958258    1.958255    1.958261   -0.000015   -0.000006    0.000008
    8.268871    2.665312    2.665216    2.665205    0.000052    0.000061    0.000067
    8.820129    3.557595    3.557605    3.557675   -0.000022    0.000164    0.000008
    9.371387    0.548542    0.548544    0.548577    0.000021   -0.000209   -0.000059
    9.922646    1.342164    1.342161    1.342167   -0.000012   -0.000115   -0.000010
   10.473904    0.744626    0.744615    0.744616    0.000072   -0.000064   -0.000044
   11.025162    0.672475    0.672484    0.672487    0.000018   -0.000082   -0.000030
   11.576420    0.259500    0.259496    0.259499    0.000022   -0.000077   -0.000020
   12.127678    0.358612    0.358596    0.358598   -0.000062   -0.000051   -0.000064
   12.678936    0.310337    0.310328    0.310336    0.000021   -0.000130   -0.000038
   13.230194    0.223979    0.223781    0.223924   -0.000072    0.000019   -0.000021
   13.781452    0.387459    0.387464    0.387465   -0.000094    0.000043   -0.000023
   14.332710    0.354699    0.354822    0.354765   -0.000278    0.000122   -0.000038
   14.883968    0.210740    0.210673    0.210712    0.000095   -0.000085   -0.000006
   15.435226    0.212608    0.212608    0.212610    0.000048   -0.000030    0.000021
   15.986484    0.853496    0.853498    0.853499    0.000035   -0.000031    0.000010
   16.537743    0.650518    0.650515    0.650516    0.000034   -0.000032    0.000006
   17.089001    0.283603    0.283601    0.283602    0.000030   -0.000036   -0.000001
   17.640259    0.636245    0.636244    0.636245    0.000031   -0.000044   -0.000010
   18.191517    0.395217    0.395215    0.395215    0.000038   -0.000060   -0.000024
   18.742775    0.488212    0.488205    0.488202    0.000065   -0.000119   -0.000080
   19.294033    0.077719    0.077697    0.077684   -0.000011    0.000193    0.000168
   19.845291    0.269168    0.269166    0.269166    0.000002    0.000055    0.000068
   20.396549    0.114240    0.114240    0.114241    0.000013    0.000030    0.000052
   20.947807    0.044821    0.044823    0.044823    0.000021    0.000027    0.000049
   21.499065    0.012478    0.012486    0.012483    0.000037    0.000039    0.000062
   22.050323    0.009506    0.009621    0.009563    0.000103    0.000183    0.000172
   22.601581    0.004517    0.004542    0.004530   -0.000072   -0.000040   -0.000048
   23.152840    0.003011    0.003015    0.003014   -0.000029   -0.000025   -0.000015
   23.704098    0.002601    0.002602    0.002603   -0.000017   -0.000020   -0.000006
   24.255356    0.002563    0.002564    0.002565   -0.000012   -0.000017   -0.000002
   24.806614    0.003091    0.003091    0.003092   -0.000009   -0.000015    0.000000
   25.357872    0.008242    0.008242    0.008243   -0.000007   -0.000014    0.000002
   25.909130    0.014873    0.014873    0.014874   -0.000005   -0.000013    0.000002
   26.460388    0.019799    0.019798    0.019800   -0.000004   -0.000012    0.000003
   27.011646    0.080721    0.080721    0.080722   -0.000003   -0.000011    0.000003
   27.562904    0.026420    0.026420    0.026422   -0.000003   -0.000010    0.000004
   28.114162    0.013793    0.013792    0.013794   -0.000002   -0.000010    0.000004
   28.665420    0.026982    0.026982    0.026984   -0.000002   -0.000008    0.000004
   29.216678    0.057501    0.057500    0.057502   -0.000001   -0.000007    0.000005
   29.767937    0.056995    0.056994    0.056997   -0.000000   -0.000005    0.000006
   30.319195    0.035314    0.035313    0.035316    0.000000   -0.000004    0.000006
   30.870453    0.136689    0.136687    0.136690    0.000004   -0.000000    0.000009
   31.421711    0.068777    0.068776    0.068780    0.000001    0.000003    0.000007
   31.972969    0.056513    0.056512    0.056516    0.000003    0.000008    0.000008
   32.524227    0.045198    0.045195    0.045201    0.000003    0.000015    0.000008
[...]
   46.856937    0.000427    0.000419    0.000448    0.000025    0.000129   -0.000007
   47.408195    0.000300    0.000296    0.000308    0.000013    0.000085   -0.000004
   47.959453    0.000230    0.000228    0.000235    0.000009    0.000063   -0.000003
   48.510711    0.000185    0.000184    0.000188    0.000007    0.000050   -0.000002
   49.061970    0.000154    0.000153    0.000156    0.000005    0.000042   -0.000002
   49.613228    0.000130    0.000129    0.000132    0.000004    0.000035   -0.000002
   50.164486    0.000112    0.000112    0.000113    0.000003    0.000031   -0.000001
   50.715744    0.000098    0.000097    0.000099    0.000003    0.000027   -0.000001
   51.267002    0.000086    0.000086    0.000087    0.000002    0.000024   -0.000001
   51.818260    0.000076    0.000076    0.000077    0.000002    0.000022   -0.000001
   52.369518    0.000068    0.000068    0.000069    0.000002    0.000020   -0.000001
   52.920776    0.000061    0.000061    0.000062    0.000002    0.000018   -0.000001
   53.472034    0.000056    0.000055    0.000056    0.000001    0.000017   -0.000001
   54.023292    0.000050    0.000050    0.000051    0.000001    0.000015   -0.000001
   54.574550    0.000046    0.000046    0.000046    0.000001    0.000014   -0.000001

  frequency dependent      REAL DIELECTRIC FUNCTION (independent particle, no local field effects) current-current (2nd set in vasprun.xml)
     E(ev)        X           Y           Z          XY          YZ          ZX
    0.000000   45.465211   45.465331   45.465418   -0.000133   -0.000048   -0.000118
    0.551258  -22.986036  -22.986121  -22.986063    0.000074    0.000037    0.000034
    1.102516   -0.004193   -0.004209   -0.004141    0.000013    0.000009   -0.000010
    1.653774    4.701607    4.701607    4.701678   -0.000001    0.000003   -0.000021
    2.205032    0.563445    0.563425    0.563494    0.000015    0.000011   -0.000009
    2.756290    5.880224    5.880226    5.880298   -0.000004    0.000003   -0.000023
    3.307549    2.664211    2.664203    2.664274    0.000004    0.000006   -0.000018
    3.858807    3.087317    3.087321    3.087393   -0.000004    0.000002   -0.000024
    4.410065    3.444740    3.444789    3.444866   -0.000031   -0.000019   -0.000046
    4.961323   -0.192274   -0.192199   -0.192119   -0.000211    0.000025   -0.000150
    5.512581    2.924614    2.924629    2.924705   -0.000016    0.000000   -0.000035
    6.063839    0.864735    0.864786    0.864864   -0.000144    0.000033   -0.000117
    6.615097    1.635311    1.635312    1.635393   -0.000097    0.000023   -0.000078
    7.166355   -1.734446   -1.734459   -1.734375    0.000031    0.000006   -0.000014
    7.717613   -0.202698   -0.202706   -0.202611    0.000029    0.000002   -0.000024
    8.268871   -0.782056   -0.782078   -0.781965    0.000031   -0.000006   -0.000040
    8.820129   -0.965978   -0.965952   -0.965735    0.000070   -0.000104   -0.000140
    9.371387   -1.541154   -1.541191   -1.541238   -0.000039   -0.000025    0.000052
    9.922646   -0.496404   -0.496434   -0.496412   -0.000009    0.000015    0.000020
   10.473904   -0.562249   -0.562268   -0.562223    0.000051    0.000027   -0.000054
   11.025162   -0.771786   -0.771792   -0.771746   -0.000024    0.000016   -0.000019
   11.576420   -0.401408   -0.401423   -0.401368   -0.000002    0.000009   -0.000002
   12.127678    0.002605    0.002565    0.002623    0.000056    0.000005    0.000033
   12.678936    0.001332    0.001286    0.001367    0.000001    0.000013    0.000002
   13.230194    0.303863    0.303998    0.303956   -0.000155    0.000435    0.000099
   13.781452    0.486336    0.486427    0.486425   -0.000010    0.000097    0.000034
   14.332710    0.169593    0.169829    0.169764    0.000080    0.000177    0.000152
   14.883968    0.420575    0.420549    0.420601   -0.000071   -0.000000    0.000038
   15.435226    0.758159    0.758115    0.758184    0.000009   -0.000007   -0.000004
   15.986484    0.691486    0.691448    0.691516    0.000012    0.000000   -0.000007
   16.537743    0.336861    0.336828    0.336895    0.000010    0.000004   -0.000008
   17.089001    0.622553    0.622522    0.622589    0.000012    0.000008   -0.000008
   17.640259    0.279619    0.279589    0.279656    0.000014    0.000010   -0.000008
   18.191517    0.632765    0.632734    0.632799    0.000019    0.000016   -0.000008
   18.742775    0.142057    0.142016    0.142075    0.000031    0.000043    0.000005
   19.294033    0.313582    0.313603    0.313697   -0.000101    0.000129    0.000121
   19.845291    0.497928    0.497925    0.498003   -0.000019    0.000023    0.000010
   20.396549    0.423182    0.423182    0.423256   -0.000012    0.000022    0.000003
   20.947807    0.499239    0.499245    0.499315   -0.000010    0.000028    0.000001
   21.499065    0.523825    0.523854    0.523913   -0.000016    0.000043    0.000002
   22.050323    0.591177    0.591334    0.591329   -0.000111    0.000081   -0.000040
   22.601581    0.622616    0.622483    0.622628    0.000006   -0.000084   -0.000050
   23.152840    0.659312    0.659236    0.659353    0.000009   -0.000030   -0.000022
   23.704098    0.689853    0.689792    0.689904    0.000008   -0.000016   -0.000017
   24.255356    0.717519    0.717465    0.717575    0.000008   -0.000010   -0.000015
   24.806614    0.744706    0.744655    0.744766    0.000008   -0.000006   -0.000014
   25.357872    0.779019    0.778970    0.779082    0.000007   -0.000004   -0.000014
   25.909130    0.786459    0.786410    0.786525    0.000007   -0.000002   -0.000013
   26.460388    0.801582    0.801533    0.801652    0.000007   -0.000000   -0.000013
   27.011646    0.834658    0.834608    0.834730    0.000007    0.000001   -0.000014
   27.562904    0.776012    0.775961    0.776088    0.000007    0.000002   -0.000014
   28.114162    0.808696    0.808644    0.808776    0.000007    0.000003   -0.000014
   28.665420    0.857933    0.857879    0.858017    0.000007    0.000003   -0.000014
   29.216678    0.842531    0.842474    0.842619    0.000006    0.000004   -0.000015
   29.767937    0.844403    0.844344    0.844496    0.000006    0.000005   -0.000015
   30.319195    0.893520    0.893456    0.893618    0.000004    0.000006   -0.000017
   30.870453    0.833903    0.833834    0.834006    0.000004    0.000007   -0.000016
   31.421711    0.857906    0.857833    0.858019    0.000003    0.000006   -0.000017
   31.972969    0.825127    0.825046    0.825249   -0.000000    0.000007   -0.000018
   32.524227    0.884980    0.884890    0.885113   -0.000005    0.000008   -0.000018
[...]
   46.856937    0.900891    0.901004    0.900613   -0.000092   -0.000016    0.000064
   47.408195    0.905114    0.905194    0.904914   -0.000063   -0.000016    0.000044
   47.959453    0.908707    0.908772    0.908547   -0.000048   -0.000014    0.000034
   48.510711    0.911891    0.911946    0.911756   -0.000039   -0.000013    0.000029
   49.061970    0.914778    0.914826    0.914660   -0.000034   -0.000012    0.000025
   49.613228    0.917431    0.917474    0.917325   -0.000029   -0.000011    0.000022
   50.164486    0.919893    0.919932    0.919798   -0.000026   -0.000010    0.000019
   50.715744    0.922195    0.922231    0.922108   -0.000023   -0.000009    0.000018
   51.267002    0.924359    0.924393    0.924279   -0.000021   -0.000009    0.000016
   51.818260    0.926402    0.926433    0.926328   -0.000019   -0.000008    0.000015
   52.369518    0.928338    0.928367    0.928268   -0.000018   -0.000008    0.000014
   52.920776    0.930176    0.930204    0.930111   -0.000017   -0.000007    0.000013
   53.472034    0.931927    0.931953    0.931866   -0.000015   -0.000007    0.000012
   54.023292    0.933598    0.933623    0.933540   -0.000014   -0.000007    0.000011
   54.574550    0.935196    0.935219    0.935141   -0.000014   -0.000006    0.000011

 The outermost node in the dielectric function lies at epsilon=  12.8

 Spin-Orbit-Coupling matrix elements

 Ion:    1  E_soc:    -32.5436716
 l=   1
     0.0000000    -5.0042191    -5.0042188
    -5.0042191     0.0000000    -5.0042191
    -5.0042188    -5.0042191     0.0000000
 l=   2
     0.0000000    -0.0839492     0.0000000    -0.0839492    -0.3357704
    -0.0839492     0.0000000    -0.2518278    -0.0839559    -0.0839492
     0.0000000    -0.2518278     0.0000000    -0.2518278     0.0000000
    -0.0839492    -0.0839559    -0.2518278     0.0000000    -0.0839492
    -0.3357704    -0.0839492     0.0000000    -0.0839492     0.0000000
 l=   3
     0.0000000     0.0000000     0.0000000     0.0000000     0.0000000     0.0000000     0.0000000
     0.0000000     0.0000000     0.0000000     0.0000000     0.0000000     0.0000000     0.0000000
     0.0000000     0.0000000     0.0000000     0.0000000     0.0000000     0.0000000     0.0000000
     0.0000000     0.0000000     0.0000000     0.0000000     0.0000000     0.0000000     0.0000000
     0.0000000     0.0000000     0.0000000     0.0000000     0.0000000     0.0000000     0.0000000
     0.0000000     0.0000000     0.0000000     0.0000000     0.0000000     0.0000000     0.0000000
     0.0000000     0.0000000     0.0000000     0.0000000     0.0000000     0.0000000     0.0000000