 vasp.5.4.4.18Apr17-6-g9f103f2a35 (build Jul 09 2018 16:43:14) complex

 executed on             LinuxIFC date 2018.11.23  03:10:10

 INCAR:
 POTCAR:    PAW Og, JanMewes Oct 18

 POTCAR:    PAW Og, JanMewes Oct 18
   VRHFIN =Og : 10d 2s 6p, PE

   TITEL  = PAW Og, JanMewes Oct 18
   POMASS =    0.010; ZVAL   =   18.000    mass and valenz
   ENMAX  =  339.336; ENMIN  =  254.502 eV
   QCUT   =   -4.994; QGAM   =    9.988    optimization parameters

  PAW Og, JanMewes Oct 18               :

 POSCAR: Og_FCC
  positions in direct lattice
  velocities in cartesian coordinates
 exchange correlation table for  LEXCH =       14
   RHO(1)=    0.500       N(1)  =     2000
   RHO(2)=  100.500       N(2)  =     4000

 ion  position               nearest neighbor table
   1  0.000  0.000  0.000-

  LATTYP: Found a face centered cubic cell.
 ALAT       =     6.1885986981

  Lattice vectors:

 A1 = (   4.3760001054,   0.0000000000,   0.0000000000)
 A2 = (   2.1880000527,   3.7897272582,  -0.0000000000)
 A3 = (   2.1880000527,   1.2632424194,   3.5729891243)

Analysis of symmetry for initial positions (statically):
 Subroutine PRICEL returns:
 Original cell was already a primitive cell.

 Routine SETGRP: Setting up the symmetry group for a
 face centered cubic supercell.

 Subroutine GETGRP returns: Found 48 space group operations
 (whereof 48 operations were pure point group operations)
 out of a pool of 48 trial point group operations.

The static configuration has the point symmetry O_h .

Analysis of symmetry for dynamics (positions and initial velocities):
 Subroutine PRICEL returns:
 Original cell was already a primitive cell.

[...]

The dynamic configuration has the point symmetry O_h .

Analysis of structural, dynamic, and magnetic symmetry:
 Subroutine PRICEL returns:
 Original cell was already a primitive cell.

 Routine SETGRP: Setting up the symmetry group for a
 face centered cubic supercell.

 Subroutine GETGRP returns: Found  2 space group operations
 (whereof  2 operations were pure point group operations)
 out of a pool of 48 trial point group operations.

The (compounded) configuration has the point symmetry S_2 .

 Subroutine INISYM returns: Found  2 space group operations
 (whereof  2 operations are pure point group operations),
 and found     1 'primitive' translations

Automatic generation of k-mesh.
 generate k-points for:    9    9    9
Space group operators:
 irot       det(A)        alpha          n_x          n_y          n_z        tau_x        tau_y        tau_z
    1     1.000000     0.000000     1.000000     0.000000     0.000000     0.000000     0.000000     0.000000
    2    -1.000000     0.000000     1.000000     0.000000     0.000000     0.000000     0.000000     0.000000

 Subroutine IBZKPT returns following result:

 Found    365 irreducible k-points:

 Following reciprocal coordinates:
            Coordinates               Weight
  0.000000  0.000000  0.000000      1.000000
  0.111111  0.000000  0.000000      2.000000
  0.222222  0.000000 -0.000000      2.000000
  0.333333  0.000000 -0.000000      2.000000
  0.444444  0.000000 -0.000000      2.000000
 -0.000000  0.111111  0.000000      2.000000
  0.111111  0.111111  0.000000      2.000000
  0.222222  0.111111  0.000000      2.000000
  0.333333  0.111111 -0.000000      2.000000
  0.444444  0.111111 -0.000000      2.000000
 -0.444444  0.111111  0.000000      2.000000
 -0.333333  0.111111  0.000000      2.000000
 -0.222222  0.111111  0.000000      2.000000
 -0.111111  0.111111 -0.000000      2.000000
  0.000000  0.222222  0.000000      2.000000
  0.111111  0.222222 -0.000000      2.000000
  0.222222  0.222222  0.000000      2.000000
  0.333333  0.222222 -0.000000      2.000000
  0.444444  0.222222 -0.000000      2.000000
 -0.444444  0.222222  0.000000      2.000000
 -0.333333  0.222222  0.000000      2.000000
 -0.222222  0.222222  0.000000      2.000000
 -0.111111  0.222222  0.000000      2.000000
 -0.000000  0.333333  0.000000      2.000000
  0.111111  0.333333  0.000000      2.000000
  0.222222  0.333333  0.000000      2.000000
  0.333333  0.333333 -0.000000      2.000000
  0.444444  0.333333  0.000000      2.000000
 -0.444444  0.333333  0.000000      2.000000
 -0.333333  0.333333  0.000000      2.000000
 -0.222222  0.333333  0.000000      2.000000
 -0.111111  0.333333  0.000000      2.000000
  0.000000  0.444444  0.000000      2.000000
  0.111111  0.444444  0.000000      2.000000
  0.222222  0.444444 -0.000000      2.000000
  0.333333  0.444444  0.000000      2.000000
  0.444444  0.444444  0.000000      2.000000
 -0.444444  0.444444  0.000000      2.000000
 -0.333333  0.444444  0.000000      2.000000
 -0.222222  0.444444  0.000000      2.000000
 -0.111111  0.444444 -0.000000      2.000000
 -0.000000  0.000000  0.111111      2.000000
  0.111111  0.000000  0.111111      2.000000
  0.222222  0.000000  0.111111      2.000000
  0.333333  0.000000  0.111111      2.000000
  0.444444  0.000000  0.111111      2.000000
 -0.444444 -0.000000  0.111111      2.000000
 -0.333333 -0.000000  0.111111      2.000000
 -0.222222 -0.000000  0.111111      2.000000
 -0.111111  0.000000  0.111111      2.000000
 -0.000000  0.111111  0.111111      2.000000
  0.111111  0.111111  0.111111      2.000000
  0.222222  0.111111  0.111111      2.000000
  0.333333  0.111111  0.111111      2.000000
  0.444444  0.111111  0.111111      2.000000
 -0.444444  0.111111  0.111111      2.000000
 -0.333333  0.111111  0.111111      2.000000
 -0.222222  0.111111  0.111111      2.000000
 -0.111111  0.111111  0.111111      2.000000
 -0.000000  0.222222  0.111111      2.000000
[...]
  0.333333 -0.222222  0.444444      2.000000
  0.444444 -0.222222  0.444444      2.000000
 -0.444444 -0.222222  0.444444      2.000000
 -0.333333 -0.222222  0.444444      2.000000
 -0.222222 -0.222222  0.444444      2.000000
 -0.111111 -0.222222  0.444444      2.000000
 -0.000000 -0.111111  0.444444      2.000000
  0.111111 -0.111111  0.444444      2.000000
  0.222222 -0.111111  0.444444      2.000000
  0.333333 -0.111111  0.444444      2.000000
  0.444444 -0.111111  0.444444      2.000000
 -0.444444 -0.111111  0.444444      2.000000
 -0.333333 -0.111111  0.444444      2.000000
 -0.222222 -0.111111  0.444444      2.000000
 -0.111111 -0.111111  0.444444      2.000000

 Following cartesian coordinates:
            Coordinates               Weight
  0.000000  0.000000  0.000000      1.000000
  0.025518 -0.014733 -0.010418      2.000000
  0.051036 -0.029466 -0.020835      2.000000
  0.076554 -0.044198 -0.031253      2.000000
  0.102072 -0.058931 -0.041671      2.000000
  0.000000  0.029466 -0.010418      2.000000
  0.025518  0.014733 -0.020835      2.000000
  0.051036 -0.000000 -0.031253      2.000000
  0.076554 -0.014733 -0.041671      2.000000
  0.102072 -0.029466 -0.052088      2.000000
 -0.102072  0.088397  0.031253      2.000000
 -0.076554  0.073664  0.020835      2.000000
 -0.051036  0.058931  0.010418      2.000000
 -0.025518  0.044198 -0.000000      2.000000
  0.000000  0.058931 -0.020835      2.000000
  0.025518  0.044198 -0.031253      2.000000
  0.051036  0.029466 -0.041671      2.000000
  0.076554  0.014733 -0.052088      2.000000
  0.102072 -0.000000 -0.062506      2.000000
 -0.102072  0.117862  0.020835      2.000000
 -0.076554  0.103130  0.010418      2.000000
 -0.051036  0.088397  0.000000      2.000000
 -0.025518  0.073664 -0.010418      2.000000
  0.000000  0.088397 -0.031253      2.000000
  0.025518  0.073664 -0.041671      2.000000
  0.051036  0.058931 -0.052088      2.000000
  0.076554  0.044198 -0.062506      2.000000
  0.102072  0.029466 -0.072924      2.000000
 -0.102072  0.147328  0.010418      2.000000
 -0.076554  0.132595  0.000000      2.000000
 -0.051036  0.117862 -0.010418      2.000000
 -0.025518  0.103130 -0.020835      2.000000
  0.000000  0.117862 -0.041671      2.000000
  0.025518  0.103130 -0.052088      2.000000
  0.051036  0.088397 -0.062506      2.000000
  0.076554  0.073664 -0.072924      2.000000
  0.102072  0.058931 -0.083341      2.000000
 -0.102072  0.176794  0.000000      2.000000
 -0.076554  0.162061 -0.010418      2.000000
 -0.051036  0.147328 -0.020835      2.000000
 -0.025518  0.132595 -0.031253      2.000000
 -0.000000  0.000000  0.031253      2.000000
  0.025518 -0.014733  0.020835      2.000000
  0.051036 -0.029466  0.010418      2.000000
  0.076554 -0.044198 -0.000000      2.000000
  0.102072 -0.058931 -0.010418      2.000000
 -0.102072  0.058931  0.072924      2.000000
 -0.076554  0.044198  0.062506      2.000000
 -0.051036  0.029466  0.052088      2.000000
 -0.025518  0.014733  0.041671      2.000000
 -0.000000  0.029466  0.020835      2.000000
  0.025518  0.014733  0.010418      2.000000
  0.051036 -0.000000 -0.000000      2.000000
  0.076554 -0.014733 -0.010418      2.000000
  0.102072 -0.029466 -0.020835      2.000000
 -0.102072  0.088397  0.062506      2.000000
 -0.076554  0.073664  0.052088      2.000000
 -0.051036  0.058931  0.041671      2.000000
 -0.025518  0.044198  0.031253      2.000000
 -0.000000  0.058931  0.010418      2.000000
[...]
  0.076554 -0.103130  0.114594      2.000000
  0.102072 -0.117862  0.104177      2.000000
 -0.102072  0.000000  0.187518      2.000000
 -0.076554 -0.014733  0.177100      2.000000
 -0.051036 -0.029466  0.166683      2.000000
 -0.025518 -0.044198  0.156265      2.000000
 -0.000000 -0.029466  0.135430      2.000000
  0.025518 -0.044198  0.125012      2.000000
  0.051036 -0.058931  0.114594      2.000000
  0.076554 -0.073664  0.104177      2.000000
  0.102072 -0.088397  0.093759      2.000000
 -0.102072  0.029466  0.177100      2.000000
 -0.076554  0.014733  0.166683      2.000000
 -0.051036  0.000000  0.156265      2.000000
 -0.025518 -0.014733  0.145847      2.000000

 SYSTEM =  Og_FCC
 POSCAR =  Og_FCC

 Startparameter for this run:
   NWRITE =      2    write-flag & timer
   PREC   = accura    normal or accurate (medium, high low for compatibility)
   ISTART =      0    job   : 0-new  1-cont  2-samecut
   ICHARG =      2    charge: 1-file 2-atom 10-const
   ISPIN  =      1    spin polarized calculation?
   LNONCOLLINEAR =      T non collinear calculations
   LSORBIT =      T    spin-orbit coupling
   INIWAV =      1    electr: 0-lowe 1-rand  2-diag
   LASPH  =      F    aspherical Exc in radial PAW
   METAGGA=      F    non-selfconsistent MetaGGA calc.

 Electronic Relaxation 1
   ENCUT  =  600.0 eV  44.10 Ry    6.64 a.u.   8.74  8.74  8.74*2*pi/ulx,y,z
   ENINI  =  600.0     initial cutoff
   ENAUG  =  361.0 eV  augmentation charge cutoff
   NELM   =    100;   NELMIN=  5; NELMDL= -5     # of ELM steps
   EDIFF  = 0.1E-06   stopping-criterion for ELM
   LREAL  =      F    real-space projection
   NLSPLINE    = F    spline interpolate recip. space projectors
   LCOMPAT=      F    compatible to vasp.4.4
   GGA_COMPAT  = F    GGA compatible to vasp.4.4-vasp.4.6
   LMAXPAW     = -100 max onsite density
   LMAXMIX     =    2 max onsite mixed and CHGCAR
   VOSKOWN=      0    Vosko Wilk Nusair interpolation
   ROPT   =    0.00000
 Ionic relaxation
   EDIFFG = 0.1E-04   stopping-criterion for IOM
   NSW    =      1    number of steps for IOM
[...]
 k-point 49 :  -0.2222-0.0000 0.1111  plane waves:    3946
 k-point 50 :  -0.1111 0.0000 0.1111  plane waves:    3950
 k-point 51 :  -0.0000 0.1111 0.1111  plane waves:    3946
 k-point 52 :   0.1111 0.1111 0.1111  plane waves:    3966
 k-point 53 :   0.2222 0.1111 0.1111  plane waves:    3950
 k-point 54 :   0.3333 0.1111 0.1111  plane waves:    3946
 k-point 55 :   0.4444 0.1111 0.1111  plane waves:    3948
 k-point 56 :  -0.4444 0.1111 0.1111  plane waves:    3966
 k-point 57 :  -0.3333 0.1111 0.1111  plane waves:    3956
 k-point 58 :  -0.2222 0.1111 0.1111  plane waves:    3962
 k-point 59 :  -0.1111 0.1111 0.1111  plane waves:    3952
 k-point 60 :  -0.0000 0.2222 0.1111  plane waves:    3952
[...]
 k-point 85 :  -0.2222 0.4444 0.1111  plane waves:    3946
 k-point 86 :  -0.1111 0.4444 0.1111  plane waves:    3954
 k-point 87 :   0.0000-0.4444 0.1111  plane waves:    3966
 k-point 88 :   0.1111-0.4444 0.1111  plane waves:    3966
 k-point 89 :   0.2222-0.4444 0.1111  plane waves:    3954
 k-point 90 :   0.3333-0.4444 0.1111  plane waves:    3978
 k-point 91 :   0.4444-0.4444 0.1111  plane waves:    3984
 k-point 92 :  -0.4444-0.4444 0.1111  plane waves:    3972
 k-point 93 :  -0.3333-0.4444 0.1111  plane waves:    3984
 k-point 94 :  -0.2222-0.4444 0.1111  plane waves:    3978
 k-point 95 :  -0.1111-0.4444 0.1111  plane waves:    3954
 k-point 96 :  -0.0000-0.3333 0.1111  plane waves:    3948
 k-point 97 :   0.1111-0.3333 0.1111  plane waves:    3956
 k-point 98 :   0.2222-0.3333 0.1111  plane waves:    3954
 k-point 99 :   0.3333-0.3333 0.1111  plane waves:    3946
 k-point ** :   0.4444-0.3333 0.1111  plane waves:    3930
 k-point ** :  -0.4444-0.3333 0.1111  plane waves:    3984
 k-point ** :  -0.3333-0.3333 0.1111  plane waves:    3986
 k-point ** :  -0.2222-0.3333 0.1111  plane waves:    3936
 k-point ** :  -0.1111-0.3333 0.1111  plane waves:    3948
 k-point ** :  -0.0000-0.2222 0.1111  plane waves:    3946
 k-point ** :   0.1111-0.2222 0.1111  plane waves:    3962
 k-point ** :   0.2222-0.2222 0.1111  plane waves:    3948
 k-point ** :   0.3333-0.2222 0.1111  plane waves:    3972
 k-point ** :   0.4444-0.2222 0.1111  plane waves:    3946
 k-point ** :  -0.4444-0.2222 0.1111  plane waves:    3978
 k-point ** :  -0.3333-0.2222 0.1111  plane waves:    3936
 k-point ** :  -0.2222-0.2222 0.1111  plane waves:    3972
 k-point ** :  -0.1111-0.2222 0.1111  plane waves:    3952
 k-point ** :  -0.0000-0.1111 0.1111  plane waves:    3950
 k-point ** :   0.1111-0.1111 0.1111  plane waves:    3952
 k-point ** :   0.2222-0.1111 0.1111  plane waves:    3952
 k-point ** :   0.3333-0.1111 0.1111  plane waves:    3948
 k-point ** :   0.4444-0.1111 0.1111  plane waves:    3954
 k-point ** :  -0.4444-0.1111 0.1111  plane waves:    3954
 k-point ** :  -0.3333-0.1111 0.1111  plane waves:    3948
 k-point ** :  -0.2222-0.1111 0.1111  plane waves:    3952
 k-point ** :  -0.1111-0.1111 0.1111  plane waves:    3952
 k-point ** :   0.0000 0.0000 0.2222  plane waves:    3946
 k-point ** :   0.1111 0.0000 0.2222  plane waves:    3952
 k-point ** :   0.2222 0.0000 0.2222  plane waves:    3976
 k-point ** :   0.3333-0.0000 0.2222  plane waves:    3972
 k-point ** :   0.4444 0.0000 0.2222  plane waves:    3950
 k-point ** :  -0.4444-0.0000 0.2222  plane waves:    3930
 k-point ** :  -0.3333-0.0000 0.2222  plane waves:    3966
 k-point ** :  -0.2222-0.0000 0.2222  plane waves:    3962
 k-point ** :  -0.1111-0.0000 0.2222  plane waves:    3946
 k-point ** :   0.0000 0.1111 0.2222  plane waves:    3952
 k-point ** :   0.1111 0.1111 0.2222  plane waves:    3950
 k-point ** :   0.2222 0.1111 0.2222  plane waves:    3952
 k-point ** :   0.3333 0.1111 0.2222  plane waves:    3952
 k-point ** :   0.4444 0.1111 0.2222  plane waves:    3948
 k-point ** :  -0.4444 0.1111 0.2222  plane waves:    3954
 k-point ** :  -0.3333 0.1111 0.2222  plane waves:    3954
 k-point ** :  -0.2222 0.1111 0.2222  plane waves:    3948
 k-point ** :  -0.1111 0.1111 0.2222  plane waves:    3952
 k-point ** :  -0.0000 0.2222 0.2222  plane waves:    3976
 k-point ** :   0.1111 0.2222 0.2222  plane waves:    3952
 k-point ** :   0.2222 0.2222 0.2222  plane waves:    3946
 k-point ** :   0.3333 0.2222 0.2222  plane waves:    3946
 k-point ** :   0.4444 0.2222 0.2222  plane waves:    3962
 k-point ** :  -0.4444 0.2222 0.2222  plane waves:    3966
 k-point ** :  -0.3333 0.2222 0.2222  plane waves:    3930
 k-point ** :  -0.2222 0.2222 0.2222  plane waves:    3950
 k-point ** :  -0.1111 0.2222 0.2222  plane waves:    3972
 k-point ** :  -0.0000 0.3333 0.2222  plane waves:    3972
 k-point ** :   0.1111 0.3333 0.2222  plane waves:    3952
 k-point ** :   0.2222 0.3333 0.2222  plane waves:    3946
 k-point ** :   0.3333 0.3333 0.2222  plane waves:    3962
 k-point ** :   0.4444 0.3333 0.2222  plane waves:    3948
 k-point ** :  -0.4444 0.3333 0.2222  plane waves:    3972
 k-point ** :  -0.3333 0.3333 0.2222  plane waves:    3946
 k-point ** :  -0.2222 0.3333 0.2222  plane waves:    3978
 k-point ** :  -0.1111 0.3333 0.2222  plane waves:    3936
 k-point ** :   0.0000 0.4444 0.2222  plane waves:    3950
[...]
 k-point ** :   0.3333-0.2222 0.4444  plane waves:    3930
 k-point ** :   0.4444-0.2222 0.4444  plane waves:    3954
 k-point ** :  -0.4444-0.2222 0.4444  plane waves:    3978
 k-point ** :  -0.3333-0.2222 0.4444  plane waves:    3972
 k-point ** :  -0.2222-0.2222 0.4444  plane waves:    3966
 k-point ** :  -0.1111-0.2222 0.4444  plane waves:    3954
 k-point ** :  -0.0000-0.1111 0.4444  plane waves:    3966
 k-point ** :   0.1111-0.1111 0.4444  plane waves:    3954
 k-point ** :   0.2222-0.1111 0.4444  plane waves:    3978
 k-point ** :   0.3333-0.1111 0.4444  plane waves:    3984
 k-point ** :   0.4444-0.1111 0.4444  plane waves:    3972
 k-point ** :  -0.4444-0.1111 0.4444  plane waves:    3984
 k-point ** :  -0.3333-0.1111 0.4444  plane waves:    3978
 k-point ** :  -0.2222-0.1111 0.4444  plane waves:    3954
 k-point ** :  -0.1111-0.1111 0.4444  plane waves:    3966

 maximum and minimum number of plane-waves per node :      1036      934

 maximum number of plane-waves:      4008
 maximum index in each direction:
   IXMAX=    9   IYMAX=    9   IZMAX=    8
   IXMIN=   -9   IYMIN=   -9   IZMIN=   -9

 parallel 3D FFT for wavefunctions:
    minimum data exchange during FFTs selected (reduces bandwidth)
 parallel 3D FFT for charge:
    minimum data exchange during FFTs selected (reduces bandwidth)

 Broyden mixing: mesh for mixing (old mesh)
   NGX = 17   NGY = 17   NGZ = 17
  (NGX  = 72   NGY  = 72   NGZ  = 72)
  gives a total of   4913 points

 initial charge density was supplied:
 charge density of overlapping atoms calculated
 number of electron      18.0000000 magnetization       1.0000000      1.0000000      1.0000000
 keeping initial charge density in first step

 Maximum index for augmentation-charges        91623 (set IRDMAX)

 First call to EWALD:  gamma=   0.455
 Maximum number of real-space cells 3x 3x 3
 Maximum number of reciprocal cells 3x 3x 3

--------------------------------------- Iteration      1(   1)  ---------------------------------------

 eigenvalue-minimisations  : 21064
 total energy-change (2. order) : 0.3070965E+03  (-0.9598192E+03)
 number of electron      18.0000000 magnetization       1.0000000      1.0000000      1.0000000
 augmentation part       18.0000000 magnetization       1.0000000      1.0000000      1.0000000

 Free energy of the ion-electron system (eV)
  alpha Z        PSCENC =        64.38827330
  Ewald energy   TEWEN  =     -1728.24393462
  -Hartree energ DENC   =      -668.69885657
  -exchange      EXHF   =         0.00000000
  -V(xc)+E(xc)   XCENC  =       -66.99526010
  PAW double counting   =      2266.13158641    -2183.94925607
  entropy T*S    EENTRO =        -0.00023236
  eigenvalues    EBANDS =       -17.55330204
  atomic energy  EATOM  =      2642.01744135
  Solvation  Ediel_sol  =         0.00000000
  free energy    TOTEN  =       307.09645930 eV

  energy without entropy =      307.09669166  energy(sigma->0) =      307.09653675

[...]

 eigenvalue-minimisations  : 26944
 total energy-change (2. order) :-0.3055817E+03  (-0.2961420E+03)
 number of electron      18.0000000 magnetization       1.0000000      1.0000000      1.0000000
 augmentation part       18.0000000 magnetization       1.0000000      1.0000000      1.0000000

[...]

 Broyden mixing:
  rms(total) = 0.63251E+00    rms(broyden)= 0.63248E+00
  rms(prec ) = 0.86559E+00
  weight for this iteration     100.00

[...]

 eigenvalues of (default mixing * dielectric matrix)
  average eigenvalue GAMMA=   0.7690
  0.7690

[...]

 eigenvalue-minimisations  : 29548
 total energy-change (2. order) :-0.2871916E-06  (-0.1363134E-06)
 number of electron      18.0000000 magnetization      -0.0000035     -0.0000033     -0.0000038
 augmentation part        2.7937294 magnetization      -0.0000017     -0.0000023     -0.0000024

[...]

 Broyden mixing:
  rms(total) = 0.25021E-04    rms(broyden)= 0.25013E-04
  rms(prec ) = 0.65419E-04
  weight for this iteration     100.00

 eigenvalues of (default mixing * dielectric matrix)
  average eigenvalue GAMMA=   1.4048
  3.3418  2.7553  2.5988  1.3380  1.0744  0.8636  0.7667  0.7453  0.6998  0.6256
  0.6433

[...]

--------------------------------------- Iteration      1(  17)  ---------------------------------------

 eigenvalue-minimisations  : 19540
 total energy-change (2. order) : 0.6370738E-07  (-0.8300430E-08)
 number of electron      18.0000000 magnetization      -0.0000014     -0.0000015     -0.0000016
 augmentation part        2.7937134 magnetization      -0.0000010     -0.0000012     -0.0000011

 Free energy of the ion-electron system (eV)
  alpha Z        PSCENC =        64.38827330
  Ewald energy   TEWEN  =     -1728.24393462
  -Hartree energ DENC   =      -680.68237836
  -exchange      EXHF   =         0.00000000
  -V(xc)+E(xc)   XCENC  =       -66.68835302
  PAW double counting   =      2310.54691849    -2237.14120384
  entropy T*S    EENTRO =        -0.00002582
  eigenvalues    EBANDS =      -317.79174856
  atomic energy  EATOM  =      2642.01744135
  Solvation  Ediel_sol  =         0.00000000
  free energy    TOTEN  =       -13.59501108 eV

  energy without entropy =      -13.59498526  energy(sigma->0) =      -13.59500247

 average (electrostatic) potential at core
  the test charge radii are     1.2024
  (the norm of the test charge is              1.0000)
       1-109.9948

 E-fermi :   3.5782     XC(G=0):  -8.3097     alpha+bet : -7.4058

 k-point     1 :       0.0000    0.0000    0.0000
  band No.  band energies     occupation
      1     -30.7927      1.00000
      2     -30.7927      1.00000
      3     -30.7927      1.00000
      4     -30.7927      1.00000
      5     -24.1046      1.00000
      6     -24.1046      1.00000
      7     -24.1010      1.00000
      8     -24.1010      1.00000
      9     -24.1010      1.00000
     10     -24.1010      1.00000
     11     -20.5223      1.00000
     12     -20.5223      1.00000
     13      -7.2929      1.00000
     14      -7.2929      1.00000
     15       3.3220      1.00087
     16       3.3220      1.00087
     17       3.5722      0.55050
     18       3.5722      0.55049
     19       3.5722      0.55048
     20       3.5722      0.55048
     21      10.4638      0.00000
     22      10.4638      0.00000
     23      10.4638      0.00000
     24      10.4638      0.00000
     25      10.7300      0.00000
     26      10.7300      0.00000
     27      10.8757      0.00000
     28      10.8757      0.00000

[...]

 k-point   365 :      -0.1111   -0.1111    0.4444
  band No.  band energies     occupation
      1     -30.7919      1.00000
      2     -30.7919      1.00000
      3     -30.7900      1.00000
      4     -30.7900      1.00000
      5     -24.1027      1.00000
      6     -24.1027      1.00000
      7     -24.0968      1.00000
      8     -24.0968      1.00000
      9     -24.0942      1.00000
     10     -24.0942      1.00000
     11     -20.4161      1.00000
     12     -20.4161      1.00000
     13      -7.6435      1.00000
     14      -7.6435      1.00000
     15       0.4360      1.00000
     16       0.4360      1.00000
     17       2.6508      1.00000
     18       2.6508      1.00000
     19       6.3406      0.00000
     20       6.3407      0.00000
     21       8.9069      0.00000
     22       8.9070      0.00000
     23      10.2812      0.00000
     24      10.2812      0.00000
     25      11.0897      0.00000
     26      11.0897      0.00000
     27      12.0582      0.00000
     28      12.0582      0.00000

 soft charge-density along one line, spin component           1
         0         1         2         3         4         5         6         7         8         9
 total charge-density along one line

[...]

 soft charge-density along one line, spin component           4
         0         1         2         3         4         5         6         7         8         9
 total charge-density along one line

------------------------ aborting loop because EDIFF is reached ----------------------------------------

  FORCE on cell =-STRESS in cart. coord.  units (eV):
  Direction    XX          YY          ZZ          XY          YZ          ZX
  Alpha Z    64.38827    64.38827    64.38827
  Ewald    -576.08133  -576.08133  -576.08133    -0.00000    -0.00000    -0.00000
  Hartree   226.89499   226.89499   226.89499    -0.00000    -0.00000    -0.00000
  E(xc)    -110.13000  -110.13000  -110.13000    -0.00000     0.00000    -0.00000
  Local    -171.91755  -171.91756  -171.91757     0.00002     0.00002     0.00001
  n-local    95.73068    95.73068    95.73067     0.00001     0.00000     0.00000
  augment    73.91696    73.91697    73.91697    -0.00000    -0.00000    -0.00000
  Kinetic   397.15510   397.15511   397.15512    -0.00000     0.00001     0.00000
  Fock        0.00000     0.00000     0.00000     0.00000     0.00000     0.00000
  Total      -0.04287    -0.04287    -0.04287     0.00002     0.00002     0.00001
  in kB      -1.15918    -1.15909    -1.15922     0.00042     0.00055     0.00031

 VOLUME and BASIS-vectors are now :
  energy-cutoff  :      600.00
  volume of cell :       59.25
      direct lattice vectors                 reciprocal lattice vectors
     4.376000105  0.000000000  0.000000000     0.228519190 -0.131935616 -0.093292569
     2.188000053  3.789727258 -0.000000000     0.000000000  0.263871232 -0.093292569
     2.188000053  1.263242419  3.572989124    -0.000000000  0.000000000  0.279877706

  length of vectors
     4.376000105  4.376000105  4.376000105     0.279877706  0.279877706  0.279877706

 FORCES acting on ions
    electron-ion (+dipol)            ewald-force                    non-local-force                 convergence-correction
   0.162E-13 0.408E-13 -.558E-14   -.405E-15 -.222E-15 -.522E-15   0.000E+00 0.000E+00 0.000E+00   -.122E-12 -.290E-14 -.515E-13
   0.162E-13 0.408E-13 -.558E-14   -.405E-15 -.222E-15 -.522E-15   0.000E+00 0.000E+00 0.000E+00   -.122E-12 -.290E-14 -.515E-13

 POSITION                                       TOTAL-FORCE (eV/Angst)
      0.00000      0.00000      0.00000        -0.000000     -0.000000      0.000000
    total drift:                               -0.000000      0.000000     -0.000000

  FREE ENERGIE OF THE ION-ELECTRON SYSTEM (eV)
  free  energy   TOTEN  =       -13.59501108 eV

  energy  without entropy=      -13.59498526  energy(sigma->0) =      -13.59500247

 Spin-Orbit-Coupling matrix elements

 Ion:    1  E_soc:    -33.3051332
 l=   1
     0.0000000    -5.1261405    -5.1261405
    -5.1261405     0.0000000    -5.1261397
    -5.1261405    -5.1261397     0.0000000
 l=   2
     0.0000000    -0.0849496     0.0000000    -0.0849496    -0.3397548
    -0.0849496     0.0000000    -0.2548161    -0.0849605    -0.0849496
     0.0000000    -0.2548161     0.0000000    -0.2548161     0.0000000
    -0.0849496    -0.0849605    -0.2548161     0.0000000    -0.0849496
    -0.3397548    -0.0849496     0.0000000    -0.0849496     0.0000000
 l=   3
     0.0000000     0.0000000     0.0000000     0.0000000     0.0000000     0.0000000     0.0000000
     0.0000000     0.0000000     0.0000000     0.0000000     0.0000000     0.0000000     0.0000000
     0.0000000     0.0000000     0.0000000     0.0000000     0.0000000     0.0000000     0.0000000
     0.0000000     0.0000000     0.0000000     0.0000000     0.0000000     0.0000000     0.0000000
     0.0000000     0.0000000     0.0000000     0.0000000     0.0000000     0.0000000     0.0000000
     0.0000000     0.0000000     0.0000000     0.0000000     0.0000000     0.0000000     0.0000000
     0.0000000     0.0000000     0.0000000     0.0000000     0.0000000     0.0000000     0.0000000