 vasp.5.4.4.18Apr17-6-g9f103f2a35 (build Jul 09 2018 16:43:14) complex

 executed on             LinuxIFC date 2018.11.29  20:43:02

 INCAR:
 POTCAR:    PAW_PBE Kr_GW 21Aug2013

 POTCAR:    PAW_PBE Kr_GW 21Aug2013
   VRHFIN =Kr: s2p6

   TITEL  = PAW_PBE Kr_GW 21Aug2013
   POMASS =   83.800; ZVAL   =    8.000    mass and valenz
   ENMAX  =  252.232; ENMIN  =  189.174 eV

  PAW_PBE Kr_GW 21Aug2013               :

 POSCAR: Kr_FCC
  positions in direct lattice
  velocities in cartesian coordinates

 METAGGA = SCAN     LMAXTAU =  0    LMIXTAU =  F

 ion  position               nearest neighbor table
   1  0.000  0.000  0.000-

IMPORTANT INFORMATION: All symmetrisations will be switched off!
NOSYMM: (Re-)initialisation of all symmetry stuff for point group C_1.

 KPOINTS: k-points

Automatic generation of k-mesh.
Space group operators:
 irot       det(A)        alpha          n_x          n_y          n_z        tau_x        tau_y        tau_z
    1     1.000000     0.000001     1.000000     0.000000     0.000000     0.000000     0.000000     0.000000

 Subroutine IBZKPT returns following result:

 Found    216 irreducible k-points:

 Following reciprocal coordinates:
            Coordinates               Weight
  0.000000  0.000000  0.000000      1.000000
  0.166667 -0.000000 -0.000000      1.000000
  0.333333  0.000000  0.000000      1.000000
  0.500000  0.000000  0.000000      1.000000
 -0.333333 -0.000000  0.000000      1.000000
 -0.166667  0.000000  0.000000      1.000000
  0.000000  0.166667  0.000000      1.000000
  0.166667  0.166667  0.000000      1.000000
  0.333333  0.166667  0.000000      1.000000
  0.500000  0.166667  0.000000      1.000000
 -0.333333  0.166667  0.000000      1.000000
 -0.166667  0.166667  0.000000      1.000000
  0.000000  0.333333 -0.000000      1.000000
  0.166667  0.333333  0.000000      1.000000
  0.333333  0.333333 -0.000000      1.000000
  0.500000  0.333333 -0.000000      1.000000
 -0.333333  0.333333 -0.000000      1.000000
 -0.166667  0.333333  0.000000      1.000000
  0.000000  0.500000  0.000000      1.000000
  0.166667  0.500000  0.000000      1.000000
  0.333333  0.500000  0.000000      1.000000
  0.500000  0.500000  0.000000      1.000000
 -0.333333  0.500000 -0.000000      1.000000
 -0.166667  0.500000  0.000000      1.000000
 -0.000000 -0.333333  0.000000      1.000000
  0.166667 -0.333333  0.000000      1.000000
  0.333333 -0.333333  0.000000      1.000000
  0.500000 -0.333333  0.000000      1.000000
 -0.333333 -0.333333  0.000000      1.000000
 -0.166667 -0.333333  0.000000      1.000000
 -0.000000 -0.166667 -0.000000      1.000000
  0.166667 -0.166667 -0.000000      1.000000
  0.333333 -0.166667 -0.000000      1.000000
  0.500000 -0.166667  0.000000      1.000000
 -0.333333 -0.166667 -0.000000      1.000000
 -0.166667 -0.166667 -0.000000      1.000000
  0.000000  0.000000  0.166667      1.000000
  0.166667  0.000000  0.166667      1.000000
  0.333333 -0.000000  0.166667      1.000000
  0.500000  0.000000  0.166667      1.000000
 -0.333333 -0.000000  0.166667      1.000000
 -0.166667  0.000000  0.166667      1.000000
  0.000000  0.166667  0.166667      1.000000
  0.166667  0.166667  0.166667      1.000000
  0.333333  0.166667  0.166667      1.000000
  0.500000  0.166667  0.166667      1.000000
 -0.333333  0.166667  0.166667      1.000000
 -0.166667  0.166667  0.166667      1.000000
  0.000000  0.333333  0.166667      1.000000
  0.166667  0.333333  0.166667      1.000000
  0.333333  0.333333  0.166667      1.000000
  0.500000  0.333333  0.166667      1.000000
 -0.333333  0.333333  0.166667      1.000000
 -0.166667  0.333333  0.166667      1.000000
  0.000000  0.500000  0.166667      1.000000
  0.166667  0.500000  0.166667      1.000000
  0.333333  0.500000  0.166667      1.000000
  0.500000  0.500000  0.166667      1.000000
 -0.333333  0.500000  0.166667      1.000000
 -0.166667  0.500000  0.166667      1.000000
[...]
  0.500000  0.500000 -0.166667      1.000000
 -0.333333  0.500000 -0.166667      1.000000
 -0.166667  0.500000 -0.166667      1.000000
 -0.000000 -0.333333 -0.166667      1.000000
  0.166667 -0.333333 -0.166667      1.000000
  0.333333 -0.333333 -0.166667      1.000000
  0.500000 -0.333333 -0.166667      1.000000
 -0.333333 -0.333333 -0.166667      1.000000
 -0.166667 -0.333333 -0.166667      1.000000
 -0.000000 -0.166667 -0.166667      1.000000
  0.166667 -0.166667 -0.166667      1.000000
  0.333333 -0.166667 -0.166667      1.000000
  0.500000 -0.166667 -0.166667      1.000000
 -0.333333 -0.166667 -0.166667      1.000000
 -0.166667 -0.166667 -0.166667      1.000000

 Following cartesian coordinates:
            Coordinates               Weight
  0.000000  0.000000  0.000000      1.000000
  0.040499 -0.023382 -0.016534      1.000000
  0.080998 -0.046764 -0.033067      1.000000
  0.121497 -0.070146 -0.049601      1.000000
 -0.080998  0.046764  0.033067      1.000000
 -0.040499  0.023382  0.016534      1.000000
  0.000000  0.046764 -0.016534      1.000000
  0.040499  0.023382 -0.033067      1.000000
  0.080998  0.000000 -0.049601      1.000000
  0.121497 -0.023382 -0.066134      1.000000
 -0.080998  0.093528  0.016534      1.000000
 -0.040499  0.070146  0.000000      1.000000
  0.000000  0.093528 -0.033067      1.000000
  0.040499  0.070146 -0.049601      1.000000
  0.080998  0.046764 -0.066134      1.000000
  0.121497  0.023382 -0.082668      1.000000
 -0.080998  0.140292  0.000000      1.000000
 -0.040499  0.116910 -0.016534      1.000000
  0.000000  0.140292 -0.049601      1.000000
  0.040499  0.116910 -0.066134      1.000000
  0.080998  0.093528 -0.082668      1.000000
  0.121497  0.070146 -0.099202      1.000000
 -0.080998  0.187056 -0.016534      1.000000
 -0.040499  0.163674 -0.033067      1.000000
 -0.000000 -0.093528  0.033067      1.000000
  0.040499 -0.116910  0.016534      1.000000
  0.080998 -0.140292 -0.000000      1.000000
  0.121497 -0.163674 -0.016534      1.000000
 -0.080998 -0.046764  0.066134      1.000000
 -0.040499 -0.070146  0.049601      1.000000
 -0.000000 -0.046764  0.016534      1.000000
  0.040499 -0.070146 -0.000000      1.000000
  0.080998 -0.093528 -0.016534      1.000000
  0.121497 -0.116910 -0.033067      1.000000
 -0.080998 -0.000000  0.049601      1.000000
 -0.040499 -0.023382  0.033067      1.000000
 -0.000000  0.000000  0.049601      1.000000
  0.040499 -0.023382  0.033067      1.000000
  0.080998 -0.046764  0.016534      1.000000
  0.121497 -0.070146 -0.000000      1.000000
 -0.080998  0.046764  0.082668      1.000000
 -0.040499  0.023382  0.066134      1.000000
 -0.000000  0.046764  0.033067      1.000000
  0.040499  0.023382  0.016534      1.000000
  0.080998  0.000000  0.000000      1.000000
  0.121497 -0.023382 -0.016534      1.000000
 -0.080998  0.093528  0.066134      1.000000
 -0.040499  0.070146  0.049601      1.000000
 -0.000000  0.093528  0.016534      1.000000
  0.040499  0.070146  0.000000      1.000000
  0.080998  0.046764 -0.016534      1.000000
  0.121497  0.023382 -0.033067      1.000000
 -0.080998  0.140292  0.049601      1.000000
 -0.040499  0.116910  0.033067      1.000000
 -0.000000  0.140292  0.000000      1.000000
  0.040499  0.116910 -0.016534      1.000000
  0.080998  0.093528 -0.033067      1.000000
  0.121497  0.070146 -0.049601      1.000000
 -0.080998  0.187056  0.033067      1.000000
 -0.040499  0.163674  0.016534      1.000000
[...]
  0.121497  0.070146 -0.148802      1.000000
 -0.080998  0.187056 -0.066134      1.000000
 -0.040499  0.163674 -0.082668      1.000000
  0.000000 -0.093528 -0.016534      1.000000
  0.040499 -0.116910 -0.033067      1.000000
  0.080998 -0.140292 -0.049601      1.000000
  0.121497 -0.163674 -0.066134      1.000000
 -0.080998 -0.046764  0.016534      1.000000
 -0.040499 -0.070146 -0.000000      1.000000
  0.000000 -0.046764 -0.033067      1.000000
  0.040499 -0.070146 -0.049601      1.000000
  0.080998 -0.093528 -0.066134      1.000000
  0.121497 -0.116910 -0.082668      1.000000
 -0.080998 -0.000000 -0.000000      1.000000
 -0.040499 -0.023382 -0.016534      1.000000

 SYSTEM =  Og_FCC
 POSCAR =  Kr_FCC

 Startparameter for this run:
   NWRITE =      2    write-flag & timer
   PREC   = accura    normal or accurate (medium, high low for compatibility)
   ISTART =      0    job   : 0-new  1-cont  2-samecut
   ICHARG =      2    charge: 1-file 2-atom 10-const
   ISPIN  =      1    spin polarized calculation?
   LNONCOLLINEAR =      T non collinear calculations
   LSORBIT =      T    spin-orbit coupling
   INIWAV =      1    electr: 0-lowe 1-rand  2-diag
   LASPH  =      F    aspherical Exc in radial PAW
   METAGGA=      F    non-selfconsistent MetaGGA calc.

 Electronic Relaxation 1
   ENCUT  =  300.0 eV  22.05 Ry    4.70 a.u.   5.81  5.81  5.81*2*pi/ulx,y,z
   ENINI  =  300.0     initial cutoff
   ENAUG  =  554.8 eV  augmentation charge cutoff
   NELM   =     50;   NELMIN=  2; NELMDL= -5     # of ELM steps
   EDIFF  = 0.1E-07   stopping-criterion for ELM
   LREAL  =      F    real-space projection
   NLSPLINE    = F    spline interpolate recip. space projectors
   LCOMPAT=      F    compatible to vasp.4.4
   GGA_COMPAT  = F    GGA compatible to vasp.4.4-vasp.4.6
   LMAXPAW     = -100 max onsite density
   LMAXMIX     =    2 max onsite mixed and CHGCAR
   VOSKOWN=      0    Vosko Wilk Nusair interpolation
   ROPT   =    0.00000
 Ionic relaxation
   EDIFFG = 0.1E-04   stopping-criterion for IOM
   NSW    =      1    number of steps for IOM
   NBLOCK =      1;   KBLOCK =      1    inner block; outer block
   IBRION =     -1    ionic relax: 0-MD 1-quasi-New 2-CG
   NFREE  =      5    steps in history (QN), initial steepest desc. (CG)
   ISIF   =      3    stress and relaxation
   IWAVPR =     10    prediction:  0-non 1-charg 2-wave 3-comb
   ISYM   =      0    0-nonsym 1-usesym 2-fastsym
   LCORR  =      T    Harris-Foulkes like correction to forces

   POTIM  = 0.1000    time-step for ionic-motion
   TEIN   =    0.0    initial temperature
   TEBEG  =    0.0;   TEEND  =   0.0 temperature during run
   SMASS  =  -3.00    Nose mass-parameter (am)
   estimated Nose-frequenzy (Omega)   =  0.10E-29 period in steps =****** mass=  -0.387E-27a.u.
   SCALEE = 1.0000    scale energy and forces
   NPACO  =    256;   APACO  = 16.0  distance and # of slots for P.C.
   PSTRESS=    0.0 pullay stress

  Mass of Ions in am
   POMASS =  83.80
  Ionic Valenz
   ZVAL   =   8.00
  Atomic Wigner-Seitz radii
  virtual crystal weights
   VCA    =   1.00
   NELECT =       8.0000    total number of electrons
   NUPDOWN=      -1.0000    fix difference up-down

 DOS related values:
   EMIN   =  10.00;   EMAX   =-10.00  energy-range for DOS
   EFERMI =   0.00
   ISMEAR =     0;   SIGMA  =   0.00  broadening in eV -4-tet -1-fermi 0-gaus

 Electronic relaxation 2 (details)
   IALGO  =     38    algorithm
   LDIAG  =      T    sub-space diagonalisation (order eigenvalues)
   LSUBROT=      F    optimize rotation matrix (better conditioning)
   TURBO    =      0    0=normal 1=particle mesh
   IRESTART =      0    0=no restart 2=restart with 2 vectors
   NREBOOT  =      0    no. of reboots
   NMIN     =      0    reboot dimension
[...]
   20.337752    0.181649    0.178683    0.167486    0.021259    0.008000    0.015624
   20.752808   -0.146663   -0.146800   -0.143455    0.000033    0.004260    0.001557
   21.167865    0.125741    0.125553    0.126615   -0.000818   -0.000024    0.000066
   21.582921    0.254837    0.254595    0.255238   -0.000406   -0.000161   -0.000154
   21.997977    0.339616    0.339409    0.339850   -0.000243   -0.000160   -0.000173
   22.413033    0.403012    0.402839    0.403167   -0.000161   -0.000144   -0.000162
   22.828089    0.453594    0.453449    0.453706   -0.000115   -0.000128   -0.000147
   23.243145    0.495567    0.495444    0.495653   -0.000086   -0.000114   -0.000133
   23.658202    0.531237    0.531130    0.531305   -0.000067   -0.000103   -0.000120
   24.073258    0.561909    0.561815    0.561964   -0.000053   -0.000093   -0.000109
   24.488314    0.589342    0.589258    0.589388   -0.000043   -0.000084   -0.000100
[...]
   35.279774    0.855730    0.855713    0.855736   -0.000003   -0.000021   -0.000026
   35.694830    0.859830    0.859814    0.859836   -0.000003   -0.000020   -0.000025
   36.109887    0.863742    0.863727    0.863748   -0.000003   -0.000020   -0.000024
   36.524943    0.867481    0.867465    0.867486   -0.000002   -0.000019   -0.000023
   36.939999    0.871056    0.871041    0.871061   -0.000002   -0.000018   -0.000023
   37.355055    0.874479    0.874465    0.874484   -0.000002   -0.000018   -0.000022
   37.770111    0.877759    0.877745    0.877764   -0.000002   -0.000017   -0.000021
   38.185167    0.880904    0.880890    0.880908   -0.000002   -0.000017   -0.000021
   38.600224    0.883922    0.883909    0.883926   -0.000002   -0.000016   -0.000020
   39.015280    0.886820    0.886807    0.886824   -0.000002   -0.000016   -0.000019
   39.430336    0.889605    0.889593    0.889609   -0.000002   -0.000016   -0.000019
   39.845392    0.892283    0.892271    0.892287   -0.000002   -0.000015   -0.000018
   40.260448    0.894859    0.894848    0.894863   -0.000002   -0.000015   -0.000018
   40.675504    0.897340    0.897328    0.897343   -0.000002   -0.000014   -0.000017
   41.090561    0.899729    0.899718    0.899732   -0.000001   -0.000014   -0.000017

  frequency dependent IMAGINARY DIELECTRIC FUNCTION (independent particle, no local field effects) current-current (2nd set in vasprun.xml)
     E(ev)      X         Y         Z        XY        YZ        ZX
    0.000000    3.773649    3.773800    3.773650   -0.004438   -0.005644   -0.002560
    0.415056    0.378172    0.378187    0.378172   -0.000443   -0.000564   -0.000256
    0.830112    0.190318    0.190326    0.190318   -0.000221   -0.000282   -0.000127
    1.245169    0.128269    0.128274    0.128269   -0.000147   -0.000187   -0.000084
    1.660225    0.097696    0.097699    0.097696   -0.000110   -0.000140   -0.000063
    2.075281    0.079742    0.079745    0.079742   -0.000087   -0.000112   -0.000049
    2.490337    0.068132    0.068134    0.068132   -0.000072   -0.000092   -0.000041
    2.905393    0.060186    0.060188    0.060186   -0.000061   -0.000079   -0.000034
    3.320449    0.054576    0.054578    0.054577   -0.000053   -0.000068   -0.000029
    3.735506    0.050580    0.050582    0.050580   -0.000047   -0.000060   -0.000025
    4.150562    0.047780    0.047781    0.047780   -0.000041   -0.000054   -0.000022
    4.565618    0.045934    0.045935    0.045934   -0.000037   -0.000048   -0.000019
    4.980674    0.044914    0.044916    0.044915   -0.000033   -0.000043   -0.000017
    5.395730    0.044681    0.044683    0.044682   -0.000030   -0.000039   -0.000014
    5.810786    0.045286    0.045287    0.045286   -0.000027   -0.000036   -0.000012
    6.225843    0.046910    0.046912    0.046911   -0.000024   -0.000033   -0.000011
    6.640899    0.050010    0.050011    0.050010   -0.000022   -0.000030   -0.000009
    7.055955    0.055900    0.055902    0.055901   -0.000020   -0.000027   -0.000007
    7.471011    0.072145    0.072147    0.072147   -0.000018   -0.000025   -0.000006
    7.886067    0.145822    0.145820    0.145817   -0.000012   -0.000020   -0.000001
    8.301123    0.198038    0.198042    0.198043   -0.000016   -0.000021   -0.000004
    8.716180    0.594243    0.594251    0.594252   -0.000016   -0.000020   -0.000004
    9.131236    0.256308    0.256311    0.256311   -0.000011   -0.000016   -0.000000
    9.546292    0.867015    0.867034    0.867039   -0.000022   -0.000021   -0.000008
    9.961348    1.255729    1.255806    1.255831   -0.000066   -0.000042   -0.000040
   10.376404    1.224968    1.224854    1.224816    0.000095    0.000031    0.000075
   10.791460    1.956643    1.956881    1.956981   -0.000210   -0.000117   -0.000138
   11.206517    2.139461    2.139467    2.139466   -0.000000   -0.000001    0.000010
   11.621573    1.303199    1.303216    1.303219   -0.000005   -0.000002    0.000007
   12.036629    2.231087    2.231085    2.231091    0.000004   -0.000003    0.000015
   12.451685    2.532403    2.532398    2.532393    0.000016    0.000008    0.000026
   12.866741    2.443907    2.443904    2.443903    0.000024    0.000018    0.000032
   13.281797    2.161032    2.161061    2.161070    0.000001    0.000013    0.000018
   13.696854    2.842362    2.842263    2.842236    0.000113    0.000066    0.000101
   14.111910    1.637157    1.637151    1.637148    0.000045    0.000039    0.000054
   14.526966    1.768785    1.768780    1.768778    0.000060    0.000045    0.000063
   14.942022    1.540746    1.540755    1.540760    0.000055    0.000058    0.000068
   15.357078    1.659922    1.659897    1.659888    0.000103    0.000089    0.000107
   15.772134    1.142058    1.141968    1.141937    0.000184    0.000138    0.000170
   16.187191    1.155000    1.154996    1.154997    0.000139    0.000138    0.000150
   16.602247    1.152298    1.152286    1.152288    0.000190    0.000186    0.000200
   17.017303    1.010944    1.010931    1.010941    0.000252    0.000254    0.000267
   17.432359    0.884536    0.884497    0.884523    0.000388    0.000405    0.000409
   17.847415    1.042744    1.042701    1.042729    0.000592    0.000610    0.000607
   18.262471    0.882259    0.882181    0.882259    0.001096    0.001125    0.001108
   18.677528    0.554473    0.553402    0.553804    0.003161    0.002892    0.003003
   19.092584    0.585490    0.586522    0.589197    0.003169    0.003900    0.005470
   19.507640    0.608215    0.604514    0.609468   -0.011046   -0.006515   -0.007642
   19.922696    0.346628    0.349555    0.349065   -0.007094   -0.003256   -0.004878
   20.337752    0.661663    0.671076    0.673190    0.005942   -0.001042    0.005694
   20.752808    0.141536    0.138200    0.139241    0.008794    0.005892    0.000771
   21.167865    0.033464    0.033390    0.033253    0.001928    0.002048    0.001432
   21.582921    0.017531    0.017534    0.017473    0.000946    0.001023    0.000791
   21.997977    0.011407    0.011414    0.011383    0.000581    0.000630    0.000503
   22.413033    0.008204    0.008210    0.008192    0.000398    0.000432    0.000349
   22.828089    0.006253    0.006257    0.006246    0.000291    0.000317    0.000257
   23.243145    0.004965    0.004968    0.004961    0.000223    0.000243    0.000198
   23.658202    0.004384    0.004386    0.004381    0.000177    0.000193    0.000157
   24.073258    0.003428    0.003430    0.003426    0.000144    0.000157    0.000128
   24.488314    0.003359    0.003360    0.003357    0.000119    0.000131    0.000106
[...]
   35.279774    0.000194    0.000194    0.000194    0.000012    0.000013    0.000010
   35.694830    0.000179    0.000179    0.000179    0.000011    0.000012    0.000009
   36.109887    0.000166    0.000167    0.000166    0.000010    0.000011    0.000009
   36.524943    0.000155    0.000155    0.000155    0.000010    0.000011    0.000008
   36.939999    0.000145    0.000145    0.000145    0.000009    0.000010    0.000008
   37.355055    0.000135    0.000135    0.000135    0.000009    0.000010    0.000008
   37.770111    0.000126    0.000126    0.000126    0.000008    0.000009    0.000007
   38.185167    0.000118    0.000118    0.000118    0.000008    0.000009    0.000007
   38.600224    0.000111    0.000111    0.000111    0.000008    0.000008    0.000007
   39.015280    0.000104    0.000104    0.000104    0.000007    0.000008    0.000006
   39.430336    0.000098    0.000098    0.000098    0.000007    0.000008    0.000006
   39.845392    0.000092    0.000092    0.000092    0.000007    0.000007    0.000006
   40.260448    0.000087    0.000087    0.000087    0.000006    0.000007    0.000005
   40.675504    0.000082    0.000082    0.000082    0.000006    0.000007    0.000005
   41.090561    0.000077    0.000077    0.000077    0.000006    0.000006    0.000005

  frequency dependent      REAL DIELECTRIC FUNCTION (independent particle, no local field effects) current-current (2nd set in vasprun.xml)
     E(ev)        X           Y           Z          XY          YZ          ZX
    0.000000    1.782934    1.782965    1.782934   -0.000010    0.000045    0.000056
    0.415056    1.783770    1.783801    1.783770   -0.000011    0.000045    0.000056
    0.830112    1.786317    1.786349    1.786318   -0.000011    0.000045    0.000056
    1.245169    1.790606    1.790638    1.790606   -0.000011    0.000045    0.000056
    1.660225    1.796704    1.796735    1.796704   -0.000011    0.000046    0.000057
    2.075281    1.804707    1.804739    1.804707   -0.000011    0.000046    0.000057
    2.490337    1.814750    1.814782    1.814751   -0.000011    0.000046    0.000057
    2.905393    1.827010    1.827042    1.827010   -0.000011    0.000046    0.000057
    3.320449    1.841714    1.841746    1.841715   -0.000011    0.000046    0.000058
    3.735506    1.859160    1.859192    1.859160   -0.000012    0.000047    0.000058
    4.150562    1.879729    1.879762    1.879730   -0.000012    0.000047    0.000058
    4.565618    1.903926    1.903959    1.903927   -0.000012    0.000048    0.000059
    4.980674    1.932419    1.932453    1.932421   -0.000013    0.000048    0.000059
    5.395730    1.966126    1.966160    1.966128   -0.000013    0.000048    0.000060
    5.810786    2.006348    2.006383    2.006350   -0.000014    0.000049    0.000060
    6.225843    2.055038    2.055074    2.055042   -0.000015    0.000049    0.000061
    6.640899    2.115397    2.115434    2.115401   -0.000016    0.000050    0.000062
    7.055955    2.193570    2.193608    2.193576   -0.000017    0.000050    0.000062
    7.471011    2.306666    2.306707    2.306675   -0.000019    0.000050    0.000062
    7.886067    2.362958    2.362999    2.362967   -0.000020    0.000052    0.000063
    8.301123    2.689252    2.689301    2.689270   -0.000026    0.000050    0.000061
    8.716180    2.481686    2.481731    2.481698   -0.000023    0.000053    0.000065
    9.131236    2.634735    2.634783    2.634752   -0.000027    0.000054    0.000065
    9.546292    2.888776    2.888836    2.888808   -0.000036    0.000051    0.000060
    9.961348    2.942800    2.942895    2.942878   -0.000070    0.000044    0.000041
   10.376404    2.510203    2.510293    2.510275   -0.000053    0.000025    0.000051
   10.791460    3.663879    3.663844    3.663771    0.000065    0.000091    0.000142
   11.206517    2.019410    2.019438    2.019398   -0.000014    0.000070    0.000089
   11.621573    2.044294    2.044327    2.044287   -0.000019    0.000072    0.000091
   12.036629    3.328928    3.328948    3.328901   -0.000003    0.000081    0.000104
   12.451685    2.023637    2.023667    2.023624   -0.000021    0.000077    0.000098
   12.866741    1.550099    1.550126    1.550083   -0.000018    0.000080    0.000107
   13.281797    1.430411    1.430467    1.430433   -0.000041    0.000077    0.000098
   13.696854    0.719585    0.719602    0.719559   -0.000012    0.000095    0.000126
   14.111910    0.177752    0.177802    0.177766   -0.000045    0.000090    0.000113
   14.526966    1.156690    1.156716    1.156671   -0.000026    0.000104    0.000137
   14.942022    0.340768    0.340814    0.340778   -0.000054    0.000104    0.000132
   15.357078   -0.076320   -0.076278   -0.076312   -0.000058    0.000114    0.000146
   15.772134   -0.500729   -0.500647   -0.500661   -0.000097    0.000110    0.000137
   16.187191    0.258602    0.258629    0.258605   -0.000078    0.000138    0.000180
   16.602247    0.041869    0.041902    0.041898   -0.000111    0.000147    0.000193
   17.017303    0.467748    0.467754    0.467775   -0.000136    0.000170    0.000225
   17.432359    0.190341    0.190321    0.190371   -0.000200    0.000193    0.000246
   17.847415    0.370223    0.370183    0.370287   -0.000261    0.000202    0.000297
   18.262471   -0.057394   -0.057600   -0.057306   -0.000457    0.000199    0.000339
   18.677528    0.035065    0.033972    0.034801   -0.001453   -0.000498   -0.000114
   19.092584   -0.015051   -0.015998   -0.013833   -0.008536   -0.004775   -0.004948
   19.507640   -0.029052   -0.027393   -0.030809   -0.013694   -0.009130   -0.008936
   19.922696    0.129965    0.134145    0.135937    0.003154   -0.003558   -0.005793
   20.337752    0.174942    0.171880    0.160670    0.021217    0.008027    0.015586
   20.752808   -0.147975   -0.148080   -0.144757   -0.000055    0.004203    0.001541
   21.167865    0.125451    0.125262    0.126321   -0.000838   -0.000042    0.000052
   21.582921    0.254694    0.254450    0.255091   -0.000416   -0.000169   -0.000162
   21.997977    0.339529    0.339320    0.339760   -0.000249   -0.000165   -0.000178
   22.413033    0.402953    0.402779    0.403106   -0.000166   -0.000148   -0.000166
   22.828089    0.453552    0.453406    0.453662   -0.000118   -0.000131   -0.000150
   23.243145    0.495537    0.495412    0.495620   -0.000089   -0.000116   -0.000135
   23.658202    0.531212    0.531104    0.531278   -0.000069   -0.000104   -0.000122
   24.073258    0.561891    0.561797    0.561945   -0.000055   -0.000094   -0.000110
   24.488314    0.589325    0.589241    0.589370   -0.000045   -0.000085   -0.000101
[...]
   35.279774    0.855735    0.855718    0.855741   -0.000003   -0.000021   -0.000026
   35.694830    0.859835    0.859819    0.859841   -0.000003   -0.000020   -0.000025
   36.109887    0.863747    0.863732    0.863753   -0.000003   -0.000020   -0.000024
   36.524943    0.867486    0.867470    0.867491   -0.000003   -0.000019   -0.000023
   36.939999    0.871061    0.871046    0.871066   -0.000003   -0.000019   -0.000023
   37.355055    0.874484    0.874470    0.874489   -0.000002   -0.000018   -0.000022
   37.770111    0.877764    0.877750    0.877768   -0.000002   -0.000017   -0.000021
   38.185167    0.880909    0.880895    0.880913   -0.000002   -0.000017   -0.000021
   38.600224    0.883927    0.883914    0.883931   -0.000002   -0.000016   -0.000020
   39.015280    0.886825    0.886812    0.886829   -0.000002   -0.000016   -0.000020
   39.430336    0.889610    0.889597    0.889613   -0.000002   -0.000016   -0.000019
   39.845392    0.892287    0.892275    0.892291   -0.000002   -0.000015   -0.000019
   40.260448    0.894864    0.894852    0.894867   -0.000002   -0.000015   -0.000018
   40.675504    0.897344    0.897333    0.897348   -0.000002   -0.000014   -0.000018
   41.090561    0.899733    0.899722    0.899737   -0.000002   -0.000014   -0.000017

 The outermost node in the dielectric function lies at epsilon=  21.0

 Spin-Orbit-Coupling matrix elements

 Ion:    1  E_soc:     -0.0767298
 l=   1
     0.0000000    -0.0127880    -0.0127880
    -0.0127880     0.0000000    -0.0127880
    -0.0127880    -0.0127880     0.0000000
 l=   2
     0.0000000    -0.0000001     0.0000000    -0.0000001    -0.0000002
    -0.0000001     0.0000000    -0.0000002    -0.0000000    -0.0000001
     0.0000000    -0.0000002     0.0000000    -0.0000002     0.0000000
    -0.0000001    -0.0000000    -0.0000002     0.0000000    -0.0000001
    -0.0000002    -0.0000001     0.0000000    -0.0000001     0.0000000
 l=   3
     0.0000000     0.0000000     0.0000000     0.0000000     0.0000000     0.0000000     0.0000000
     0.0000000     0.0000000     0.0000000     0.0000000     0.0000000     0.0000000     0.0000000
     0.0000000     0.0000000     0.0000000     0.0000000     0.0000000     0.0000000     0.0000000
     0.0000000     0.0000000     0.0000000     0.0000000     0.0000000     0.0000000     0.0000000
     0.0000000     0.0000000     0.0000000     0.0000000     0.0000000     0.0000000     0.0000000
     0.0000000     0.0000000     0.0000000     0.0000000     0.0000000     0.0000000     0.0000000
     0.0000000     0.0000000     0.0000000     0.0000000     0.0000000     0.0000000     0.0000000