 vasp.5.4.4.18Apr17-6-g9f103f2a35 (build Nov 03 2018 10:20:43) complex

 executed on             LinuxIFC date 2018.11.29  14:55:47

 INCAR:
 POTCAR:    PAW Og, JanMewes Oct 18

 POTCAR:    PAW Og, JanMewes Oct 18
   VRHFIN =Og : 10d 2s 6p, PE

   TITEL  = PAW Og, JanMewes Oct 18
   POMASS =    0.010; ZVAL   =   18.000    mass and valenz
   ENMAX  =  339.336; ENMIN  =  254.502 eV
   QCUT   =   -4.994; QGAM   =    9.988    optimization parameters

  PAW Og, JanMewes Oct 18               :

 POSCAR: Og_FCC
  positions in direct lattice
  velocities in cartesian coordinates

 METAGGA = SCAN     LMAXTAU =  0    LMIXTAU =  F

 ion  position               nearest neighbor table
   1  0.000  0.000  0.000-

  LATTYP: Found a face centered cubic cell.
 ALAT       =     6.2452165523

  Lattice vectors:

 A1 = (   4.4160349741,   0.0000000000,   0.0000000000)
 A2 = (   2.2080174870,   3.8243984715,  -0.0000000000)
 A3 = (   2.2080174870,   1.2747994905,   3.6056774577)

Analysis of symmetry for initial positions (statically):
 Subroutine PRICEL returns:
 Original cell was already a primitive cell.

 Routine SETGRP: Setting up the symmetry group for a
 face centered cubic supercell.

 Subroutine GETGRP returns: Found 48 space group operations
 (whereof 48 operations were pure point group operations)
 out of a pool of 48 trial point group operations.

The static configuration has the point symmetry O_h .

Analysis of symmetry for dynamics (positions and initial velocities):
 Subroutine PRICEL returns:
 Original cell was already a primitive cell.

 Routine SETGRP: Setting up the symmetry group for a
 face centered cubic supercell.

 Subroutine GETGRP returns: Found 48 space group operations
 (whereof 48 operations were pure point group operations)
 out of a pool of 48 trial point group operations.

The dynamic configuration has the point symmetry O_h .

 Subroutine INISYM returns: Found 48 space group operations
 (whereof 48 operations are pure point group operations),
 and found     1 'primitive' translations

Automatic generation of k-mesh.
 generate k-points for:    9    9    9
Space group operators:
 irot       det(A)        alpha          n_x          n_y          n_z        tau_x        tau_y        tau_z
    1     1.000000     0.000000     1.000000     0.000000     0.000000     0.000000     0.000000     0.000000
    2    -1.000000     0.000000     1.000000     0.000000     0.000000     0.000000     0.000000     0.000000
    3     1.000000   120.000000    -0.816497    -0.471405    -0.333333     0.000000     0.000000     0.000000
    4    -1.000000   120.000000    -0.816497    -0.471405    -0.333333     0.000000     0.000000     0.000000
    5     1.000000   120.000000     0.816497     0.471405     0.333333     0.000000     0.000000     0.000000
    6    -1.000000   120.000000     0.816497     0.471405     0.333333     0.000000     0.000000     0.000000
    7     1.000000    90.000000    -0.707107    -0.408248     0.577350     0.000000     0.000000     0.000000
    8    -1.000000    90.000000    -0.707107    -0.408248     0.577350     0.000000     0.000000     0.000000
    9     1.000000   180.000000     1.000000     0.000000     0.000000     0.000000     0.000000     0.000000
   10    -1.000000   180.000000     1.000000     0.000000     0.000000     0.000000     0.000000     0.000000
   11     1.000000    90.000000     0.707107    -0.408248     0.577350     0.000000     0.000000     0.000000
   12    -1.000000    90.000000     0.707107    -0.408248     0.577350     0.000000     0.000000     0.000000
   13     1.000000   180.000000     0.707107     0.408248    -0.577350     0.000000     0.000000     0.000000
   14    -1.000000   180.000000     0.707107     0.408248    -0.577350     0.000000     0.000000     0.000000
   15     1.000000   120.000000     0.816497    -0.471405    -0.333333     0.000000     0.000000     0.000000
   16    -1.000000   120.000000     0.816497    -0.471405    -0.333333     0.000000     0.000000     0.000000
   17     1.000000   120.000000     0.000000    -0.942809     0.333333     0.000000     0.000000     0.000000
   18    -1.000000   120.000000     0.000000    -0.942809     0.333333     0.000000     0.000000     0.000000
   19     1.000000    90.000000     0.707107     0.408248    -0.577350     0.000000     0.000000     0.000000
   20    -1.000000    90.000000     0.707107     0.408248    -0.577350     0.000000     0.000000     0.000000
   21     1.000000    90.000000    -0.000000    -0.816497    -0.577350     0.000000     0.000000     0.000000
   22    -1.000000    90.000000    -0.000000    -0.816497    -0.577350     0.000000     0.000000     0.000000
   23     1.000000   180.000000     0.500000     0.866025    -0.000000     0.000000     0.000000     0.000000
   24    -1.000000   180.000000     0.500000     0.866025    -0.000000     0.000000     0.000000     0.000000
   25     1.000000   120.000000     0.000000     0.942809    -0.333333     0.000000     0.000000     0.000000
   26    -1.000000   120.000000     0.000000     0.942809    -0.333333     0.000000     0.000000     0.000000
   27     1.000000   120.000000     0.000000    -0.000000    -1.000000     0.000000     0.000000     0.000000
   28    -1.000000   120.000000     0.000000    -0.000000    -1.000000     0.000000     0.000000     0.000000
   29     1.000000   180.000000    -0.000000     0.816497     0.577350     0.000000     0.000000     0.000000
   30    -1.000000   180.000000    -0.000000     0.816497     0.577350     0.000000     0.000000     0.000000
   31     1.000000    90.000000    -0.707107     0.408248    -0.577350     0.000000     0.000000     0.000000
   32    -1.000000    90.000000    -0.707107     0.408248    -0.577350     0.000000     0.000000     0.000000
   33     1.000000   179.999999     0.500000     0.288675     0.816497     0.000000     0.000000     0.000000
   34    -1.000000   179.999999     0.500000     0.288675     0.816497     0.000000     0.000000     0.000000
   35     1.000000    90.000000    -0.000000     0.816497     0.577350     0.000000     0.000000     0.000000
   36    -1.000000    90.000000    -0.000000     0.816497     0.577350     0.000000     0.000000     0.000000
   37     1.000000   120.000000    -0.816497     0.471405     0.333333     0.000000     0.000000     0.000000
   38    -1.000000   120.000000    -0.816497     0.471405     0.333333     0.000000     0.000000     0.000000
   39     1.000000   180.000000    -0.707107     0.408248    -0.577350     0.000000     0.000000     0.000000
   40    -1.000000   180.000000    -0.707107     0.408248    -0.577350     0.000000     0.000000     0.000000
   41     1.000000   120.000000    -0.000000     0.000000     1.000000     0.000000     0.000000     0.000000
   42    -1.000000   120.000000    -0.000000     0.000000     1.000000     0.000000     0.000000     0.000000
   43     1.000000   180.000000     0.000000     0.577350    -0.816497     0.000000     0.000000     0.000000
   44    -1.000000   180.000000     0.000000     0.577350    -0.816497     0.000000     0.000000     0.000000
   45     1.000000   180.000000    -0.500000     0.866025    -0.000000     0.000000     0.000000     0.000000
   46    -1.000000   180.000000    -0.500000     0.866025    -0.000000     0.000000     0.000000     0.000000
   47     1.000000   179.999999    -0.500000     0.288675     0.816497     0.000000     0.000000     0.000000
   48    -1.000000   179.999999    -0.500000     0.288675     0.816497     0.000000     0.000000     0.000000

 Subroutine IBZKPT returns following result:

 Found     35 irreducible k-points:

 Following reciprocal coordinates:
            Coordinates               Weight
  0.000000  0.000000  0.000000      1.000000
  0.111111  0.000000  0.000000      8.000000
  0.222222  0.000000  0.000000      8.000000
  0.333333  0.000000  0.000000      8.000000
  0.444444  0.000000  0.000000      8.000000
  0.111111  0.111111 -0.000000      6.000000
  0.222222  0.111111  0.000000     24.000000
  0.333333  0.111111  0.000000     24.000000
  0.444444  0.111111 -0.000000     24.000000
 -0.444444  0.111111 -0.000000     24.000000
 -0.333333  0.111111 -0.000000     24.000000
 -0.222222  0.111111 -0.000000     24.000000
 -0.111111  0.111111 -0.000000     12.000000
  0.222222  0.222222  0.000000      6.000000
  0.333333  0.222222  0.000000     24.000000
  0.444444  0.222222  0.000000     24.000000
 -0.444444  0.222222  0.000000     24.000000
 -0.333333  0.222222 -0.000000     24.000000
 -0.222222  0.222222 -0.000000     12.000000
  0.333333  0.333333  0.000000      6.000000
  0.444444  0.333333 -0.000000     24.000000
 -0.444444  0.333333 -0.000000     24.000000
 -0.333333  0.333333 -0.000000     12.000000
  0.444444  0.444444  0.000000      6.000000
 -0.444444  0.444444 -0.000000     12.000000
  0.333333  0.222222  0.111111     24.000000
  0.444444  0.222222  0.111111     48.000000
 -0.444444  0.222222  0.111111     48.000000
  0.444444  0.333333  0.111111     24.000000
 -0.444444  0.333333  0.111111     48.000000
 -0.333333  0.333333  0.111111     48.000000
 -0.222222  0.333333  0.111111     24.000000
 -0.444444  0.444444  0.111111     24.000000
 -0.333333  0.444444  0.111111     24.000000
 -0.333333  0.444444  0.222222     24.000000

 Following cartesian coordinates:
            Coordinates               Weight
  0.000000  0.000000  0.000000      1.000000
  0.024658 -0.014236 -0.010066      8.000000
  0.049315 -0.028472 -0.020133      8.000000
  0.073973 -0.042708 -0.030199      8.000000
  0.098630 -0.056944 -0.040266      8.000000
  0.024658  0.014236 -0.020133      6.000000
  0.049315 -0.000000 -0.030199     24.000000
  0.073973 -0.014236 -0.040266     24.000000
  0.098630 -0.028472 -0.050332     24.000000
 -0.098630  0.085416  0.030199     24.000000
 -0.073973  0.071180  0.020133     24.000000
 -0.049315  0.056944  0.010066     24.000000
 -0.024658  0.042708 -0.000000     12.000000
  0.049315  0.028472 -0.040266      6.000000
  0.073973  0.014236 -0.050332     24.000000
  0.098630  0.000000 -0.060399     24.000000
 -0.098630  0.113889  0.020133     24.000000
 -0.073973  0.099653  0.010066     24.000000
 -0.049315  0.085416 -0.000000     12.000000
  0.073973  0.042708 -0.060399      6.000000
  0.098630  0.028472 -0.070465     24.000000
 -0.098630  0.142361  0.010066     24.000000
 -0.073973  0.128125 -0.000000     12.000000
  0.098630  0.056944 -0.080531      6.000000
 -0.098630  0.170833 -0.000000     12.000000
  0.073973  0.014236 -0.020133     24.000000
  0.098630  0.000000 -0.030199     48.000000
 -0.098630  0.113889  0.050332     48.000000
  0.098630  0.028472 -0.040266     24.000000
 -0.098630  0.142361  0.040266     48.000000
 -0.073973  0.128125  0.030199     48.000000
 -0.049315  0.113889  0.020133     24.000000
 -0.098630  0.170833  0.030199     24.000000
 -0.073973  0.156597  0.020133     24.000000
 -0.073973  0.156597  0.050332     24.000000

 SYSTEM =  Og_FCC
 POSCAR =  Og_FCC

 Startparameter for this run:
   NWRITE =      2    write-flag & timer
   PREC   = accura    normal or accurate (medium, high low for compatibility)
   ISTART =      0    job   : 0-new  1-cont  2-samecut
[...]
   LMONO  =      F    monopole corrections only (constant potential shift)
   LDIPOL =      F    correct potential (dipole corrections)
   IDIPOL =      0    1-x, 2-y, 3-z, 4-all directions
   EPSILON=  1.0000000 bulk dielectric constant

 Exchange correlation treatment:
   GGA     =    --    GGA type
   VOSKOWN=      0    Vosko Wilk Nusair interpolation
   LHFCALC =     F    Hartree Fock is set to
   LHFONE  =     F    Hartree Fock one center treatment
   AEXX    =    0.0000 exact exchange contribution

 Linear response parameters
   LEPSILON=     F    determine dielectric tensor
   LRPA    =     F    only Hartree local field effects (RPA)
   LNABLA  =     F    use nabla operator in PAW spheres
   LVEL    =     F    velocity operator in full k-point grid
   LINTERFAST=   F  fast interpolation
   KINTER  =     0    interpolate to denser k-point grid
   CSHIFT  =0.1000    complex shift for real part using Kramers Kronig
   OMEGAMAX=  -1.0    maximum frequency
   DEG_THRESHOLD= 0.2000000E-02 threshold for treating states as degnerate
   RTIME   =   -0.100 relaxation time in fs
  (WPLASMAI=    0.000 imaginary part of plasma frequency in eV, 0.658/RTIME)
   DFIELD  = 0.0000000 0.0000000 0.0000000 field for delta impulse in time

 Orbital magnetization related:
   ORBITALMAG=     F  switch on orbital magnetization
   LCHIMAG   =     F  perturbation theory with respect to B field
   DQ        =  0.001000  dq finite difference perturbation B field
   LLRAUG    =     F  two centre corrections for induced B field

 Static calculation
 charge density and potential will be updated during run
 non-spin polarized calculation
 RMM-DIIS sequential band-by-band and
  variant of blocked Davidson during initial phase
 perform sub-space diagonalisation
    before iterative eigenvector-optimisation
 modified Broyden-mixing scheme, WC =      100.0
 initial mixing is a Kerker type mixing with AMIX =  0.4000 and BMIX =      1.0000
 Hartree-type preconditioning will be used
 using additional bands            4
 reciprocal scheme for non local part
 use partial core corrections
 calculate Harris-corrections to forces
   (improved forces if not selfconsistent)
 use gradient corrections
 use of overlap-Matrix (Vanderbilt PP)
 Methfessel and Paxton  Order N= 1 SIGMA  =   0.05

  energy-cutoff  :      600.00
  volume of cell :       60.90
      direct lattice vectors                 reciprocal lattice vectors
     4.416034974  0.000000000  0.000000000     0.226447482 -0.130739515 -0.092446797
     2.208017487  3.824398471 -0.000000000     0.000000000  0.261479029 -0.092446797
     2.208017487  1.274799490  3.605677458    -0.000000000  0.000000000  0.277340392

  length of vectors
     4.416034974  4.416034974  4.416034974     0.277340392  0.277340392  0.277340392

 k-points in units of 2pi/SCALE and weight: read from INCAR
   0.00000000  0.00000000  0.00000000       0.001
   0.02465761 -0.01423608 -0.01006643       0.011
   0.04931523 -0.02847216 -0.02013286       0.011
   0.07397284 -0.04270824 -0.03019929       0.011
   0.09863046 -0.05694432 -0.04026572       0.011
   0.02465761  0.01423608 -0.02013286       0.008
   0.04931523 -0.00000000 -0.03019929       0.033
   0.07397284 -0.01423608 -0.04026572       0.033
   0.09863046 -0.02847216 -0.05033215       0.033
  -0.09863046  0.08541648  0.03019929       0.033
  -0.07397284  0.07118040  0.02013286       0.033
  -0.04931523  0.05694432  0.01006643       0.033
  -0.02465761  0.04270824 -0.00000000       0.016
   0.04931523  0.02847216 -0.04026572       0.008
   0.07397284  0.01423608 -0.05033215       0.033
   0.09863046  0.00000000 -0.06039857       0.033
  -0.09863046  0.11388864  0.02013286       0.033
  -0.07397284  0.09965256  0.01006643       0.033
  -0.04931523  0.08541648 -0.00000000       0.016
   0.07397284  0.04270824 -0.06039857       0.008
   0.09863046  0.02847216 -0.07046500       0.033
  -0.09863046  0.14236080  0.01006643       0.033
  -0.07397284  0.12812472 -0.00000000       0.016
   0.09863046  0.05694432 -0.08053143       0.008
  -0.09863046  0.17083297 -0.00000000       0.016
   0.07397284  0.01423608 -0.02013286       0.033
   0.09863046  0.00000000 -0.03019929       0.066
  -0.09863046  0.11388864  0.05033215       0.066
   0.09863046  0.02847216 -0.04026572       0.033
  -0.09863046  0.14236080  0.04026572       0.066
  -0.07397284  0.12812472  0.03019929       0.066
  -0.04931523  0.11388864  0.02013286       0.033
  -0.09863046  0.17083297  0.03019929       0.033
  -0.07397284  0.15659689  0.02013286       0.033
  -0.07397284  0.15659689  0.05033215       0.033

 k-points in reciprocal lattice and weights: read from INCAR
   0.00000000  0.00000000  0.00000000       0.001
   0.11111111  0.00000000  0.00000000       0.011
   0.22222222  0.00000000  0.00000000       0.011
   0.33333333  0.00000000  0.00000000       0.011
   0.44444444  0.00000000  0.00000000       0.011
   0.11111111  0.11111111 -0.00000000       0.008
   0.22222222  0.11111111  0.00000000       0.033
   0.33333333  0.11111111  0.00000000       0.033
   0.44444444  0.11111111 -0.00000000       0.033
  -0.44444444  0.11111111 -0.00000000       0.033
  -0.33333333  0.11111111 -0.00000000       0.033
  -0.22222222  0.11111111 -0.00000000       0.033
  -0.11111111  0.11111111 -0.00000000       0.016
   0.22222222  0.22222222  0.00000000       0.008
   0.33333333  0.22222222  0.00000000       0.033
   0.44444444  0.22222222  0.00000000       0.033
  -0.44444444  0.22222222  0.00000000       0.033
  -0.33333333  0.22222222 -0.00000000       0.033
  -0.22222222  0.22222222 -0.00000000       0.016
   0.33333333  0.33333333  0.00000000       0.008
   0.44444444  0.33333333 -0.00000000       0.033
  -0.44444444  0.33333333 -0.00000000       0.033
  -0.33333333  0.33333333 -0.00000000       0.016
   0.44444444  0.44444444  0.00000000       0.008
  -0.44444444  0.44444444 -0.00000000       0.016
   0.33333333  0.22222222  0.11111111       0.033
   0.44444444  0.22222222  0.11111111       0.066
  -0.44444444  0.22222222  0.11111111       0.066
   0.44444444  0.33333333  0.11111111       0.033
  -0.44444444  0.33333333  0.11111111       0.066
  -0.33333333  0.33333333  0.11111111       0.066
  -0.22222222  0.33333333  0.11111111       0.033
  -0.44444444  0.44444444  0.11111111       0.033
  -0.33333333  0.44444444  0.11111111       0.033
  -0.33333333  0.44444444  0.22222222       0.033

 position of ions in fractional coordinates (direct lattice)
   0.00000000  0.00000000  0.00000000

 position of ions in cartesian coordinates  (Angst):
   0.00000000  0.00000000  0.00000000

 k-point  1 :   0.0000 0.0000 0.0000  plane waves:    2085
 k-point  2 :   0.1111 0.0000 0.0000  plane waves:    2028
 k-point  3 :   0.2222 0.0000 0.0000  plane waves:    2018
 k-point  4 :   0.3333 0.0000 0.0000  plane waves:    2030
 k-point  5 :   0.4444 0.0000 0.0000  plane waves:    2033
 k-point  6 :   0.1111 0.1111-0.0000  plane waves:    2029
 k-point  7 :   0.2222 0.1111 0.0000  plane waves:    2023
 k-point  8 :   0.3333 0.1111 0.0000  plane waves:    2030
 k-point  9 :   0.4444 0.1111-0.0000  plane waves:    2034
 k-point 10 :  -0.4444 0.1111-0.0000  plane waves:    2031
 k-point 11 :  -0.3333 0.1111-0.0000  plane waves:    2035
 k-point 12 :  -0.2222 0.1111-0.0000  plane waves:    2024
 k-point 13 :  -0.1111 0.1111-0.0000  plane waves:    2025
 k-point 14 :   0.2222 0.2222 0.0000  plane waves:    2021
 k-point 15 :   0.3333 0.2222 0.0000  plane waves:    2028
 k-point 16 :   0.4444 0.2222 0.0000  plane waves:    2033
 k-point 17 :  -0.4444 0.2222 0.0000  plane waves:    2037
 k-point 18 :  -0.3333 0.2222-0.0000  plane waves:    2032
 k-point 19 :  -0.2222 0.2222-0.0000  plane waves:    2031
 k-point 20 :   0.3333 0.3333 0.0000  plane waves:    2044
 k-point 21 :   0.4444 0.3333-0.0000  plane waves:    2041
 k-point 22 :  -0.4444 0.3333-0.0000  plane waves:    2046
 k-point 23 :  -0.3333 0.3333-0.0000  plane waves:    2035
 k-point 24 :   0.4444 0.4444 0.0000  plane waves:    2032
 k-point 25 :  -0.4444 0.4444-0.0000  plane waves:    2040
 k-point 26 :   0.3333 0.2222 0.1111  plane waves:    2028
 k-point 27 :   0.4444 0.2222 0.1111  plane waves:    2029
 k-point 28 :  -0.4444 0.2222 0.1111  plane waves:    2033
 k-point 29 :   0.4444 0.3333 0.1111  plane waves:    2041
 k-point 30 :  -0.4444 0.3333 0.1111  plane waves:    2037
 k-point 31 :  -0.3333 0.3333 0.1111  plane waves:    2029
 k-point 32 :  -0.2222 0.3333 0.1111  plane waves:    2028
 k-point 33 :  -0.4444 0.4444 0.1111  plane waves:    2043
 k-point 34 :  -0.3333 0.4444 0.1111  plane waves:    2033
 k-point 35 :  -0.3333 0.4444 0.2222  plane waves:    2032

 maximum and minimum number of plane-waves per node :       526      501

 maximum number of plane-waves:      2085
 maximum index in each direction:
   IXMAX=    9   IYMAX=    8   IZMAX=    8
   IXMIN=   -9   IYMIN=   -9   IZMIN=   -9

 parallel 3D FFT for wavefunctions:
    minimum data exchange during FFTs selected (reduces bandwidth)
 parallel 3D FFT for charge:
    minimum data exchange during FFTs selected (reduces bandwidth)

 Broyden mixing: mesh for mixing (old mesh)
   NGX = 17   NGY = 17   NGZ = 17
  (NGX  = 72   NGY  = 72   NGZ  = 72)
  gives a total of   4913 points

 initial charge density was supplied:
 charge density of overlapping atoms calculated
 number of electron      18.0000000 magnetization
 keeping initial charge density in first step

 Maximum index for augmentation-charges        89097 (set IRDMAX)

 First call to EWALD:  gamma=   0.451
 Maximum number of real-space cells 3x 3x 3
 Maximum number of reciprocal cells 3x 3x 3

--------------------------------------- Iteration      1(   1)  ---------------------------------------

 eigenvalue-minimisations  :   918
 total energy-change (2. order) : 0.1412043E+03  (-0.9702558E+03)
 number of electron      18.0000000 magnetization
 augmentation part       18.0000000 magnetization

 Free energy of the ion-electron system (eV)
  alpha Z        PSCENC =        62.65290858
  Ewald energy   TEWEN  =     -1712.57602905
  -Hartree energ DENC   =      -679.06876999
  -exchange      EXHF   =         0.00000000
  -V(xc)+E(xc)   XCENC  =       -42.45051203
  PAW double counting   =      2249.78787100    -2317.67826404
  entropy T*S    EENTRO =        -0.00017010
  eigenvalues    EBANDS =       -59.99142211
  atomic energy  EATOM  =      2640.52872706
  Solvation  Ediel_sol  =         0.00000000
  free energy    TOTEN  =       141.20433932 eV

  energy without entropy =      141.20450942  energy(sigma->0) =      141.20439602

[...]

 eigenvalue-minimisations  :  1093
 total energy-change (2. order) :-0.2734979E+03  (-0.2672546E+03)
 number of electron      18.0000000 magnetization
 augmentation part       18.0000000 magnetization

[...]

 Broyden mixing:
  rms(total) = 0.16293E+00    rms(broyden)= 0.16267E+00
  rms(prec ) = 0.30679E+00
  weight for this iteration     100.00

[...]

 eigenvalues of (default mixing * dielectric matrix)
  average eigenvalue GAMMA=   0.6735
  0.6735

[...]

 eigenvalue-minimisations  :  1074
 total energy-change (2. order) : 0.1015965E-06  (-0.5428151E-07)
 number of electron      18.0000000 magnetization
 augmentation part        3.0035856 magnetization

[...]

 Broyden mixing:
  rms(total) = 0.94644E-05    rms(broyden)= 0.89743E-05
  rms(prec ) = 0.22078E-04
  weight for this iteration     100.00

[...]

 Broyden mixing:
  rms(total) = 0.35641E-05    rms(broyden)= 0.19143E-05
  rms(prec ) = 0.43812E-05
  weight for this iteration     100.00
  WARNING: grid for Broyden might be to small

 eigenvalues of (default mixing * dielectric matrix)
  average eigenvalue GAMMA=   1.6413
  5.6267  5.6267  2.5897  2.3402  2.3402  1.6516  1.6516  1.5418  1.5418  1.2449
  1.2449  1.0696  1.0696  0.9498  0.9498  1.0149  1.0054  0.7047  0.7047  0.7813
  0.7813  0.6956  0.6224

[...]

--------------------------------------- Iteration      1(  29)  ---------------------------------------

 eigenvalue-minimisations  :   562
 total energy-change (2. order) :-0.4547474E-10  (-0.3572187E-09)
 number of electron      18.0000000 magnetization
 augmentation part        3.0036064 magnetization

 Free energy of the ion-electron system (eV)
  alpha Z        PSCENC =        62.65290858
  Ewald energy   TEWEN  =     -1712.57602905
  -Hartree energ DENC   =      -677.06947309
  -exchange      EXHF   =         0.00000000
  -V(xc)+E(xc)   XCENC  =       -51.27120206
  PAW double counting   =      2302.45682029    -2368.83230757
  entropy T*S    EENTRO =         0.00018861
  eigenvalues    EBANDS =      -332.89471119
  atomic energy  EATOM  =      2640.52872706
  Solvation  Ediel_sol  =         0.00000000
  free energy    TOTEN  =      -137.00507842 eV

  energy without entropy =     -137.00526703  energy(sigma->0) =     -137.00514129

 average (electrostatic) potential at core
  the test charge radii are     1.2024
  (the norm of the test charge is              1.0000)
       1-115.3929

 E-fermi :   1.0843     XC(G=0):  -8.4016     alpha+bet : -7.2062

 k-point     1 :       0.0000    0.0000    0.0000
  band No.  band energies     occupation
      1     -28.8169      2.00000
      2     -28.8169      2.00000
      3     -28.8169      2.00000
      4     -28.8149      2.00000
      5     -28.8149      2.00000
      6     -21.7040      2.00000
      7       1.0737      1.35019
      8       1.0737      1.35018
      9       1.0737      1.35009
     10       3.4389      0.00000
     11      10.6245      0.00000
     12      10.6245      0.00000
     13      10.6245      0.00000

[...]

 k-point    35 :      -0.3333    0.4444    0.2222
  band No.  band energies     occupation
      1     -28.8158      2.00000
      2     -28.8147      2.00000
      3     -28.8131      2.00000
      4     -28.8120      2.00000
      5     -28.8084      2.00000
      6     -21.5852      2.00000
      7      -1.0939      2.00000
      8      -0.7458      2.00000
      9      -0.0707      2.00000
     10       7.9952      0.00000
     11       9.1228      0.00000
     12       9.5696      0.00000
     13      10.9753      0.00000

 soft charge-density along one line, spin component           1
         0         1         2         3         4         5         6         7         8         9
 total charge-density along one line

------------------------ aborting loop because EDIFF is reached ----------------------------------------

  FORCE on cell =-STRESS in cart. coord.  units (eV):
  Direction    XX          YY          ZZ          XY          YZ          ZX
  Alpha Z    62.65291    62.65291    62.65291
  Ewald    -570.85869  -570.85869  -570.85869     0.00000    -0.00000     0.00000
  Hartree   225.68977   225.68977   225.68977     0.00000    -0.00000     0.00000
  E(xc)    -111.12531  -111.03052  -110.96775     0.04333     0.00566     0.10533
  Local    -173.82494  -173.82495  -173.82496     0.00001     0.00000     0.00001
  n-local   101.85238   105.38864   107.77914     1.30953    -0.32920     3.67918
  augment    77.26842    77.26841    77.26841     0.00001     0.00000     0.00001
  Kinetic   382.72934   385.55966   387.51167     1.32810     0.16753     3.13357
  Fock        0.00000     0.00000     0.00000     0.00000     0.00000     0.00000
  Total       0.15986     0.15986     0.15986     0.00000    -0.00000     0.00000
  in kB       4.20602     4.20602     4.20602     0.00000    -0.00000     0.00000

 VOLUME and BASIS-vectors are now :
  energy-cutoff  :      600.00
  volume of cell :       60.90
      direct lattice vectors                 reciprocal lattice vectors
     4.416034974  0.000000000  0.000000000     0.226447482 -0.130739515 -0.092446797
     2.208017487  3.824398471 -0.000000000     0.000000000  0.261479029 -0.092446797
     2.208017487  1.274799490  3.605677458    -0.000000000  0.000000000  0.277340392

  length of vectors
     4.416034974  4.416034974  4.416034974     0.277340392  0.277340392  0.277340392

 FORCES acting on ions
    electron-ion (+dipol)            ewald-force                    non-local-force                 convergence-correction
   -.402E-13 0.800E-14 -.703E-13   -.815E-15 0.610E-15 0.412E-16   -.265E-22 0.298E-22 0.000E+00   -.127E-12 0.677E-13 -.361E-13
   -.370E-13 0.270E-14 -.707E-13   -.815E-15 0.610E-15 0.412E-16   -.265E-22 0.298E-22 0.000E+00   -.127E-12 0.677E-13 -.361E-13

 POSITION                                       TOTAL-FORCE (eV/Angst)
      0.00000      0.00000      0.00000        -0.000000      0.000000      0.000000
    total drift:                               -0.000000      0.000000     -0.000000

  FREE ENERGIE OF THE ION-ELECTRON SYSTEM (eV)
  free  energy   TOTEN  =      -137.00507842 eV

  energy  without entropy=     -137.00526703  energy(sigma->0) =     -137.00514129