 vasp.5.4.4.18Apr17-6-g9f103f2a35 (build Nov 03 2018 10:20:46) complex

 executed on             LinuxIFC date 2018.11.14  14:25:30

 INCAR:
 POTCAR:    PAW_PBE Rn_d_GW 14Apr2014

 POTCAR:    PAW_PBE Rn_d_GW 14Apr2014
   VRHFIN =Rn:

   TITEL  = PAW_PBE Rn_d_GW 14Apr2014
   POMASS =  220.170; ZVAL   =   18.000    mass and valenz
   ENMAX  =  268.495; ENMIN  =  201.371 eV

  PAW_PBE Rn_d_GW 14Apr2014             :

 POSCAR: Rn_FCC
  positions in direct lattice
  velocities in cartesian coordinates
 exchange correlation table for  LEXCH =        8
   RHO(1)=    0.500       N(1)  =     2000
   RHO(2)=  100.500       N(2)  =     4000

 ion  position               nearest neighbor table
   1  0.000  0.000  0.000-

  LATTYP: Found a face centered cubic cell.
 ALAT       =     6.3940432426

  Lattice vectors:

 A1 = (   4.5212713359,   0.0000000000,   0.0000000000)
 A2 = (   2.2606356680,   3.9155358343,  -0.0000000000)
 A3 = (   2.2606356680,   1.3051786114,   3.6916025873)

Analysis of symmetry for initial positions (statically):
 Subroutine PRICEL returns:
 Original cell was already a primitive cell.

 Routine SETGRP: Setting up the symmetry group for a
 face centered cubic supercell.

 Subroutine GETGRP returns: Found 48 space group operations
 (whereof 48 operations were pure point group operations)
 out of a pool of 48 trial point group operations.

The static configuration has the point symmetry O_h .

Analysis of symmetry for dynamics (positions and initial velocities):
 Subroutine PRICEL returns:
 Original cell was already a primitive cell.

[...]

The dynamic configuration has the point symmetry O_h .

Analysis of structural, dynamic, and magnetic symmetry:
 Subroutine PRICEL returns:
 Original cell was already a primitive cell.

 Routine SETGRP: Setting up the symmetry group for a
 face centered cubic supercell.

 Subroutine GETGRP returns: Found  2 space group operations
 (whereof  2 operations were pure point group operations)
 out of a pool of 48 trial point group operations.

The (compounded) configuration has the point symmetry S_2 .

 Subroutine INISYM returns: Found  2 space group operations
 (whereof  2 operations are pure point group operations),
 and found     1 'primitive' translations

Automatic generation of k-mesh.
 generate k-points for:    9    9    9
Space group operators:
 irot       det(A)        alpha          n_x          n_y          n_z        tau_x        tau_y        tau_z
    1     1.000000     0.000001     1.000000     0.000000     0.000000     0.000000     0.000000     0.000000
    2    -1.000000     0.000001     1.000000     0.000000     0.000000     0.000000     0.000000     0.000000

 Subroutine IBZKPT returns following result:

 Found    365 irreducible k-points:

 Following reciprocal coordinates:
            Coordinates               Weight
  0.000000  0.000000  0.000000      1.000000
  0.111111 -0.000000 -0.000000      2.000000
  0.222222 -0.000000  0.000000      2.000000
  0.333333 -0.000000  0.000000      2.000000
  0.444444 -0.000000  0.000000      2.000000
 -0.000000  0.111111  0.000000      2.000000
  0.111111  0.111111 -0.000000      2.000000
  0.222222  0.111111  0.000000      2.000000
  0.333333  0.111111  0.000000      2.000000
  0.444444  0.111111 -0.000000      2.000000
 -0.444444  0.111111  0.000000      2.000000
 -0.333333  0.111111  0.000000      2.000000
 -0.222222  0.111111  0.000000      2.000000
 -0.111111  0.111111  0.000000      2.000000
 -0.000000  0.222222  0.000000      2.000000
  0.111111  0.222222  0.000000      2.000000
  0.222222  0.222222  0.000000      2.000000
  0.333333  0.222222  0.000000      2.000000
  0.444444  0.222222  0.000000      2.000000
 -0.444444  0.222222  0.000000      2.000000
 -0.333333  0.222222 -0.000000      2.000000
 -0.222222  0.222222  0.000000      2.000000
 -0.111111  0.222222  0.000000      2.000000
 -0.000000  0.333333  0.000000      2.000000
  0.111111  0.333333  0.000000      2.000000
  0.222222  0.333333  0.000000      2.000000
  0.333333  0.333333  0.000000      2.000000
  0.444444  0.333333  0.000000      2.000000
 -0.444444  0.333333  0.000000      2.000000
 -0.333333  0.333333  0.000000      2.000000
 -0.222222  0.333333  0.000000      2.000000
 -0.111111  0.333333  0.000000      2.000000
 -0.000000  0.444444  0.000000      2.000000
  0.111111  0.444444 -0.000000      2.000000
  0.222222  0.444444  0.000000      2.000000
  0.333333  0.444444 -0.000000      2.000000
  0.444444  0.444444  0.000000      2.000000
 -0.444444  0.444444  0.000000      2.000000
 -0.333333  0.444444  0.000000      2.000000
 -0.222222  0.444444  0.000000      2.000000
 -0.111111  0.444444  0.000000      2.000000
  0.000000  0.000000  0.111111      2.000000
  0.111111 -0.000000  0.111111      2.000000
  0.222222 -0.000000  0.111111      2.000000
  0.333333 -0.000000  0.111111      2.000000
  0.444444 -0.000000  0.111111      2.000000
 -0.444444  0.000000  0.111111      2.000000
 -0.333333  0.000000  0.111111      2.000000
 -0.222222  0.000000  0.111111      2.000000
 -0.111111  0.000000  0.111111      2.000000
  0.000000  0.111111  0.111111      2.000000
  0.111111  0.111111  0.111111      2.000000
  0.222222  0.111111  0.111111      2.000000
  0.333333  0.111111  0.111111      2.000000
  0.444444  0.111111  0.111111      2.000000
 -0.444444  0.111111  0.111111      2.000000
 -0.333333  0.111111  0.111111      2.000000
 -0.222222  0.111111  0.111111      2.000000
 -0.111111  0.111111  0.111111      2.000000
  0.000000  0.222222  0.111111      2.000000
[...]
  0.333333 -0.222222  0.444444      2.000000
  0.444444 -0.222222  0.444444      2.000000
 -0.444444 -0.222222  0.444444      2.000000
 -0.333333 -0.222222  0.444444      2.000000
 -0.222222 -0.222222  0.444444      2.000000
 -0.111111 -0.222222  0.444444      2.000000
  0.000000 -0.111111  0.444444      2.000000
  0.111111 -0.111111  0.444444      2.000000
  0.222222 -0.111111  0.444444      2.000000
  0.333333 -0.111111  0.444444      2.000000
  0.444444 -0.111111  0.444444      2.000000
 -0.444444 -0.111111  0.444444      2.000000
 -0.333333 -0.111111  0.444444      2.000000
 -0.222222 -0.111111  0.444444      2.000000
 -0.111111 -0.111111  0.444444      2.000000

 Following cartesian coordinates:
            Coordinates               Weight
  0.000000  0.000000  0.000000      1.000000
  0.024575 -0.014188 -0.010033      2.000000
  0.049150 -0.028377 -0.020066      2.000000
  0.073726 -0.042565 -0.030098      2.000000
  0.098301 -0.056754 -0.040131      2.000000
  0.000000  0.028377 -0.010033      2.000000
  0.024575  0.014188 -0.020066      2.000000
  0.049150 -0.000000 -0.030098      2.000000
  0.073726 -0.014188 -0.040131      2.000000
  0.098301 -0.028377 -0.050164      2.000000
 -0.098301  0.085131  0.030098      2.000000
 -0.073726  0.070942  0.020066      2.000000
 -0.049150  0.056754  0.010033      2.000000
 -0.024575  0.042565  0.000000      2.000000
  0.000000  0.056754 -0.020066      2.000000
  0.024575  0.042565 -0.030098      2.000000
  0.049150  0.028377 -0.040131      2.000000
  0.073726  0.014188 -0.050164      2.000000
  0.098301  0.000000 -0.060197      2.000000
 -0.098301  0.113508  0.020066      2.000000
 -0.073726  0.099319  0.010033      2.000000
 -0.049150  0.085131  0.000000      2.000000
 -0.024575  0.070942 -0.010033      2.000000
  0.000000  0.085131 -0.030098      2.000000
  0.024575  0.070942 -0.040131      2.000000
  0.049150  0.056754 -0.050164      2.000000
  0.073726  0.042565 -0.060197      2.000000
  0.098301  0.028377 -0.070229      2.000000
 -0.098301  0.141885  0.010033      2.000000
 -0.073726  0.127696  0.000000      2.000000
 -0.049150  0.113508 -0.010033      2.000000
 -0.024575  0.099319 -0.020066      2.000000
  0.000000  0.113508 -0.040131      2.000000
  0.024575  0.099319 -0.050164      2.000000
  0.049150  0.085131 -0.060197      2.000000
  0.073726  0.070942 -0.070229      2.000000
  0.098301  0.056754 -0.080262      2.000000
 -0.098301  0.170262  0.000000      2.000000
 -0.073726  0.156073 -0.010033      2.000000
 -0.049150  0.141885 -0.020066      2.000000
 -0.024575  0.127696 -0.030098      2.000000
 -0.000000  0.000000  0.030098      2.000000
  0.024575 -0.014188  0.020066      2.000000
  0.049150 -0.028377  0.010033      2.000000
  0.073726 -0.042565 -0.000000      2.000000
  0.098301 -0.056754 -0.010033      2.000000
 -0.098301  0.056754  0.070229      2.000000
 -0.073726  0.042565  0.060197      2.000000
 -0.049150  0.028377  0.050164      2.000000
 -0.024575  0.014188  0.040131      2.000000
 -0.000000  0.028377  0.020066      2.000000
  0.024575  0.014188  0.010033      2.000000
  0.049150 -0.000000 -0.000000      2.000000
  0.073726 -0.014188 -0.010033      2.000000
  0.098301 -0.028377 -0.020066      2.000000
 -0.098301  0.085131  0.060197      2.000000
 -0.073726  0.070942  0.050164      2.000000
 -0.049150  0.056754  0.040131      2.000000
 -0.024575  0.042565  0.030098      2.000000
 -0.000000  0.056754  0.010033      2.000000
[...]
  0.073726 -0.099319  0.110361      2.000000
  0.098301 -0.113508  0.100328      2.000000
 -0.098301  0.000000  0.180590      2.000000
 -0.073726 -0.014188  0.170557      2.000000
 -0.049150 -0.028377  0.160524      2.000000
 -0.024575 -0.042565  0.150492      2.000000
 -0.000000 -0.028377  0.130426      2.000000
  0.024575 -0.042565  0.120393      2.000000
  0.049150 -0.056754  0.110361      2.000000
  0.073726 -0.070942  0.100328      2.000000
  0.098301 -0.085131  0.090295      2.000000
 -0.098301  0.028377  0.170557      2.000000
 -0.073726  0.014188  0.160524      2.000000
 -0.049150  0.000000  0.150492      2.000000
 -0.024575 -0.014188  0.140459      2.000000

 SYSTEM =  Cn_FCC
 POSCAR =  Rn_FCC

 Startparameter for this run:
   NWRITE =      2    write-flag & timer
   PREC   = accura    normal or accurate (medium, high low for compatibility)
   ISTART =      0    job   : 0-new  1-cont  2-samecut
   ICHARG =      2    charge: 1-file 2-atom 10-const
   ISPIN  =      1    spin polarized calculation?
   LNONCOLLINEAR =      T non collinear calculations
   LSORBIT =      T    spin-orbit coupling
   INIWAV =      1    electr: 0-lowe 1-rand  2-diag
   LASPH  =      F    aspherical Exc in radial PAW
   METAGGA=      F    non-selfconsistent MetaGGA calc.

 Electronic Relaxation 1
   ENCUT  =  600.0 eV  44.10 Ry    6.64 a.u.   9.03  9.03  9.03*2*pi/ulx,y,z
   ENINI  =  600.0     initial cutoff
   ENAUG  =  715.6 eV  augmentation charge cutoff
   NELM   =    100;   NELMIN=  5; NELMDL= -5     # of ELM steps
   EDIFF  = 0.1E-06   stopping-criterion for ELM
   LREAL  =      F    real-space projection
   NLSPLINE    = F    spline interpolate recip. space projectors
   LCOMPAT=      F    compatible to vasp.4.4
   GGA_COMPAT  = F    GGA compatible to vasp.4.4-vasp.4.6
   LMAXPAW     = -100 max onsite density
   LMAXMIX     =    2 max onsite mixed and CHGCAR
   VOSKOWN=      0    Vosko Wilk Nusair interpolation
   ROPT   =    0.00000
 Ionic relaxation
   EDIFFG = 0.1E-04   stopping-criterion for IOM
   NSW    =    999    number of steps for IOM
   NBLOCK =      1;   KBLOCK =    999    inner block; outer block
   IBRION =      1    ionic relax: 0-MD 1-quasi-New 2-CG
[...]
 k-point ** :  -0.1111 0.1111 0.2222  plane waves:    4356
 k-point ** :   0.0000 0.2222 0.2222  plane waves:    4346
 k-point ** :   0.1111 0.2222 0.2222  plane waves:    4344
 k-point ** :   0.2222 0.2222 0.2222  plane waves:    4332
 k-point ** :   0.3333 0.2222 0.2222  plane waves:    4362
 k-point ** :   0.4444 0.2222 0.2222  plane waves:    4366
 k-point ** :  -0.4444 0.2222 0.2222  plane waves:    4368
 k-point ** :  -0.3333 0.2222 0.2222  plane waves:    4376
 k-point ** :  -0.2222 0.2222 0.2222  plane waves:    4330
 k-point ** :  -0.1111 0.2222 0.2222  plane waves:    4362
 k-point ** :  -0.0000 0.3333 0.2222  plane waves:    4362
 k-point ** :   0.1111 0.3333 0.2222  plane waves:    4356
 k-point ** :   0.2222 0.3333 0.2222  plane waves:    4362
 k-point ** :   0.3333 0.3333 0.2222  plane waves:    4336
 k-point ** :   0.4444 0.3333 0.2222  plane waves:    4336
 k-point ** :  -0.4444 0.3333 0.2222  plane waves:    4360
 k-point ** :  -0.3333 0.3333 0.2222  plane waves:    4390
 k-point ** :  -0.2222 0.3333 0.2222  plane waves:    4384
 k-point ** :  -0.1111 0.3333 0.2222  plane waves:    4358
 k-point ** :  -0.0000 0.4444 0.2222  plane waves:    4330
[...]
 k-point ** :   0.3333-0.2222 0.4444  plane waves:    4384
 k-point ** :   0.4444-0.2222 0.4444  plane waves:    4368
 k-point ** :  -0.4444-0.2222 0.4444  plane waves:    4384
 k-point ** :  -0.3333-0.2222 0.4444  plane waves:    4360
 k-point ** :  -0.2222-0.2222 0.4444  plane waves:    4368
 k-point ** :  -0.1111-0.2222 0.4444  plane waves:    4376
 k-point ** :   0.0000-0.1111 0.4444  plane waves:    4358
 k-point ** :   0.1111-0.1111 0.4444  plane waves:    4376
 k-point ** :   0.2222-0.1111 0.4444  plane waves:    4384
 k-point ** :   0.3333-0.1111 0.4444  plane waves:    4378
 k-point ** :   0.4444-0.1111 0.4444  plane waves:    4386
 k-point ** :  -0.4444-0.1111 0.4444  plane waves:    4378
 k-point ** :  -0.3333-0.1111 0.4444  plane waves:    4384
 k-point ** :  -0.2222-0.1111 0.4444  plane waves:    4376
 k-point ** :  -0.1111-0.1111 0.4444  plane waves:    4358

 maximum and minimum number of plane-waves per node :      1152     1044

 maximum number of plane-waves:      4390
 maximum index in each direction:
   IXMAX=    9   IYMAX=    9   IZMAX=    9
   IXMIN=   -9   IYMIN=   -9   IZMIN=   -9

 parallel 3D FFT for wavefunctions:
    minimum data exchange during FFTs selected (reduces bandwidth)
 parallel 3D FFT for charge:
    minimum data exchange during FFTs selected (reduces bandwidth)

 Broyden mixing: mesh for mixing (old mesh)
   NGX = 19   NGY = 19   NGZ = 19
  (NGX  = 72   NGY  = 72   NGZ  = 72)
  gives a total of   6859 points

 initial charge density was supplied:
 charge density of overlapping atoms calculated
 number of electron      18.0000000 magnetization       1.0000000      1.0000000      1.0000000
 keeping initial charge density in first step

 Maximum index for augmentation-charges        53269 (set IRDMAX)

 First call to EWALD:  gamma=   0.440
 Maximum number of real-space cells 3x 3x 3
 Maximum number of reciprocal cells 3x 3x 3

--------------------------------------- Iteration      1(   1)  ---------------------------------------

 eigenvalue-minimisations  : 27604
 total energy-change (2. order) : 0.2567028E+03  (-0.9274689E+03)
 number of electron      18.0000000 magnetization       1.0000000      1.0000000      1.0000000
 augmentation part       18.0000000 magnetization       1.0000000      1.0000000      1.0000000

 Free energy of the ion-electron system (eV)
  alpha Z        PSCENC =        64.88080650
  Ewald energy   TEWEN  =     -1672.71439339
  -Hartree energ DENC   =     -1018.69119554
  -exchange      EXHF   =         0.00000000
  -V(xc)+E(xc)   XCENC  =        36.96065698
  PAW double counting   =      2507.45732061    -2477.96017598
  entropy T*S    EENTRO =         0.00024677
  eigenvalues    EBANDS =      -213.93683290
  atomic energy  EATOM  =      3030.70638948
  Solvation  Ediel_sol  =         0.00000000
  free energy    TOTEN  =       256.70282253 eV

  energy without entropy =      256.70257576  energy(sigma->0) =      256.70274027

[...]

 eigenvalue-minimisations  : 25456
 total energy-change (2. order) :-0.1669128E+03  (-0.1571572E+03)
 number of electron      18.0000000 magnetization       1.0000000      1.0000000      1.0000000
 augmentation part       18.0000000 magnetization       1.0000000      1.0000000      1.0000000

[...]

 Broyden mixing:
  rms(total) = 0.77459E+00    rms(broyden)= 0.77459E+00
  rms(prec ) = 0.77722E+00
  weight for this iteration     100.00

[...]

 eigenvalues of (default mixing * dielectric matrix)
  average eigenvalue GAMMA=   0.7263
  0.7263

[...]

 average (electrostatic) potential at core
  the test charge radii are     1.0367
  (the norm of the test charge is              1.0000)
       1 -84.3966

 E-fermi :  -1.3393     XC(G=0):  -6.9645     alpha+bet : -4.5333

 k-point     1 :       0.0000    0.0000    0.0000
  band No.  band energies     occupation
      1     -44.1539      1.00000
      2     -44.1539      1.00000
      3     -44.1539      1.00000
      4     -44.1539      1.00000
      5     -39.7574      1.00000
      6     -39.7574      1.00000
      7     -39.7572      1.00000
      8     -39.7572      1.00000
      9     -39.7572      1.00000
     10     -39.7572      1.00000
     11     -17.3746      1.00000
     12     -17.3746      1.00000
     13      -5.0842      1.00000
     14      -5.0842      1.00000
     15      -1.3732      0.76969
     16      -1.3732      0.76969
     17      -1.3732      0.76968
     18      -1.3732      0.76967
     19       2.4173      0.00000
     20       2.4173      0.00000
     21       7.6136      0.00000
     22       7.6136      0.00000
     23       7.6136      0.00000
     24       7.6136      0.00000
     25       7.7696      0.00000
     26       7.7696      0.00000
     27       9.4367      0.00000
     28       9.4473      0.00000

[...]

 soft charge-density along one line, spin component           1
         0         1         2         3         4         5         6         7         8         9
 total charge-density along one line

[...]

------------------------ aborting loop because EDIFF is reached ----------------------------------------

         DFTD3 V3.0 Rev 1
 IVDW         = 12
 DF pbe
 parameters
 VDW_S6       =    1.0000
 VDW_S8       =    0.7875
 VDW_A1       =    0.4289
 VDW_A2       =    4.4407
 k1-k3        =   16.0000    1.3333   -4.0000
 VDW_RADIUS   =   50.2022 A
 VDW_CNRADIUS =   21.1671 A
 Edisp (eV)   -0.20565

 E6    (eV) :    -0.1077
 E8    (eV) :    -0.0979
 % E8        : 47.62

  FORCE on cell =-STRESS in cart. coord.  units (eV):
  Direction    XX          YY          ZZ          XY          YZ          ZX
  Alpha Z    64.88081    64.88081    64.88081
  Ewald    -557.57148  -557.57148  -557.57148    -0.00000    -0.00000    -0.00000
  Hartree   340.13057   340.13057   340.13057     0.00000     0.00000     0.00000
  E(xc)     -99.19970   -99.19970   -99.19970    -0.00000    -0.00000    -0.00000
  Local     -74.44801   -74.44801   -74.44801    -0.00000    -0.00000    -0.00000
  n-local    65.95811    65.95812    65.95812    -0.00002    -0.00001    -0.00002
  augment    98.92654    98.92654    98.92654    -0.00000    -0.00000    -0.00000
  Kinetic   161.55830   161.55829   161.55829     0.00000     0.00000     0.00000
  Fock        0.00000     0.00000     0.00000     0.00000     0.00000     0.00000
  vdW        -0.25133    -0.25133    -0.25133     0.00000    -0.00000    -0.00000
  Total      -0.01620    -0.01620    -0.01619    -0.00002    -0.00001    -0.00002
  in kB      -0.39721    -0.39704    -0.39698    -0.00047    -0.00035    -0.00044

 VOLUME and BASIS-vectors are now :
  energy-cutoff  :      600.00
  volume of cell :       65.35
      direct lattice vectors                 reciprocal lattice vectors
     4.521271336  0.000000000  0.000000000     0.221176728 -0.127696443 -0.090295021
     2.260635668  3.915535834 -0.000000000     0.000000000  0.255392887 -0.090295021
     2.260635668  1.305178611  3.691602587    -0.000000000  0.000000000  0.270885063

[...]

 FORCES acting on ions
    electron-ion (+dipol)            ewald-force                    non-local-force                 convergence-correction
   0.558E-13 0.107E-12 -.117E-13   -.218E-14 -.425E-16 0.191E-14   0.106E-21 0.529E-22 0.000E+00   -.112E-12 0.844E-14 -.915E-13
   0.558E-13 0.107E-12 -.117E-13   -.218E-14 -.425E-16 0.191E-14   0.106E-21 0.529E-22 0.000E+00   -.112E-12 0.844E-14 -.915E-13

 POSITION                                       TOTAL-FORCE (eV/Angst)
      0.00000      0.00000      0.00000         0.000000     -0.000000      0.000000
    total drift:                               -0.000000      0.000000     -0.000000

  FREE ENERGIE OF THE ION-ELECTRON SYSTEM (eV)
  free  energy   TOTEN  =        -2.02432190 eV

  energy  without entropy=       -2.02472503  energy(sigma->0) =       -2.02445628

 Quasi-Newton relaxation of ions (Broydens 2nd method)
  g(Force)  = 0.000E+00   g(Stress)= 0.759E-05

 Reset! Starting new Quasi-Newton update for ions

[...]

 eigenvalue-minimisations  : 29204
 total energy-change (2. order) : 0.3913878E-05  (-0.2792707E-05)
 number of electron      18.0000000 magnetization       0.0002238      0.0002170      0.0002179
 augmentation part        7.1017983 magnetization       0.0002307      0.0002239      0.0002234

[...]

 Broyden mixing:
  rms(total) = 0.10893E-03    rms(broyden)= 0.10893E-03
  rms(prec ) = 0.15799E-03
  weight for this iteration     100.00

 eigenvalues of (default mixing * dielectric matrix)
  average eigenvalue GAMMA=   1.3320
  3.2964  2.6268  2.5579  2.1064  1.5726  1.0893  0.9699  0.8847  0.8086  0.8086
  0.5858  0.7216  0.6852  0.6230  0.6426

[...]

--------------------------------------- Iteration      2(   6)  ---------------------------------------

 eigenvalue-minimisations  : 28404
 total energy-change (2. order) :-0.5543643E-07  (-0.2374691E-07)
 number of electron      18.0000000 magnetization      -0.0000082     -0.0000077     -0.0000079
 augmentation part        7.1018130 magnetization      -0.0000018     -0.0000013     -0.0000016

 Free energy of the ion-electron system (eV)
  alpha Z        PSCENC =        64.91123397
  Ewald energy   TEWEN  =     -1672.97583954
  -Hartree energ DENC   =     -1020.19903438
  -exchange      EXHF   =         0.00000000
  -V(xc)+E(xc)   XCENC  =        36.81758666
  PAW double counting   =      2498.66540933    -2469.84742514
  entropy T*S    EENTRO =         0.00040215
  eigenvalues    EBANDS =      -469.89728159
  atomic energy  EATOM  =      3030.70638948
  Solvation  Ediel_sol  =         0.00000000
  free energy    TOTEN  =        -1.81855904 eV

  energy without entropy =       -1.81896119  energy(sigma->0) =       -1.81869309

 average (electrostatic) potential at core
  the test charge radii are     1.0367
  (the norm of the test charge is              1.0000)
       1 -84.3946

 E-fermi :  -1.3363     XC(G=0):  -6.9665     alpha+bet : -4.5354

[...]

 k-point   365 :      -0.1111   -0.1111    0.4444
  band No.  band energies     occupation
      1     -44.1518      1.00000
      2     -44.1518      1.00000
      3     -44.1517      1.00000
      4     -44.1517      1.00000
      5     -39.7553      1.00000
      6     -39.7553      1.00000
      7     -39.7549      1.00000
      8     -39.7549      1.00000
      9     -39.7548      1.00000
     10     -39.7548      1.00000
     11     -17.2348      1.00000
     12     -17.2348      1.00000
     13      -5.6467      1.00000
     14      -5.6467      1.00000
     15      -2.7751      1.00000
     16      -2.7751      1.00000
     17      -1.7579      1.00000
     18      -1.7579      1.00000
     19       4.5755      0.00000
     20       4.5756      0.00000
     21       6.6299      0.00000
     22       6.6300      0.00000
     23       7.5425      0.00000
     24       7.5425      0.00000
     25       8.0074      0.00000
     26       8.0075      0.00000
     27      10.1784      0.00000
     28      10.1785      0.00000

[...]

 soft charge-density along one line, spin component           4
         0         1         2         3         4         5         6         7         8         9
 total charge-density along one line

------------------------ aborting loop because EDIFF is reached ----------------------------------------

         DFTD3 V3.0 Rev 1
 Edisp (eV)   -0.20577

 E6    (eV) :    -0.1078
 E8    (eV) :    -0.0980
 % E8        : 47.62

  FORCE on cell =-STRESS in cart. coord.  units (eV):
  Direction    XX          YY          ZZ          XY          YZ          ZX
  Alpha Z    64.91123    64.91123    64.91123
  Ewald    -557.65863  -557.65863  -557.65863    -0.00000    -0.00000    -0.00000
  Hartree   340.06718   340.06719   340.06719    -0.00001    -0.00000    -0.00001
  E(xc)     -99.19983   -99.19983   -99.19983     0.00000     0.00000     0.00000
  Local     -74.32772   -74.32773   -74.32773     0.00002     0.00001     0.00002
  n-local    65.96739    65.96738    65.96738    -0.00003    -0.00002    -0.00003
  augment    98.92600    98.92600    98.92600     0.00000     0.00000     0.00000
  Kinetic   161.55946   161.55946   161.55947     0.00000     0.00000     0.00000
  Fock        0.00000     0.00000     0.00000     0.00000     0.00000     0.00000
  vdW        -0.25139    -0.25139    -0.25139     0.00000    -0.00000     0.00000
  Total      -0.00629    -0.00630    -0.00631    -0.00000    -0.00001    -0.00001
  in kB      -0.15426    -0.15464    -0.15470    -0.00007    -0.00016    -0.00022

 VOLUME and BASIS-vectors are now :
  energy-cutoff  :      600.00
  volume of cell :       65.32
      direct lattice vectors                 reciprocal lattice vectors
     4.520564769  0.000000000  0.000000000     0.221211298 -0.127716402 -0.090309134
     2.260282385  3.914923930 -0.000000000     0.000000000  0.255432805 -0.090309134
     2.260282385  1.304974643  3.691025678    -0.000000000  0.000000000  0.270927403

  length of vectors
     4.520564769  4.520564769  4.520564769     0.270927403  0.270927403  0.270927403

 FORCES acting on ions
    electron-ion (+dipol)            ewald-force                    non-local-force                 convergence-correction
   0.336E-13 0.113E-12 -.110E-13   -.116E-14 0.583E-15 0.129E-14   0.529E-22 0.794E-22 -.529E-22   -.163E-12 0.935E-13 -.125E-12
   0.336E-13 0.113E-12 -.110E-13   -.116E-14 0.583E-15 0.129E-14   0.529E-22 0.794E-22 -.529E-22   -.163E-12 0.935E-13 -.125E-12

 POSITION                                       TOTAL-FORCE (eV/Angst)
      0.00000      0.00000      0.00000         0.000000      0.000000      0.000000
    total drift:                               -0.000000      0.000000     -0.000000

  FREE ENERGIE OF THE ION-ELECTRON SYSTEM (eV)
  free  energy   TOTEN  =        -2.02432897 eV

  energy  without entropy=       -2.02473112  energy(sigma->0) =       -2.02446302

 d Force = 0.0000000E+00[ 0.000E+00, 0.000E+00]  d Energy = 0.7067512E-05-0.707E-05
 d Force = 0.0000000E+00[ 0.000E+00, 0.000E+00]  d Ewald  = 0.2614461E+00-0.261E+00

 Quasi-Newton relaxation of ions (Broydens 2nd method)
  g(Force)  = 0.000E+00   g(Stress)= 0.115E-05

 retain information from N=  1 steps
 eigenvalues of (default step * inverse Hessian matrix)
  average eigenvalue of G=   1.6365
 eigenvalue spectrum of G is  1.6365

 reached required accuracy - stopping structural energy minimisation

 Spin-Orbit-Coupling matrix elements

 Ion:    1  E_soc:     -3.7099035
 l=   1
     0.0000000    -0.4916304    -0.4916304
    -0.4916304     0.0000000    -0.4916304
    -0.4916304    -0.4916304     0.0000000
 l=   2
     0.0000000    -0.0253371     0.0000000    -0.0253371    -0.1013495
    -0.0253371     0.0000000    -0.0760122    -0.0253367    -0.0253371
     0.0000000    -0.0760122     0.0000000    -0.0760122     0.0000000
    -0.0253371    -0.0253367    -0.0760122     0.0000000    -0.0253371
    -0.1013495    -0.0253371     0.0000000    -0.0253371     0.0000000
 l=   3
     0.0000000    -0.0000000     0.0000000     0.0000000     0.0000000    -0.0000000    -0.0000004
    -0.0000000     0.0000000    -0.0000001     0.0000000    -0.0000001    -0.0000001    -0.0000001
     0.0000000    -0.0000001     0.0000000    -0.0000002    -0.0000001    -0.0000001     0.0000000
     0.0000000     0.0000000    -0.0000002     0.0000000    -0.0000002     0.0000000     0.0000000
     0.0000000    -0.0000001    -0.0000001    -0.0000002     0.0000000    -0.0000001     0.0000000
    -0.0000000    -0.0000001    -0.0000001     0.0000000    -0.0000001     0.0000000    -0.0000001
    -0.0000004    -0.0000001     0.0000000     0.0000000     0.0000000    -0.0000001     0.0000000