 vasp.5.4.4.18Apr17-6-g9f103f2a35 (build Nov 03 2018 10:20:43) complex

 executed on             LinuxIFC date 2018.11.28  17:22:00

 INCAR:
 POTCAR:    PAW Og, JanMewes Oct 18

 POTCAR:    PAW Og, JanMewes Oct 18
   VRHFIN =Og : 10d 2s 6p, PE

   TITEL  = PAW Og, JanMewes Oct 18
   POMASS =    0.010; ZVAL   =   18.000    mass and valenz
   ENMAX  =  339.336; ENMIN  =  254.502 eV
   QCUT   =   -4.994; QGAM   =    9.988    optimization parameters

  PAW Og, JanMewes Oct 18               :

 POSCAR: Og_FCC
  positions in direct lattice
  velocities in cartesian coordinates
 exchange correlation table for  LEXCH =        8
   RHO(1)=    0.500       N(1)  =     2000
   RHO(2)=  100.500       N(2)  =     4000

 ion  position               nearest neighbor table
   1  0.000  0.000  0.000-

  LATTYP: Found a face centered cubic cell.
 ALAT       =     6.3248992671

  Lattice vectors:

 A1 = (   4.4723791620,   0.0000000000,   0.0000000000)
 A2 = (   2.2361895810,   3.8731939696,  -0.0000000000)
 A3 = (   2.2361895810,   1.2910646565,   3.6516822945)

Analysis of symmetry for initial positions (statically):
 Subroutine PRICEL returns:
 Original cell was already a primitive cell.

 Routine SETGRP: Setting up the symmetry group for a
 face centered cubic supercell.

 Subroutine GETGRP returns: Found 48 space group operations
 (whereof 48 operations were pure point group operations)
 out of a pool of 48 trial point group operations.

The static configuration has the point symmetry O_h .

Analysis of symmetry for dynamics (positions and initial velocities):
 Subroutine PRICEL returns:
 Original cell was already a primitive cell.

 Routine SETGRP: Setting up the symmetry group for a
 face centered cubic supercell.

 Subroutine GETGRP returns: Found 48 space group operations
 (whereof 48 operations were pure point group operations)
 out of a pool of 48 trial point group operations.

The dynamic configuration has the point symmetry O_h .

 Subroutine INISYM returns: Found 48 space group operations
 (whereof 48 operations are pure point group operations),
 and found     1 'primitive' translations

Automatic generation of k-mesh.
 generate k-points for:    9    9    9
Space group operators:
 irot       det(A)        alpha          n_x          n_y          n_z        tau_x        tau_y        tau_z
    1     1.000000     0.000000     1.000000     0.000000     0.000000     0.000000     0.000000     0.000000
    2    -1.000000     0.000000     1.000000     0.000000     0.000000     0.000000     0.000000     0.000000
    3     1.000000   120.000000    -0.816497    -0.471405    -0.333333     0.000000     0.000000     0.000000
    4    -1.000000   120.000000    -0.816497    -0.471405    -0.333333     0.000000     0.000000     0.000000
    5     1.000000   120.000000     0.816497     0.471405     0.333333     0.000000     0.000000     0.000000
    6    -1.000000   120.000000     0.816497     0.471405     0.333333     0.000000     0.000000     0.000000
    7     1.000000    90.000000    -0.707107    -0.408248     0.577350     0.000000     0.000000     0.000000
    8    -1.000000    90.000000    -0.707107    -0.408248     0.577350     0.000000     0.000000     0.000000
    9     1.000000   180.000000     1.000000     0.000000     0.000000     0.000000     0.000000     0.000000
   10    -1.000000   180.000000     1.000000     0.000000     0.000000     0.000000     0.000000     0.000000
   11     1.000000    90.000000     0.707107    -0.408248     0.577350     0.000000     0.000000     0.000000
   12    -1.000000    90.000000     0.707107    -0.408248     0.577350     0.000000     0.000000     0.000000
   13     1.000000   180.000000     0.707107     0.408248    -0.577350     0.000000     0.000000     0.000000
   14    -1.000000   180.000000     0.707107     0.408248    -0.577350     0.000000     0.000000     0.000000
   15     1.000000   120.000000     0.816497    -0.471405    -0.333333     0.000000     0.000000     0.000000
   16    -1.000000   120.000000     0.816497    -0.471405    -0.333333     0.000000     0.000000     0.000000
   17     1.000000   120.000000     0.000000    -0.942809     0.333333     0.000000     0.000000     0.000000
   18    -1.000000   120.000000     0.000000    -0.942809     0.333333     0.000000     0.000000     0.000000
   19     1.000000    90.000000     0.707107     0.408248    -0.577350     0.000000     0.000000     0.000000
   20    -1.000000    90.000000     0.707107     0.408248    -0.577350     0.000000     0.000000     0.000000
   21     1.000000    90.000000    -0.000000    -0.816497    -0.577350     0.000000     0.000000     0.000000
   22    -1.000000    90.000000    -0.000000    -0.816497    -0.577350     0.000000     0.000000     0.000000
   23     1.000000   180.000000     0.500000     0.866025     0.000000     0.000000     0.000000     0.000000
   24    -1.000000   180.000000     0.500000     0.866025     0.000000     0.000000     0.000000     0.000000
   25     1.000000   120.000000     0.000000     0.942809    -0.333333     0.000000     0.000000     0.000000
   26    -1.000000   120.000000     0.000000     0.942809    -0.333333     0.000000     0.000000     0.000000
   27     1.000000   120.000000    -0.000000     0.000000    -1.000000     0.000000     0.000000     0.000000
   28    -1.000000   120.000000    -0.000000     0.000000    -1.000000     0.000000     0.000000     0.000000
   29     1.000000   180.000000    -0.000000     0.816497     0.577350     0.000000     0.000000     0.000000
   30    -1.000000   180.000000    -0.000000     0.816497     0.577350     0.000000     0.000000     0.000000
   31     1.000000    90.000000    -0.707107     0.408248    -0.577350     0.000000     0.000000     0.000000
   32    -1.000000    90.000000    -0.707107     0.408248    -0.577350     0.000000     0.000000     0.000000
   33     1.000000   179.999999     0.500000     0.288675     0.816497     0.000000     0.000000     0.000000
   34    -1.000000   179.999999     0.500000     0.288675     0.816497     0.000000     0.000000     0.000000
   35     1.000000    90.000000    -0.000000     0.816497     0.577350     0.000000     0.000000     0.000000
   36    -1.000000    90.000000    -0.000000     0.816497     0.577350     0.000000     0.000000     0.000000
   37     1.000000   120.000000    -0.816497     0.471405     0.333333     0.000000     0.000000     0.000000
   38    -1.000000   120.000000    -0.816497     0.471405     0.333333     0.000000     0.000000     0.000000
   39     1.000000   180.000000    -0.707107     0.408248    -0.577350     0.000000     0.000000     0.000000
   40    -1.000000   180.000000    -0.707107     0.408248    -0.577350     0.000000     0.000000     0.000000
   41     1.000000   120.000000    -0.000000    -0.000000     1.000000     0.000000     0.000000     0.000000
   42    -1.000000   120.000000    -0.000000    -0.000000     1.000000     0.000000     0.000000     0.000000
   43     1.000000   180.000000     0.000000     0.577350    -0.816497     0.000000     0.000000     0.000000
   44    -1.000000   180.000000     0.000000     0.577350    -0.816497     0.000000     0.000000     0.000000
   45     1.000000   180.000000    -0.500000     0.866025     0.000000     0.000000     0.000000     0.000000
   46    -1.000000   180.000000    -0.500000     0.866025     0.000000     0.000000     0.000000     0.000000
   47     1.000000   179.999999    -0.500000     0.288675     0.816497     0.000000     0.000000     0.000000
   48    -1.000000   179.999999    -0.500000     0.288675     0.816497     0.000000     0.000000     0.000000

 Subroutine IBZKPT returns following result:

 Found     35 irreducible k-points:

 Following reciprocal coordinates:
            Coordinates               Weight
  0.000000  0.000000  0.000000      1.000000
  0.111111  0.000000  0.000000      8.000000
  0.222222  0.000000 -0.000000      8.000000
  0.333333  0.000000  0.000000      8.000000
  0.444444  0.000000 -0.000000      8.000000
  0.111111  0.111111  0.000000      6.000000
  0.222222  0.111111 -0.000000     24.000000
  0.333333  0.111111  0.000000     24.000000
  0.444444  0.111111  0.000000     24.000000
 -0.444444  0.111111 -0.000000     24.000000
 -0.333333  0.111111 -0.000000     24.000000
 -0.222222  0.111111 -0.000000     24.000000
 -0.111111  0.111111  0.000000     12.000000
  0.222222  0.222222  0.000000      6.000000
  0.333333  0.222222 -0.000000     24.000000
  0.444444  0.222222  0.000000     24.000000
 -0.444444  0.222222  0.000000     24.000000
 -0.333333  0.222222  0.000000     24.000000
 -0.222222  0.222222  0.000000     12.000000
  0.333333  0.333333  0.000000      6.000000
  0.444444  0.333333 -0.000000     24.000000
 -0.444444  0.333333  0.000000     24.000000
 -0.333333  0.333333 -0.000000     12.000000
  0.444444  0.444444  0.000000      6.000000
 -0.444444  0.444444  0.000000     12.000000
  0.333333  0.222222  0.111111     24.000000
  0.444444  0.222222  0.111111     48.000000
 -0.444444  0.222222  0.111111     48.000000
  0.444444  0.333333  0.111111     24.000000
 -0.444444  0.333333  0.111111     48.000000
 -0.333333  0.333333  0.111111     48.000000
 -0.222222  0.333333  0.111111     24.000000
 -0.444444  0.444444  0.111111     24.000000
 -0.333333  0.444444  0.111111     24.000000
 -0.333333  0.444444  0.222222     24.000000

 Following cartesian coordinates:
            Coordinates               Weight
  0.000000  0.000000  0.000000      1.000000
  0.024844 -0.014344 -0.010142      8.000000
  0.049688 -0.028687 -0.020285      8.000000
  0.074532 -0.043031 -0.030427      8.000000
  0.099375 -0.057374 -0.040570      8.000000
  0.024844  0.014344 -0.020285      6.000000
  0.049688 -0.000000 -0.030427     24.000000
  0.074532 -0.014344 -0.040570     24.000000
  0.099375 -0.028687 -0.050712     24.000000
 -0.099375  0.086062  0.030427     24.000000
 -0.074532  0.071718  0.020285     24.000000
 -0.049688  0.057374  0.010142     24.000000
 -0.024844  0.043031 -0.000000     12.000000
  0.049688  0.028687 -0.040570      6.000000
  0.074532  0.014344 -0.050712     24.000000
  0.099375  0.000000 -0.060855     24.000000
 -0.099375  0.114749  0.020285     24.000000
 -0.074532  0.100405  0.010142     24.000000
 -0.049688  0.086062  0.000000     12.000000
  0.074532  0.043031 -0.060855      6.000000
  0.099375  0.028687 -0.070997     24.000000
 -0.099375  0.143436  0.010142     24.000000
 -0.074532  0.129092  0.000000     12.000000
  0.099375  0.057374 -0.081140      6.000000
 -0.099375  0.172123  0.000000     12.000000
  0.074532  0.014344 -0.020285     24.000000
  0.099375  0.000000 -0.030427     48.000000
 -0.099375  0.114749  0.050712     48.000000
  0.099375  0.028687 -0.040570     24.000000
 -0.099375  0.143436  0.040570     48.000000
 -0.074532  0.129092  0.030427     48.000000
 -0.049688  0.114749  0.020285     24.000000
 -0.099375  0.172123  0.030427     24.000000
 -0.074532  0.157780  0.020285     24.000000
 -0.074532  0.157780  0.050712     24.000000

 SYSTEM =  Og_FCC
 POSCAR =  Og_FCC

 Startparameter for this run:
   NWRITE =      2    write-flag & timer
   PREC   = accura    normal or accurate (medium, high low for compatibility)
[...]

 Linear response parameters
   LEPSILON=     F    determine dielectric tensor
   LRPA    =     F    only Hartree local field effects (RPA)
   LNABLA  =     F    use nabla operator in PAW spheres
   LVEL    =     F    velocity operator in full k-point grid
   LINTERFAST=   F  fast interpolation
   KINTER  =     0    interpolate to denser k-point grid
   CSHIFT  =0.1000    complex shift for real part using Kramers Kronig
   OMEGAMAX=  -1.0    maximum frequency
   DEG_THRESHOLD= 0.2000000E-02 threshold for treating states as degnerate
   RTIME   =   -0.100 relaxation time in fs
  (WPLASMAI=    0.000 imaginary part of plasma frequency in eV, 0.658/RTIME)
   DFIELD  = 0.0000000 0.0000000 0.0000000 field for delta impulse in time

 Orbital magnetization related:
   ORBITALMAG=     F  switch on orbital magnetization
   LCHIMAG   =     F  perturbation theory with respect to B field
   DQ        =  0.001000  dq finite difference perturbation B field
   LLRAUG    =     F  two centre corrections for induced B field

 Static calculation
 charge density and potential will be updated during run
 non-spin polarized calculation
 RMM-DIIS sequential band-by-band and
  variant of blocked Davidson during initial phase
 perform sub-space diagonalisation
    before iterative eigenvector-optimisation
 modified Broyden-mixing scheme, WC =      100.0
 initial mixing is a Kerker type mixing with AMIX =  0.4000 and BMIX =      1.0000
 Hartree-type preconditioning will be used
 using additional bands            4
 reciprocal scheme for non local part
 use partial core corrections
 calculate Harris-corrections to forces
   (improved forces if not selfconsistent)
 use gradient corrections
 use of overlap-Matrix (Vanderbilt PP)
 Methfessel and Paxton  Order N= 1 SIGMA  =   0.05

  energy-cutoff  :      600.00
  volume of cell :       63.26
      direct lattice vectors                 reciprocal lattice vectors
     4.472379162  0.000000000  0.000000000     0.223594638 -0.129092424 -0.091282129
     2.236189581  3.873193970 -0.000000000     0.000000000  0.258184849 -0.091282129
     2.236189581  1.291064657  3.651682294    -0.000000000  0.000000000  0.273846386

  length of vectors
     4.472379162  4.472379162  4.472379162     0.273846386  0.273846386  0.273846386

 k-points in units of 2pi/SCALE and weight: read from INCAR
   0.00000000  0.00000000  0.00000000       0.001
   0.02484385 -0.01434360 -0.01014246       0.011
   0.04968770 -0.02868721 -0.02028492       0.011
   0.07453155 -0.04303081 -0.03042738       0.011
   0.09937539 -0.05737441 -0.04056983       0.011
   0.02484385  0.01434360 -0.02028492       0.008
   0.04968770 -0.00000000 -0.03042738       0.033
   0.07453155 -0.01434360 -0.04056983       0.033
   0.09937539 -0.02868721 -0.05071229       0.033
  -0.09937539  0.08606162  0.03042738       0.033
  -0.07453155  0.07171801  0.02028492       0.033
  -0.04968770  0.05737441  0.01014246       0.033
  -0.02484385  0.04303081 -0.00000000       0.016
   0.04968770  0.02868721 -0.04056983       0.008
   0.07453155  0.01434360 -0.05071229       0.033
   0.09937539  0.00000000 -0.06085475       0.033
  -0.09937539  0.11474882  0.02028492       0.033
  -0.07453155  0.10040522  0.01014246       0.033
  -0.04968770  0.08606162  0.00000000       0.016
   0.07453155  0.04303081 -0.06085475       0.008
   0.09937539  0.02868721 -0.07099721       0.033
  -0.09937539  0.14343603  0.01014246       0.033
  -0.07453155  0.12909242  0.00000000       0.016
   0.09937539  0.05737441 -0.08113967       0.008
  -0.09937539  0.17212323  0.00000000       0.016
   0.07453155  0.01434360 -0.02028492       0.033
   0.09937539  0.00000000 -0.03042738       0.066
  -0.09937539  0.11474882  0.05071229       0.066
   0.09937539  0.02868721 -0.04056983       0.033
  -0.09937539  0.14343603  0.04056983       0.066
  -0.07453155  0.12909242  0.03042738       0.066
  -0.04968770  0.11474882  0.02028492       0.033
  -0.09937539  0.17212323  0.03042738       0.033
  -0.07453155  0.15777963  0.02028492       0.033
  -0.07453155  0.15777963  0.05071229       0.033

 k-points in reciprocal lattice and weights: read from INCAR
   0.00000000  0.00000000  0.00000000       0.001
   0.11111111  0.00000000  0.00000000       0.011
   0.22222222  0.00000000 -0.00000000       0.011
   0.33333333  0.00000000  0.00000000       0.011
   0.44444444  0.00000000 -0.00000000       0.011
   0.11111111  0.11111111  0.00000000       0.008
   0.22222222  0.11111111 -0.00000000       0.033
   0.33333333  0.11111111  0.00000000       0.033
   0.44444444  0.11111111  0.00000000       0.033
  -0.44444444  0.11111111 -0.00000000       0.033
  -0.33333333  0.11111111 -0.00000000       0.033
  -0.22222222  0.11111111 -0.00000000       0.033
  -0.11111111  0.11111111  0.00000000       0.016
   0.22222222  0.22222222  0.00000000       0.008
   0.33333333  0.22222222 -0.00000000       0.033
   0.44444444  0.22222222  0.00000000       0.033
  -0.44444444  0.22222222  0.00000000       0.033
  -0.33333333  0.22222222  0.00000000       0.033
  -0.22222222  0.22222222  0.00000000       0.016
   0.33333333  0.33333333  0.00000000       0.008
   0.44444444  0.33333333 -0.00000000       0.033
  -0.44444444  0.33333333  0.00000000       0.033
  -0.33333333  0.33333333 -0.00000000       0.016
   0.44444444  0.44444444  0.00000000       0.008
  -0.44444444  0.44444444  0.00000000       0.016
   0.33333333  0.22222222  0.11111111       0.033
   0.44444444  0.22222222  0.11111111       0.066
  -0.44444444  0.22222222  0.11111111       0.066
   0.44444444  0.33333333  0.11111111       0.033
  -0.44444444  0.33333333  0.11111111       0.066
  -0.33333333  0.33333333  0.11111111       0.066
  -0.22222222  0.33333333  0.11111111       0.033
  -0.44444444  0.44444444  0.11111111       0.033
  -0.33333333  0.44444444  0.11111111       0.033
  -0.33333333  0.44444444  0.22222222       0.033

 position of ions in fractional coordinates (direct lattice)
   0.00000000  0.00000000  0.00000000

 position of ions in cartesian coordinates  (Angst):
   0.00000000  0.00000000  0.00000000

 k-point  1 :   0.0000 0.0000 0.0000  plane waves:    2085
 k-point  2 :   0.1111 0.0000 0.0000  plane waves:    2100
 k-point  3 :   0.2222 0.0000-0.0000  plane waves:    2100
 k-point  4 :   0.3333 0.0000 0.0000  plane waves:    2102
 k-point  5 :   0.4444 0.0000-0.0000  plane waves:    2102
 k-point  6 :   0.1111 0.1111 0.0000  plane waves:    2101
 k-point  7 :   0.2222 0.1111-0.0000  plane waves:    2102
 k-point  8 :   0.3333 0.1111 0.0000  plane waves:    2102
 k-point  9 :   0.4444 0.1111 0.0000  plane waves:    2102
 k-point 10 :  -0.4444 0.1111-0.0000  plane waves:    2110
 k-point 11 :  -0.3333 0.1111-0.0000  plane waves:    2112
 k-point 12 :  -0.2222 0.1111-0.0000  plane waves:    2110
 k-point 13 :  -0.1111 0.1111 0.0000  plane waves:    2103
 k-point 14 :   0.2222 0.2222 0.0000  plane waves:    2085
 k-point 15 :   0.3333 0.2222-0.0000  plane waves:    2101
 k-point 16 :   0.4444 0.2222 0.0000  plane waves:    2108
 k-point 17 :  -0.4444 0.2222 0.0000  plane waves:    2111
 k-point 18 :  -0.3333 0.2222 0.0000  plane waves:    2102
 k-point 19 :  -0.2222 0.2222 0.0000  plane waves:    2113
 k-point 20 :   0.3333 0.3333 0.0000  plane waves:    2108
 k-point 21 :   0.4444 0.3333-0.0000  plane waves:    2110
 k-point 22 :  -0.4444 0.3333 0.0000  plane waves:    2118
 k-point 23 :  -0.3333 0.3333-0.0000  plane waves:    2121
 k-point 24 :   0.4444 0.4444 0.0000  plane waves:    2112
 k-point 25 :  -0.4444 0.4444 0.0000  plane waves:    2111
 k-point 26 :   0.3333 0.2222 0.1111  plane waves:    2101
 k-point 27 :   0.4444 0.2222 0.1111  plane waves:    2109
 k-point 28 :  -0.4444 0.2222 0.1111  plane waves:    2115
 k-point 29 :   0.4444 0.3333 0.1111  plane waves:    2101
 k-point 30 :  -0.4444 0.3333 0.1111  plane waves:    2122
 k-point 31 :  -0.3333 0.3333 0.1111  plane waves:    2119
 k-point 32 :  -0.2222 0.3333 0.1111  plane waves:    2113
 k-point 33 :  -0.4444 0.4444 0.1111  plane waves:    2125
 k-point 34 :  -0.3333 0.4444 0.1111  plane waves:    2128
 k-point 35 :  -0.3333 0.4444 0.2222  plane waves:    2134

 maximum and minimum number of plane-waves per node :      1068     1034

 maximum number of plane-waves:      2134
 maximum index in each direction:
   IXMAX=    9   IYMAX=    8   IZMAX=    8
   IXMIN=   -9   IYMIN=   -9   IZMIN=   -9

 parallel 3D FFT for wavefunctions:
    minimum data exchange during FFTs selected (reduces bandwidth)
 parallel 3D FFT for charge:
    minimum data exchange during FFTs selected (reduces bandwidth)

 Broyden mixing: mesh for mixing (old mesh)
   NGX = 17   NGY = 17   NGZ = 17
  (NGX  = 72   NGY  = 72   NGZ  = 72)
  gives a total of   4913 points

 initial charge density was supplied:
 charge density of overlapping atoms calculated
 number of electron      18.0000000 magnetization
 keeping initial charge density in first step

 Maximum index for augmentation-charges       171813 (set IRDMAX)

 First call to EWALD:  gamma=   0.445
 Maximum number of real-space cells 3x 3x 3
 Maximum number of reciprocal cells 3x 3x 3

--------------------------------------- Iteration      1(   1)  ---------------------------------------

 eigenvalue-minimisations  :   910
 total energy-change (2. order) : 0.3027943E+03  (-0.9576335E+03)
 number of electron      18.0000000 magnetization
 augmentation part       18.0000000 magnetization

 Free energy of the ion-electron system (eV)
  alpha Z        PSCENC =        60.31466281
  Ewald energy   TEWEN  =     -1691.00055387
  -Hartree energ DENC   =      -693.49867529
  -exchange      EXHF   =         0.00000000
  -V(xc)+E(xc)   XCENC  =       -69.39474782
  PAW double counting   =      2268.42939301    -2184.22833953
  entropy T*S    EENTRO =         0.00004924
  eigenvalues    EBANDS =       -28.35620539
  atomic energy  EATOM  =      2640.52872706
  Solvation  Ediel_sol  =         0.00000000
  free energy    TOTEN  =       302.79431020 eV

  energy without entropy =      302.79426096  energy(sigma->0) =      302.79429379

[...]

 eigenvalue-minimisations  :  1159
 total energy-change (2. order) :-0.2928310E+03  (-0.2842911E+03)
 number of electron      18.0000000 magnetization
 augmentation part       18.0000000 magnetization

[...]

 Broyden mixing:
  rms(total) = 0.14979E-01    rms(broyden)= 0.13236E-01
  rms(prec ) = 0.30335E-01
  weight for this iteration     100.00
  WARNING: grid for Broyden might be to small

[...]

 Broyden mixing:
  rms(total) = 0.80549E-02    rms(broyden)= 0.79328E-02
  rms(prec ) = 0.18558E-01
  weight for this iteration     100.00

 eigenvalues of (default mixing * dielectric matrix)
  average eigenvalue GAMMA=   2.4336
  2.4336

[...]

 eigenvalue-minimisations  :  1266
 total energy-change (2. order) : 0.1154099E-06  (-0.5894510E-07)
 number of electron      18.0000000 magnetization
 augmentation part        2.9913929 magnetization

 Broyden mixing:
  rms(total) = 0.16188E-04    rms(broyden)= 0.15822E-04
  rms(prec ) = 0.45159E-04
  weight for this iteration     100.00

[...]

 Broyden mixing:
  rms(total) = 0.59342E-05    rms(broyden)= 0.49190E-05
  rms(prec ) = 0.11584E-04
  weight for this iteration     100.00
  WARNING: grid for Broyden might be to small

 eigenvalues of (default mixing * dielectric matrix)
  average eigenvalue GAMMA=   1.9178
  3.4695  2.8064  2.5233  1.8058  1.0126  1.0126  0.7942

[...]

--------------------------------------- Iteration      1(  13)  ---------------------------------------

 eigenvalue-minimisations  :   808
 total energy-change (2. order) :-0.3650712E-08  (-0.1395731E-08)
 number of electron      18.0000000 magnetization
 augmentation part        2.9913902 magnetization

 Free energy of the ion-electron system (eV)
  alpha Z        PSCENC =        60.31466281
  Ewald energy   TEWEN  =     -1691.00055387
  -Hartree energ DENC   =      -692.79222820
  -exchange      EXHF   =         0.00000000
  -V(xc)+E(xc)   XCENC  =       -69.43856717
  PAW double counting   =      2265.76130494    -2181.53807584
  entropy T*S    EENTRO =         0.00018258
  eigenvalues    EBANDS =      -331.79618248
  atomic energy  EATOM  =      2640.52872706
  Solvation  Ediel_sol  =         0.00000000
  free energy    TOTEN  =         0.03926982 eV

  energy without entropy =        0.03908725  energy(sigma->0) =        0.03920896

 average (electrostatic) potential at core
  the test charge radii are     1.2024
  (the norm of the test charge is              1.0000)
       1-113.0633

 E-fermi :   1.0010     XC(G=0):  -7.7427     alpha+bet : -6.9372

 k-point     1 :       0.0000    0.0000    0.0000
  band No.  band energies     occupation
      1     -28.7269      2.00000
      2     -28.7269      2.00000
      3     -28.7269      2.00000
      4     -28.7245      2.00000
      5     -28.7245      2.00000
      6     -21.7189      2.00000
      7       0.9892      1.38819
      8       0.9892      1.38819
      9       0.9892      1.38819
     10       3.2390      0.00000
     11      10.1741      0.00000
     12      10.1741      0.00000
     13      10.1744      0.00000

[...]

 k-point    35 :      -0.3333    0.4444    0.2222
  band No.  band energies     occupation
      1     -28.7253      2.00000
      2     -28.7253      2.00000
      3     -28.7239      2.00000
      4     -28.7227      2.00000
      5     -28.7207      2.00000
      6     -21.6311      2.00000
      7      -0.9676      2.00000
      8      -0.6506      2.00000
      9      -0.0327      2.00000
     10       7.7315      0.00000
     11       8.6818      0.00000
     12       9.1246      0.00000
     13      10.4313      0.00000

 soft charge-density along one line, spin component           1
         0         1         2         3         4         5         6         7         8         9
 total charge-density along one line

------------------------ aborting loop because EDIFF is reached ----------------------------------------

         DFTD3 V3.0 Rev 1
 IVDW         = 12
 DF pbe
 parameters
 VDW_S6       =    1.0000
 VDW_S8       =    0.7875
 VDW_A1       =    0.4289
 VDW_A2       =    4.4407
 k1-k3        =   16.0000    1.3333   -4.0000
 VDW_RADIUS   =   50.2022 A
 VDW_CNRADIUS =   21.1671 A
 Edisp (eV)   -0.40120

 E6    (eV) :    -0.1980
 E8    (eV) :    -0.2032
 % E8        : 50.64

  FORCE on cell =-STRESS in cart. coord.  units (eV):
  Direction    XX          YY          ZZ          XY          YZ          ZX
  Alpha Z    60.31466    60.31466    60.31466
  Ewald    -563.66687  -563.66687  -563.66687     0.00000    -0.00000     0.00000
  Hartree   230.93069   230.93069   230.93069     0.00000    -0.00000     0.00000
  E(xc)    -110.46540  -110.46540  -110.46540    -0.00000    -0.00000     0.00000
  Local    -183.83062  -183.83063  -183.83063     0.00001     0.00000     0.00001
  n-local    97.67792   101.04242   103.26361     1.22175    -0.31111     3.49211
  augment    79.64074    79.64075    79.64075    -0.00001    -0.00000    -0.00001
  Kinetic   384.36521   387.13931   389.01800     1.26796     0.13364     3.06294
  Fock        0.00000     0.00000     0.00000     0.00000     0.00000     0.00000
  vdW        -0.42712    -0.42712    -0.42712     0.00000    -0.00000     0.00000
  Total      -0.00177    -0.00177    -0.00177    -0.00000    -0.00000    -0.00000
  in kB      -0.04485    -0.04485    -0.04485    -0.00000    -0.00000    -0.00000

 VOLUME and BASIS-vectors are now :
  energy-cutoff  :      600.00
  volume of cell :       63.26
      direct lattice vectors                 reciprocal lattice vectors
     4.472379162  0.000000000  0.000000000     0.223594638 -0.129092424 -0.091282129
     2.236189581  3.873193970 -0.000000000     0.000000000  0.258184849 -0.091282129
     2.236189581  1.291064657  3.651682294    -0.000000000  0.000000000  0.273846386

  length of vectors
     4.472379162  4.472379162  4.472379162     0.273846386  0.273846386  0.273846386

 FORCES acting on ions
    electron-ion (+dipol)            ewald-force                    non-local-force                 convergence-correction
   -.330E-13 0.207E-14 -.744E-13   -.351E-14 -.377E-15 0.159E-14   0.529E-22 0.000E+00 0.000E+00   -.802E-13 0.329E-13 -.137E-13
   -.330E-13 0.207E-14 -.744E-13   -.351E-14 -.377E-15 0.159E-14   0.529E-22 0.000E+00 0.000E+00   -.802E-13 0.329E-13 -.137E-13

 POSITION                                       TOTAL-FORCE (eV/Angst)
      0.00000      0.00000      0.00000        -0.000000     -0.000000     -0.000000
    total drift:                               -0.000000      0.000000     -0.000000

  FREE ENERGIE OF THE ION-ELECTRON SYSTEM (eV)
  free  energy   TOTEN  =        -0.36192549 eV

  energy  without entropy=       -0.36210807  energy(sigma->0) =       -0.36198635