 vasp.5.4.4.18Apr17-6-g9f103f2a35 (build Nov 03 2018 10:20:43) complex

 executed on             LinuxIFC date 2018.12.21  15:40:54

 INCAR:
 POTCAR:    PAW Og, JanMewes Oct 18

 POTCAR:    PAW Og, JanMewes Oct 18
   VRHFIN =Og : 10d 2s 6p, PE

   TITEL  = PAW Og, JanMewes Oct 18
   POMASS =    0.010; ZVAL   =   18.000    mass and valenz
   ENMAX  =  339.336; ENMIN  =  254.502 eV
   QCUT   =   -4.994; QGAM   =    9.988    optimization parameters

  PAW Og, JanMewes Oct 18               :

 POSCAR: Og_FCC
  positions in direct lattice
  velocities in cartesian coordinates

 METAGGA = SCAN     LMAXTAU =  0    LMIXTAU =  F

 ion  position               nearest neighbor table
   1  0.000  0.000  0.000-

IMPORTANT INFORMATION: All symmetrisations will be switched off!
NOSYMM: (Re-)initialisation of all symmetry stuff for point group C_1.

 KPOINTS: Automatically generated mesh + R-points
  k-points in reciprocal lattice
Space group operators:
 irot       det(A)        alpha          n_x          n_y          n_z        tau_x        tau_y        tau_z
    1     1.000000     0.000000     1.000000     0.000000     0.000000     0.000000     0.000000     0.000000

 SYSTEM =  Og_FCC
 POSCAR =  Og_FCC

 Startparameter for this run:
   NWRITE =      2    write-flag & timer
   PREC   = accura    normal or accurate (medium, high low for compatibility)
   ISTART =      1    job   : 0-new  1-cont  2-samecut
   ICHARG =      0    charge: 1-file 2-atom 10-const
   ISPIN  =      1    spin polarized calculation?
   LNONCOLLINEAR =      F non collinear calculations
   LSORBIT =      F    spin-orbit coupling
   INIWAV =      1    electr: 0-lowe 1-rand  2-diag
   LASPH  =      F    aspherical Exc in radial PAW
   METAGGA=      F    non-selfconsistent MetaGGA calc.

 Electronic Relaxation 1
   ENCUT  =  300.0 eV  22.05 Ry    4.70 a.u.   6.21  6.21  6.21*2*pi/ulx,y,z
   ENINI  =  300.0     initial cutoff
   ENAUG  =  361.0 eV  augmentation charge cutoff
   NELM   =     50;   NELMIN=  2; NELMDL= -5     # of ELM steps
   EDIFF  = 0.1E-07   stopping-criterion for ELM
   LREAL  =      F    real-space projection
   NLSPLINE    = F    spline interpolate recip. space projectors
   LCOMPAT=      F    compatible to vasp.4.4
   GGA_COMPAT  = F    GGA compatible to vasp.4.4-vasp.4.6
   LMAXPAW     = -100 max onsite density
   LMAXMIX     =    2 max onsite mixed and CHGCAR
   VOSKOWN=      0    Vosko Wilk Nusair interpolation
   ROPT   =    0.00000
 Ionic relaxation
   EDIFFG = 0.1E-04   stopping-criterion for IOM
   NSW    =      1    number of steps for IOM
   NBLOCK =      1;   KBLOCK =      1    inner block; outer block
   IBRION =     -1    ionic relax: 0-MD 1-quasi-New 2-CG
   NFREE  =      5    steps in history (QN), initial steepest desc. (CG)
   ISIF   =      3    stress and relaxation
   IWAVPR =     10    prediction:  0-non 1-charg 2-wave 3-comb
   ISYM   =      0    0-nonsym 1-usesym 2-fastsym
   LCORR  =      T    Harris-Foulkes like correction to forces

   POTIM  = 0.1000    time-step for ionic-motion
   TEIN   =    0.0    initial temperature
   TEBEG  =    0.0;   TEEND  =   0.0 temperature during run
   SMASS  =  -3.00    Nose mass-parameter (am)
   estimated Nose-frequenzy (Omega)   =  0.10E-29 period in steps =****** mass=  -0.442E-27a.u.
   SCALEE = 1.0000    scale energy and forces
   NPACO  =    256;   APACO  = 16.0  distance and # of slots for P.C.
   PSTRESS=    0.0 pullay stress

  Mass of Ions in am
   POMASS =   0.01
  Ionic Valenz
   ZVAL   =  18.00
  Atomic Wigner-Seitz radii
  virtual crystal weights
   VCA    =   1.00
   NELECT =      18.0000    total number of electrons
   NUPDOWN=      -1.0000    fix difference up-down

 DOS related values:
   EMIN   =  10.00;   EMAX   =-10.00  energy-range for DOS
   EFERMI =   0.00
   ISMEAR =     0;   SIGMA  =   0.05  broadening in eV -4-tet -1-fermi 0-gaus

 Electronic relaxation 2 (details)
   IALGO  =     38    algorithm
   LDIAG  =      T    sub-space diagonalisation (order eigenvalues)
   LSUBROT=      F    optimize rotation matrix (better conditioning)
   TURBO    =      0    0=normal 1=particle mesh
   IRESTART =      0    0=no restart 2=restart with 2 vectors
   NREBOOT  =      0    no. of reboots
   NMIN     =      0    reboot dimension
   EREF     =   0.00    reference energy to select bands
   IMIX   =      4    mixing-type and parameters
     AMIX     =   0.40;   BMIX     =  1.00
     AMIX_MAG =   1.60;   BMIX_MAG =  1.00
     AMIN     =   0.10
     WC   =   100.;   INIMIX=   1;  MIXPRE=   1;  MAXMIX=  50

 Intra band minimization:
   WEIMIN = 0.0000     energy-eigenvalue tresh-hold
   EBREAK =  0.39E-10  absolut break condition
   DEPER  =   0.30     relativ break condition

   TIME   =   0.40     timestep for ELM

  volume/ion in A,a.u.               =      60.08       405.47
  Fermi-wavevector in a.u.,A,eV,Ry     =   1.095414  2.070033 16.326071  1.199932
  Thomas-Fermi vector in A             =   2.231737

 Write flags
   LWAVE        =      T    write WAVECAR
   LDOWNSAMPLE  =      F    k-point downsampling of WAVECAR
   LCHARG       =      T    write CHGCAR
   LVTOT        =      F    write LOCPOT, total local potential
   LVHAR        =      F    write LOCPOT, Hartree potential only
   LELF         =      F    write electronic localiz. function (ELF)
   LORBIT       =      0    0 simple, 1 ext, 2 COOP (PROOUT), +10 PAW based schemes

 Dipole corrections
   LMONO  =      F    monopole corrections only (constant potential shift)
   LDIPOL =      F    correct potential (dipole corrections)
   IDIPOL =      0    1-x, 2-y, 3-z, 4-all directions
   EPSILON=  1.0000000 bulk dielectric constant

 Exchange correlation treatment:
   GGA     =    --    GGA type
   VOSKOWN=      0    Vosko Wilk Nusair interpolation
   LHFCALC =     F    Hartree Fock is set to
   LHFONE  =     F    Hartree Fock one center treatment
   AEXX    =    0.0000 exact exchange contribution

 Linear response parameters
   LEPSILON=     F    determine dielectric tensor
   LRPA    =     F    only Hartree local field effects (RPA)
   LNABLA  =     F    use nabla operator in PAW spheres
   LVEL    =     F    velocity operator in full k-point grid
   LINTERFAST=   F  fast interpolation
   KINTER  =     0    interpolate to denser k-point grid
   CSHIFT  =0.1000    complex shift for real part using Kramers Kronig
   OMEGAMAX=  -1.0    maximum frequency
   DEG_THRESHOLD= 0.2000000E-02 threshold for treating states as degnerate
   RTIME   =   -0.100 relaxation time in fs
  (WPLASMAI=    0.000 imaginary part of plasma frequency in eV, 0.658/RTIME)
   DFIELD  = 0.0000000 0.0000000 0.0000000 field for delta impulse in time

 Orbital magnetization related:
   ORBITALMAG=     F  switch on orbital magnetization
   LCHIMAG   =     F  perturbation theory with respect to B field
   DQ        =  0.001000  dq finite difference perturbation B field
   LLRAUG    =     F  two centre corrections for induced B field

 Static calculation
 charge density and potential will be updated during run
 non-spin polarized calculation
 Variant of blocked Davidson
 Davidson routine will perform the subspace rotation
 perform sub-space diagonalisation
    after iterative eigenvector-optimisation
 modified Broyden-mixing scheme, WC =      100.0
 initial mixing is a Kerker type mixing with AMIX =  0.4000 and BMIX =      1.0000
 Hartree-type preconditioning will be used
 using additional bands           55
 reciprocal scheme for non local part
 use partial core corrections
 calculate Harris-corrections to forces
   (improved forces if not selfconsistent)
 use gradient corrections
 use of overlap-Matrix (Vanderbilt PP)
 Gauss-broadening in eV      SIGMA  =   0.05

  energy-cutoff  :      300.00
  volume of cell :       60.08
      direct lattice vectors                 reciprocal lattice vectors
     4.396350177  0.000000000  0.000000000     0.227461408 -0.131324905 -0.092860731
     2.198175089  3.807350937 -0.000000000     0.000000000  0.262649810 -0.092860731
     2.198175089  1.269116979  3.589604888    -0.000000000  0.000000000  0.278582192

  length of vectors
     4.396350177  4.396350177  4.396350177     0.278582193  0.278582193  0.278582192

 old parameters found on file WAVECAR:
  energy-cutoff  :      300.00
  volume of cell :       57.90
      direct lattice vectors                 reciprocal lattice vectors
     4.342345876  0.000000000  0.000000000     0.230290269 -0.132958149 -0.094015609
     2.171172938  3.760581840 -0.000000000     0.000000000  0.265916298 -0.094015609
     2.171172938  1.253527280  3.545510561    -0.000000000  0.000000000  0.282046826

  length of vectors

 k-points in units of 2pi/SCALE and weight: Automatically generated mesh + R-points
   0.11514513  0.06647907  0.04700780       0.000
   0.10938788  0.06315512  0.04465741       0.000
   0.10363062  0.05983117  0.04230702       0.000
   0.09787336  0.05650721  0.03995663       0.000
   0.09211611  0.05318326  0.03760624       0.000
   0.08635885  0.04985931  0.03525585       0.000
   0.08060159  0.04653535  0.03290546       0.000
   0.07484434  0.04321140  0.03055507       0.000
   0.06908708  0.03988744  0.02820468       0.000
   0.06332982  0.03656349  0.02585429       0.000
   0.05757257  0.03323954  0.02350390       0.000
   0.05181531  0.02991558  0.02115351       0.000
   0.04605805  0.02659163  0.01880312       0.000
   0.04030080  0.02326768  0.01645273       0.000
   0.03454354  0.01994372  0.01410234       0.000
   0.02878628  0.01661977  0.01175195       0.000
   0.02302903  0.01329581  0.00940156       0.000
   0.01727177  0.00997186  0.00705117       0.000
   0.01151451  0.00664791  0.00470078       0.000
   0.00575726  0.00332395  0.00235039       0.000
   0.00000000  0.00000000  0.00000000       0.000
  -0.00000000  0.00664791  0.00470078       0.000
  -0.00000000  0.01329581  0.00940156       0.000
  -0.00000000  0.01994372  0.01410234       0.000
  -0.00000000  0.02659163  0.01880312       0.000
  -0.00000000  0.03323954  0.02350390       0.000
  -0.00000000  0.03988744  0.02820468       0.000
  -0.00000000  0.04653535  0.03290546       0.000
  -0.00000000  0.05318326  0.03760624       0.000
  -0.00000000  0.05983117  0.04230702       0.000
  -0.00000000  0.06647907  0.04700780       0.000
  -0.00000000  0.07312698  0.05170858       0.000
  -0.00000000  0.07977489  0.05640937       0.000
  -0.00000000  0.08642280  0.06111015       0.000
  -0.00000000  0.09307070  0.06581093       0.000
  -0.00000000  0.09971861  0.07051171       0.000
  -0.00000000  0.10636652  0.07521249       0.000
  -0.00000000  0.11301443  0.07991327       0.000
  -0.00000000  0.11966233  0.08461405       0.000
  -0.00000000  0.12631024  0.08931483       0.000
  -0.00000000  0.13295815  0.09401561       0.000
   0.00000000  0.00000000  0.00000000       0.005
   0.03838171 -0.02215969 -0.01566927       0.009
   0.07676342 -0.04431938 -0.03133854       0.009
   0.11514513 -0.06647907 -0.04700780       0.005
   0.00000000  0.04431938 -0.01566927       0.009
   0.03838171  0.02215969 -0.03133854       0.009
   0.07676342  0.00000000 -0.04700780       0.009
   0.11514513 -0.02215969 -0.06267707       0.009
[...]
 k-point 43 :   0.1667 0.0000 0.0000  plane waves:     712
 k-point 44 :   0.3333 0.0000 0.0000  plane waves:     697
 k-point 45 :   0.5000 0.0000 0.0000  plane waves:     718
 k-point 46 :   0.0000 0.1667 0.0000  plane waves:     712
 k-point 47 :   0.1667 0.1667 0.0000  plane waves:     693
 k-point 48 :   0.3333 0.1667 0.0000  plane waves:     714
 k-point 49 :   0.5000 0.1667 0.0000  plane waves:     714
 k-point 50 :  -0.3333 0.1667 0.0000  plane waves:     703
 k-point 51 :  -0.1667 0.1667 0.0000  plane waves:     710
 k-point 52 :   0.0000 0.3333 0.0000  plane waves:     697
 k-point 53 :   0.1667 0.3333 0.0000  plane waves:     714
 k-point 54 :   0.3333 0.3333 0.0000  plane waves:     717
 k-point 55 :   0.5000 0.3333 0.0000  plane waves:     709
 k-point 56 :  -0.3333 0.3333 0.0000  plane waves:     716
 k-point 57 :  -0.1667 0.3333 0.0000  plane waves:     703
 k-point 58 :   0.0000 0.5000 0.0000  plane waves:     718
 k-point 59 :   0.1667 0.5000 0.0000  plane waves:     714
 k-point 60 :   0.3333 0.5000 0.0000  plane waves:     709
[...]
 k-point 85 :  -0.1667 0.5000 0.1667  plane waves:     714
 k-point 86 :   0.0000-0.3333 0.1667  plane waves:     703
 k-point 87 :   0.1667-0.3333 0.1667  plane waves:     714
 k-point 88 :   0.3333-0.3333 0.1667  plane waves:     714
 k-point 89 :   0.5000-0.3333 0.1667  plane waves:     708
 k-point 90 :  -0.3333-0.3333 0.1667  plane waves:     709
 k-point 91 :  -0.1667-0.3333 0.1667  plane waves:     709
 k-point 92 :   0.0000-0.1667 0.1667  plane waves:     710
 k-point 93 :   0.1667-0.1667 0.1667  plane waves:     714
 k-point 94 :   0.3333-0.1667 0.1667  plane waves:     709
 k-point 95 :   0.5000-0.1667 0.1667  plane waves:     714
 k-point 96 :  -0.3333-0.1667 0.1667  plane waves:     709
 k-point 97 :  -0.1667-0.1667 0.1667  plane waves:     714
 k-point 98 :   0.0000 0.0000 0.3333  plane waves:     697
 k-point 99 :   0.1667 0.0000 0.3333  plane waves:     714
 k-point ** :   0.3333 0.0000 0.3333  plane waves:     717
 k-point ** :   0.5000 0.0000 0.3333  plane waves:     709
 k-point ** :  -0.3333 0.0000 0.3333  plane waves:     716
 k-point ** :  -0.1667 0.0000 0.3333  plane waves:     703
 k-point ** :   0.0000 0.1667 0.3333  plane waves:     714
 k-point ** :   0.1667 0.1667 0.3333  plane waves:     710
 k-point ** :   0.3333 0.1667 0.3333  plane waves:     714
 k-point ** :   0.5000 0.1667 0.3333  plane waves:     709
 k-point ** :  -0.3333 0.1667 0.3333  plane waves:     714
 k-point ** :  -0.1667 0.1667 0.3333  plane waves:     709
 k-point ** :   0.0000 0.3333 0.3333  plane waves:     717
 k-point ** :   0.1667 0.3333 0.3333  plane waves:     714
 k-point ** :   0.3333 0.3333 0.3333  plane waves:     697
 k-point ** :   0.5000 0.3333 0.3333  plane waves:     703
 k-point ** :  -0.3333 0.3333 0.3333  plane waves:     716
 k-point ** :  -0.1667 0.3333 0.3333  plane waves:     709
 k-point ** :   0.0000 0.5000 0.3333  plane waves:     709
 k-point ** :   0.1667 0.5000 0.3333  plane waves:     709
 k-point ** :   0.3333 0.5000 0.3333  plane waves:     703
 k-point ** :   0.5000 0.5000 0.3333  plane waves:     714
 k-point ** :  -0.3333 0.5000 0.3333  plane waves:     714
 k-point ** :  -0.1667 0.5000 0.3333  plane waves:     708
 k-point ** :   0.0000-0.3333 0.3333  plane waves:     716
 k-point ** :   0.1667-0.3333 0.3333  plane waves:     714
 k-point ** :   0.3333-0.3333 0.3333  plane waves:     716
 k-point ** :   0.5000-0.3333 0.3333  plane waves:     714
 k-point ** :  -0.3333-0.3333 0.3333  plane waves:     716
 k-point ** :  -0.1667-0.3333 0.3333  plane waves:     714
 k-point ** :   0.0000-0.1667 0.3333  plane waves:     703
 k-point ** :   0.1667-0.1667 0.3333  plane waves:     709
 k-point ** :   0.3333-0.1667 0.3333  plane waves:     709
 k-point ** :   0.5000-0.1667 0.3333  plane waves:     708
 k-point ** :  -0.3333-0.1667 0.3333  plane waves:     714
 k-point ** :  -0.1667-0.1667 0.3333  plane waves:     714
 k-point ** :   0.0000 0.0000 0.5000  plane waves:     718
 k-point ** :   0.1667 0.0000 0.5000  plane waves:     714
 k-point ** :   0.3333 0.0000 0.5000  plane waves:     709
 k-point ** :   0.5000 0.0000 0.5000  plane waves:     724
 k-point ** :   0.0000 0.1667 0.5000  plane waves:     714
 k-point ** :   0.1667 0.1667 0.5000  plane waves:     703
 k-point ** :   0.3333 0.1667 0.5000  plane waves:     709
 k-point ** :   0.5000 0.1667 0.5000  plane waves:     709
 k-point ** :  -0.3333 0.1667 0.5000  plane waves:     708
 k-point ** :  -0.1667 0.1667 0.5000  plane waves:     714
 k-point ** :   0.0000 0.3333 0.5000  plane waves:     709
 k-point ** :   0.1667 0.3333 0.5000  plane waves:     709
 k-point ** :   0.3333 0.3333 0.5000  plane waves:     703
 k-point ** :   0.5000 0.3333 0.5000  plane waves:     714
 k-point ** :  -0.3333 0.3333 0.5000  plane waves:     714
 k-point ** :  -0.1667 0.3333 0.5000  plane waves:     708
 k-point ** :   0.0000 0.5000 0.5000  plane waves:     724
 k-point ** :   0.1667 0.5000 0.5000  plane waves:     709
 k-point ** :   0.3333 0.5000 0.5000  plane waves:     714

 maximum and minimum number of plane-waves per node :       376      336

 maximum number of plane-waves:       725
 maximum index in each direction:
   IXMAX=    6   IYMAX=    6   IZMAX=    6
   IXMIN=   -6   IYMIN=   -6   IZMIN=   -6

 parallel 3D FFT for wavefunctions:
    minimum data exchange during FFTs selected (reduces bandwidth)
 parallel 3D FFT for charge:
    minimum data exchange during FFTs selected (reduces bandwidth)

 Broyden mixing: mesh for mixing (old mesh)
   NGX = 13   NGY = 13   NGZ = 13
  (NGX  = 56   NGY  = 56   NGZ  = 56)
  gives a total of   2197 points

 charge density for first step will be calculated from the start-wavefunctions

 Maximum index for augmentation-charges        85087 (set IRDMAX)

 initial charge from wavefunction
 First call to EWALD:  gamma=   0.453
 Maximum number of real-space cells 3x 3x 3
 Maximum number of reciprocal cells 3x 3x 3

--------------------------------------- Iteration      1(   1)  ---------------------------------------

 eigenvalue-minimisations  : 27640
 total energy-change (2. order) :-0.1376819E+03  (-0.1038619E+01)
 number of electron      18.0000000 magnetization
 augmentation part        2.6545903 magnetization

 Free energy of the ion-electron system (eV)
  alpha Z        PSCENC =        63.49827359
  Ewald energy   TEWEN  =     -1720.24414233
  -Hartree energ DENC   =      -644.00905546
  -exchange      EXHF   =         0.00000000
  -V(xc)+E(xc)   XCENC  =       -52.61973842
  PAW double counting   =      2271.19488743    -2334.77454163
  entropy T*S    EENTRO =        -0.00000000
  eigenvalues    EBANDS =      -360.63251172
  atomic energy  EATOM  =      2639.90492407
  Solvation  Ediel_sol  =         0.00000000
  free energy    TOTEN  =      -137.68190445 eV

  energy without entropy =     -137.68190445  energy(sigma->0) =     -137.68190445

[...]

 Broyden mixing:
  rms(total) = 0.40210E+00    rms(broyden)= 0.40185E+00
  rms(prec ) = 0.10820E+01
  weight for this iteration     100.00

[...]

 eigenvalue-minimisations  : 29104
 total energy-change (2. order) : 0.7815265E+00  (-0.2692413E-01)
 number of electron      18.0000000 magnetization
 augmentation part        3.0240048 magnetization

[...]

 eigenvalues of (default mixing * dielectric matrix)
  average eigenvalue GAMMA=   1.6284
  1.6284

[...]

 Broyden mixing:
  rms(total) = 0.44073E-04    rms(broyden)= 0.43189E-04
  rms(prec ) = 0.77805E-04
  weight for this iteration     100.00

[...]

 Broyden mixing:
  rms(total) = 0.17332E-04    rms(broyden)= 0.15003E-04
  rms(prec ) = 0.20549E-04
  weight for this iteration     100.00
  WARNING: grid for Broyden might be to small

[...]

 eigenvalue-minimisations  : 29168
 total energy-change (2. order) :-0.7166136E-07  (-0.4849683E-09)
 number of electron      18.0000000 magnetization
 augmentation part        2.9725413 magnetization

[...]

 Broyden mixing:
  rms(total) = 0.86938E-05    rms(broyden)= 0.68099E-06
  rms(prec ) = 0.12037E-05
  weight for this iteration     100.00
  WARNING: grid for Broyden might be to small

 eigenvalues of (default mixing * dielectric matrix)
  average eigenvalue GAMMA=   1.7469
  3.7553  2.8961  2.8961  1.9717  1.8415  1.8415  1.3511  1.3511  1.0416  1.0416
  0.9352  0.9352  0.8510

[...]

--------------------------------------- Iteration      1(  19)  ---------------------------------------

 eigenvalue-minimisations  : 12936
 total energy-change (2. order) : 0.7064500E-08  (-0.6202344E-11)
 number of electron      18.0000000 magnetization
 augmentation part        2.9725408 magnetization

 Free energy of the ion-electron system (eV)
  alpha Z        PSCENC =        63.49827359
  Ewald energy   TEWEN  =     -1720.24414233
  -Hartree energ DENC   =      -671.49324453
  -exchange      EXHF   =         0.00000000
  -V(xc)+E(xc)   XCENC  =       -51.26939909
  PAW double counting   =      2315.74592716    -2382.30530545
  entropy T*S    EENTRO =        -0.00000000
  eigenvalues    EBANDS =      -330.66293455
  atomic energy  EATOM  =      2639.90492407
  Solvation  Ediel_sol  =         0.00000000
  free energy    TOTEN  =      -136.82590113 eV

  energy without entropy =     -136.82590113  energy(sigma->0) =     -136.82590113

 average (electrostatic) potential at core
  the test charge radii are     1.2024
  (the norm of the test charge is              1.0000)
       1-115.3317

 E-fermi :   1.5000     XC(G=0):  -8.4689     alpha+bet : -7.3034

 k-point     1 :       0.5000    0.5000    0.5000
  band No.  band energies     occupation
      1     -28.6866      2.00000
      2     -28.6866      2.00000
      3     -28.6859      2.00000
      4     -28.6823      2.00000
      5     -28.6823      2.00000
      6     -21.4094      2.00000
      7      -1.7751      2.00000
      8       0.8103      2.00000
      9       0.8103      2.00000
     10       6.0686      0.00000
     11      10.2865      0.00000
     12      10.2865      0.00000
     13      10.6567      0.00000
     14      13.0861      0.00000
     15      14.6239      0.00000
     16      14.6239      0.00000
     17      15.7215      0.00000
     18      16.5336      0.00000
     19      16.5336      0.00000
     20      18.8858      0.00000
     21      18.9431      0.00000
     22      18.9431      0.00000
     23      20.6037      0.00000
     24      23.7358      0.00000
     25      23.9115      0.00000
     26      25.3807      0.00000
     27      25.3807      0.00000
     28      26.5811      0.00000
     29      26.5811      0.00000
     30      27.1416      0.00000
     31      28.5365      0.00000
     32      30.2742      0.00000
     33      30.2742      0.00000
     34      30.9847      0.00000
     35      31.9975      0.00000
     36      31.9975      0.00000
     37      32.2330      0.00000
     38      33.4182      0.00000
     39      34.0288      0.00000
     40      34.0288      0.00000
     41      36.6391      0.00000
     42      36.6391      0.00000
     43      39.7924      0.00000
     44      39.7924      0.00000
     45      40.0299      0.00000
     46      40.0300      0.00000
     47      40.4810      0.00000
     48      42.1743      0.00000
     49      44.1459      0.00000
     50      44.1459      0.00000
     51      46.4551      0.00000
     52      46.4551      0.00000
     53      46.4640      0.00000
     54      46.8035      0.00000
     55      47.8722      0.00000
     56      50.3722      0.00000
     57      50.3722      0.00000
     58      50.7260      0.00000
     59      51.1624      0.00000
     60      51.1625      0.00000
     61      51.2143      0.00000
     62      52.0999      0.00000
     63      53.3150      0.00000
     64      53.3158      0.00000

[...]

 k-point   152 :       0.3333    0.5000    0.5000
  band No.  band energies     occupation
      1     -28.6896      2.00000
      2     -28.6861      2.00000
      3     -28.6830      2.00000
      4     -28.6828      2.00000
      5     -28.6740      2.00000
      6     -21.4012      2.00000
      7      -1.5418      2.00000
      8       0.2029      2.00000
      9       0.6059      2.00000
     10       7.0314      0.00000
     11       8.9975      0.00000
     12      11.0344      0.00000
     13      11.0691      0.00000
     14      12.9816      0.00000
     15      13.9771      0.00000
     16      14.7506      0.00000
     17      16.2830      0.00000
     18      16.7519      0.00000
     19      18.3485      0.00000
     20      18.5199      0.00000
     21      18.7384      0.00000
     22      19.3926      0.00000
     23      20.2915      0.00000
     24      22.7987      0.00000
     25      23.8610      0.00000
     26      25.1061      0.00000
     27      25.1869      0.00000
     28      25.4697      0.00000
     29      25.6303      0.00000
     30      27.5504      0.00000
     31      28.3833      0.00000
     32      29.2946      0.00000
     33      29.3468      0.00000
     34      30.8743      0.00000
     35      31.9783      0.00000
     36      32.3129      0.00000
     37      32.9360      0.00000
     38      34.0686      0.00000
     39      34.9283      0.00000
     40      35.0380      0.00000
     41      36.7537      0.00000
     42      37.2885      0.00000
     43      38.9606      0.00000
     44      39.2530      0.00000
     45      39.8222      0.00000
     46      40.7335      0.00000
     47      41.3522      0.00000
     48      41.7565      0.00000
     49      44.8163      0.00000
     50      45.1595      0.00000
     51      45.2994      0.00000
     52      45.5765      0.00000
     53      46.4473      0.00000
     54      47.5242      0.00000
     55      48.2168      0.00000
     56      48.2481      0.00000
     57      48.8971      0.00000
     58      49.5968      0.00000
     59      50.8815      0.00000
     60      51.0448      0.00000
     61      51.7882      0.00000
     62      52.4257      0.00000
     63      52.7643      0.00000
     64      54.4845      0.00000

 soft charge-density along one line, spin component           1
         0         1         2         3         4         5         6         7         8         9
 total charge-density along one line

------------------------ aborting loop because EDIFF is reached ----------------------------------------

  FORCE on cell =-STRESS in cart. coord.  units (eV):
  Direction    XX          YY          ZZ          XY          YZ          ZX
  Alpha Z    63.49827    63.49827    63.49827
  Ewald    -573.41473  -573.41473  -573.41473    -0.00000    -0.00000    -0.00000
  Hartree   223.81696   223.83577   223.84048    -0.01629    -0.00665    -0.01152
  E(xc)    -110.99819  -111.00002  -111.00048     0.00158     0.00065     0.00112
  Local    -171.60894  -171.60168  -171.59990    -0.00628    -0.00256    -0.00444
  n-local    98.53198    98.49650    98.48765     0.03073     0.01255     0.02173
  augment    76.75437    76.76267    76.76474    -0.00719    -0.00293    -0.00508
  Kinetic   388.05751   388.02044   388.01117     0.03211     0.01311     0.02270
  Fock        0.00000     0.00000     0.00000     0.00000     0.00000     0.00000
  Total      -5.36276    -5.40278    -5.41279     0.03466     0.01415     0.02451
  in kB    -143.00028  -144.06744  -144.33436     0.92421     0.37736     0.65351

 VOLUME and BASIS-vectors are now :
  energy-cutoff  :      300.00
  volume of cell :       60.08
      direct lattice vectors                 reciprocal lattice vectors
     4.396350177  0.000000000  0.000000000     0.227461408 -0.131324905 -0.092860731
     2.198175089  3.807350937 -0.000000000     0.000000000  0.262649810 -0.092860731
     2.198175089  1.269116979  3.589604888    -0.000000000  0.000000000  0.278582192

  length of vectors
     4.396350177  4.396350177  4.396350177     0.278582193  0.278582193  0.278582192

 FORCES acting on ions
    electron-ion (+dipol)            ewald-force                    non-local-force                 convergence-correction
   0.332E-06 -.264E-06 -.174E-06   0.481E-14 0.658E-15 -.418E-15   -.101E-05 0.332E-06 0.779E-06   -.188E-06 0.232E-06 0.661E-07
   0.280E-06 -.245E-06 -.132E-06   0.481E-14 0.658E-15 -.418E-15   -.101E-05 0.332E-06 0.779E-06   -.188E-06 0.232E-06 0.661E-07

 POSITION                                       TOTAL-FORCE (eV/Angst)
      0.00000      0.00000      0.00000        -0.000001      0.000000      0.000001
    total drift:                               -0.000001      0.000000      0.000001

  FREE ENERGIE OF THE ION-ELECTRON SYSTEM (eV)
  free  energy   TOTEN  =      -136.82590113 eV

  energy  without entropy=     -136.82590113  energy(sigma->0) =     -136.82590113

 writing wavefunctions