 vasp.5.4.4.18Apr17-6-g9f103f2a35 (build Nov 03 2018 10:20:46) complex

 executed on             LinuxIFC date 2018.12.22  09:35:44

 INCAR:
 POTCAR:    Cn-PAW, fit to 4c-PBE, JanMewes Oct18

 POTCAR:    Cn-PAW, fit to 4c-PBE, JanMewes Oct18
   VRHFIN =Cn : 10d 2s

   TITEL  = Cn-PAW, fit to 4c-PBE, JanMewes Oct18
   POMASS =    0.010; ZVAL   =   12.000    mass and valenz
   ENMAX  =  273.073; ENMIN  =  204.805 eV
   QCUT   =   -4.480; QGAM   =    8.960    optimization parameters

  Cn-PAW, fit to 4c-PBE, JanMewes Oct18 :

 POSCAR: Cn BCC
  positions in direct lattice
  velocities in cartesian coordinates

 METAGGA = SCAN     LMAXTAU =  0    LMIXTAU =  F

 ion  position               nearest neighbor table
   1  0.000  0.000  0.000-

IMPORTANT INFORMATION: All symmetrisations will be switched off!
NOSYMM: (Re-)initialisation of all symmetry stuff for point group C_1.

 KPOINTS: k-points

Automatic generation of k-mesh.
Space group operators:
 irot       det(A)        alpha          n_x          n_y          n_z        tau_x        tau_y        tau_z
    1     1.000000     0.000001     1.000000     0.000000     0.000000     0.000000     0.000000     0.000000

 Subroutine IBZKPT returns following result:

 Found    216 irreducible k-points:

 Following reciprocal coordinates:
            Coordinates               Weight
  0.000000  0.000000  0.000000      1.000000
  0.166667  0.000000  0.000000      1.000000
  0.333333  0.000000 -0.000000      1.000000
  0.500000  0.000000  0.000000      1.000000
 -0.333333 -0.000000  0.000000      1.000000
 -0.166667  0.000000  0.000000      1.000000
  0.000000  0.166667  0.000000      1.000000
  0.166667  0.166667  0.000000      1.000000
  0.333333  0.166667  0.000000      1.000000
  0.500000  0.166667  0.000000      1.000000
 -0.333333  0.166667 -0.000000      1.000000
 -0.166667  0.166667 -0.000000      1.000000
  0.000000  0.333333  0.000000      1.000000
  0.166667  0.333333  0.000000      1.000000
  0.333333  0.333333  0.000000      1.000000
  0.500000  0.333333  0.000000      1.000000
 -0.333333  0.333333  0.000000      1.000000
 -0.166667  0.333333  0.000000      1.000000
  0.000000  0.500000 -0.000000      1.000000
  0.166667  0.500000  0.000000      1.000000
  0.333333  0.500000  0.000000      1.000000
  0.500000  0.500000 -0.000000      1.000000
 -0.333333  0.500000 -0.000000      1.000000
 -0.166667  0.500000  0.000000      1.000000
  0.000000 -0.333333 -0.000000      1.000000
  0.166667 -0.333333 -0.000000      1.000000
  0.333333 -0.333333 -0.000000      1.000000
  0.500000 -0.333333 -0.000000      1.000000
 -0.333333 -0.333333  0.000000      1.000000
 -0.166667 -0.333333 -0.000000      1.000000
  0.000000 -0.166667 -0.000000      1.000000
  0.166667 -0.166667  0.000000      1.000000
  0.333333 -0.166667  0.000000      1.000000
  0.500000 -0.166667  0.000000      1.000000
 -0.333333 -0.166667 -0.000000      1.000000
 -0.166667 -0.166667 -0.000000      1.000000
  0.000000  0.000000  0.166667      1.000000
  0.166667  0.000000  0.166667      1.000000
  0.333333  0.000000  0.166667      1.000000
  0.500000  0.000000  0.166667      1.000000
 -0.333333 -0.000000  0.166667      1.000000
 -0.166667  0.000000  0.166667      1.000000
  0.000000  0.166667  0.166667      1.000000
  0.166667  0.166667  0.166667      1.000000
  0.333333  0.166667  0.166667      1.000000
  0.500000  0.166667  0.166667      1.000000
 -0.333333  0.166667  0.166667      1.000000
 -0.166667  0.166667  0.166667      1.000000
  0.000000  0.333333  0.166667      1.000000
  0.166667  0.333333  0.166667      1.000000
  0.333333  0.333333  0.166667      1.000000
  0.500000  0.333333  0.166667      1.000000
 -0.333333  0.333333  0.166667      1.000000
 -0.166667  0.333333  0.166667      1.000000
  0.000000  0.500000  0.166667      1.000000
  0.166667  0.500000  0.166667      1.000000
  0.333333  0.500000  0.166667      1.000000
  0.500000  0.500000  0.166667      1.000000
 -0.333333  0.500000  0.166667      1.000000
 -0.166667  0.500000  0.166667      1.000000
[...]
  0.500000  0.500000 -0.166667      1.000000
 -0.333333  0.500000 -0.166667      1.000000
 -0.166667  0.500000 -0.166667      1.000000
  0.000000 -0.333333 -0.166667      1.000000
  0.166667 -0.333333 -0.166667      1.000000
  0.333333 -0.333333 -0.166667      1.000000
  0.500000 -0.333333 -0.166667      1.000000
 -0.333333 -0.333333 -0.166667      1.000000
 -0.166667 -0.333333 -0.166667      1.000000
  0.000000 -0.166667 -0.166667      1.000000
  0.166667 -0.166667 -0.166667      1.000000
  0.333333 -0.166667 -0.166667      1.000000
  0.500000 -0.166667 -0.166667      1.000000
 -0.333333 -0.166667 -0.166667      1.000000
 -0.166667 -0.166667 -0.166667      1.000000

 Following cartesian coordinates:
            Coordinates               Weight
  0.000000  0.000000  0.000000      1.000000
  0.051407  0.018175  0.031479      1.000000
  0.102814  0.036350  0.062959      1.000000
  0.154221  0.054525  0.094438      1.000000
 -0.102814 -0.036350 -0.062959      1.000000
 -0.051407 -0.018175 -0.031479      1.000000
  0.000000  0.054525  0.031479      1.000000
  0.051407  0.072700  0.062959      1.000000
  0.102814  0.090875  0.094438      1.000000
  0.154221  0.109050  0.125918      1.000000
 -0.102814  0.018175 -0.031479      1.000000
 -0.051407  0.036350  0.000000      1.000000
  0.000000  0.109050  0.062959      1.000000
  0.051407  0.127225  0.094438      1.000000
  0.102814  0.145400  0.125918      1.000000
  0.154221  0.163575  0.157397      1.000000
 -0.102814  0.072701  0.000000      1.000000
 -0.051407  0.090876  0.031479      1.000000
  0.000000  0.163576  0.094438      1.000000
  0.051407  0.181751  0.125918      1.000000
  0.102814  0.199926  0.157397      1.000000
  0.154221  0.218100  0.188877      1.000000
 -0.102814  0.127226  0.031479      1.000000
 -0.051407  0.145401  0.062959      1.000000
  0.000000 -0.109050 -0.062959      1.000000
  0.051407 -0.090876 -0.031479      1.000000
  0.102814 -0.072701 -0.000000      1.000000
  0.154221 -0.054526  0.031479      1.000000
 -0.102814 -0.145400 -0.125918      1.000000
 -0.051407 -0.127225 -0.094438      1.000000
  0.000000 -0.054525 -0.031479      1.000000
  0.051407 -0.036350 -0.000000      1.000000
  0.102814 -0.018175  0.031479      1.000000
  0.154221 -0.000001  0.062959      1.000000
 -0.102814 -0.090875 -0.094438      1.000000
 -0.051407 -0.072700 -0.062959      1.000000
  0.000000  0.000000  0.062960      1.000000
  0.051407  0.018175  0.094439      1.000000
  0.102814  0.036350  0.125919      1.000000
  0.154221  0.054525  0.157398      1.000000
 -0.102814 -0.036350  0.000001      1.000000
 -0.051407 -0.018175  0.031481      1.000000
  0.000000  0.054525  0.094439      1.000000
  0.051407  0.072700  0.125919      1.000000
  0.102814  0.090875  0.157398      1.000000
  0.154221  0.109050  0.188878      1.000000
 -0.102814  0.018175  0.031481      1.000000
 -0.051407  0.036350  0.062960      1.000000
  0.000000  0.109050  0.125919      1.000000
  0.051407  0.127225  0.157398      1.000000
  0.102814  0.145400  0.188878      1.000000
  0.154221  0.163575  0.220357      1.000000
 -0.102814  0.072701  0.062960      1.000000
 -0.051407  0.090876  0.094439      1.000000
  0.000000  0.163576  0.157398      1.000000
  0.051407  0.181751  0.188878      1.000000
  0.102814  0.199926  0.220357      1.000000
  0.154221  0.218100  0.251837      1.000000
 -0.102814  0.127226  0.094439      1.000000
 -0.051407  0.145401  0.125919      1.000000
[...]
  0.154221  0.218100  0.125917      1.000000
 -0.102814  0.127226 -0.031481      1.000000
 -0.051407  0.145401 -0.000001      1.000000
  0.000000 -0.109050 -0.125919      1.000000
  0.051407 -0.090876 -0.094439      1.000000
  0.102814 -0.072701 -0.062960      1.000000
  0.154221 -0.054526 -0.031481      1.000000
 -0.102814 -0.145400 -0.188878      1.000000
 -0.051407 -0.127225 -0.157398      1.000000
  0.000000 -0.054525 -0.094439      1.000000
  0.051407 -0.036350 -0.062960      1.000000
  0.102814 -0.018175 -0.031481      1.000000
  0.154221 -0.000001 -0.000001      1.000000
 -0.102814 -0.090875 -0.157398      1.000000
 -0.051407 -0.072700 -0.125919      1.000000

 SYSTEM =  Og_FCC
 POSCAR =  Cn BCC

 Startparameter for this run:
   NWRITE =      2    write-flag & timer
   PREC   = accura    normal or accurate (medium, high low for compatibility)
   ISTART =      1    job   : 0-new  1-cont  2-samecut
   ICHARG =      0    charge: 1-file 2-atom 10-const
   ISPIN  =      1    spin polarized calculation?
   LNONCOLLINEAR =      T non collinear calculations
   LSORBIT =      T    spin-orbit coupling
   INIWAV =      1    electr: 0-lowe 1-rand  2-diag
   LASPH  =      F    aspherical Exc in radial PAW
   METAGGA=      F    non-selfconsistent MetaGGA calc.

 Electronic Relaxation 1
   ENCUT  =  300.0 eV  22.05 Ry    4.70 a.u.   4.58  4.58  4.58*2*pi/ulx,y,z
   ENINI  =  300.0     initial cutoff
   ENAUG  =  361.0 eV  augmentation charge cutoff
   NELM   =     50;   NELMIN=  2; NELMDL= -5     # of ELM steps
   EDIFF  = 0.1E-07   stopping-criterion for ELM
   LREAL  =      F    real-space projection
   NLSPLINE    = F    spline interpolate recip. space projectors
   LCOMPAT=      F    compatible to vasp.4.4
   GGA_COMPAT  = F    GGA compatible to vasp.4.4-vasp.4.6
   LMAXPAW     = -100 max onsite density
   LMAXMIX     =    2 max onsite mixed and CHGCAR
   VOSKOWN=      0    Vosko Wilk Nusair interpolation
   ROPT   =    0.00000
 Ionic relaxation
   EDIFFG = 0.1E-04   stopping-criterion for IOM
   NSW    =      1    number of steps for IOM
   NBLOCK =      1;   KBLOCK =      1    inner block; outer block
   IBRION =     -1    ionic relax: 0-MD 1-quasi-New 2-CG
   NFREE  =      5    steps in history (QN), initial steepest desc. (CG)
   ISIF   =      3    stress and relaxation
   IWAVPR =     10    prediction:  0-non 1-charg 2-wave 3-comb
   ISYM   =      0    0-nonsym 1-usesym 2-fastsym
   LCORR  =      T    Harris-Foulkes like correction to forces

   POTIM  = 0.1000    time-step for ionic-motion
   TEIN   =    0.0    initial temperature
   TEBEG  =    0.0;   TEEND  =   0.0 temperature during run
   SMASS  =  -3.00    Nose mass-parameter (am)
   estimated Nose-frequenzy (Omega)   =  0.10E-29 period in steps =****** mass=  -0.240E-27a.u.
   SCALEE = 1.0000    scale energy and forces
   NPACO  =    256;   APACO  = 16.0  distance and # of slots for P.C.
   PSTRESS=    0.0 pullay stress

  Mass of Ions in am
   POMASS =   0.01
  Ionic Valenz
   ZVAL   =  12.00
  Atomic Wigner-Seitz radii
  virtual crystal weights
   VCA    =   1.00
   NELECT =      12.0000    total number of electrons
   NUPDOWN=      -1.0000    fix difference up-down

 DOS related values:
   EMIN   =  10.00;   EMAX   =-10.00  energy-range for DOS
   EFERMI =   0.00
   ISMEAR =     0;   SIGMA  =   0.05  broadening in eV -4-tet -1-fermi 0-gaus

 Electronic relaxation 2 (details)
   IALGO  =     38    algorithm
   LDIAG  =      T    sub-space diagonalisation (order eigenvalues)
   LSUBROT=      F    optimize rotation matrix (better conditioning)
   TURBO    =      0    0=normal 1=particle mesh
   IRESTART =      0    0=no restart 2=restart with 2 vectors
[...]
 k-point ** :  -0.3333-0.0000 0.5000  plane waves:     614
 k-point ** :  -0.1667 0.0000 0.5000  plane waves:     614
 k-point ** :   0.0000 0.1667 0.5000  plane waves:     614
 k-point ** :   0.1667 0.1667 0.5000  plane waves:     636
 k-point ** :   0.3333 0.1667 0.5000  plane waves:     614
 k-point ** :   0.5000 0.1667 0.5000  plane waves:     624
 k-point ** :  -0.3333 0.1667 0.5000  plane waves:     608
 k-point ** :  -0.1667 0.1667 0.5000  plane waves:     624
 k-point ** :   0.0000 0.3333 0.5000  plane waves:     614
 k-point ** :   0.1667 0.3333 0.5000  plane waves:     614
 k-point ** :   0.3333 0.3333 0.5000  plane waves:     608
 k-point ** :   0.5000 0.3333 0.5000  plane waves:     612
 k-point ** :  -0.3333 0.3333 0.5000  plane waves:     612
 k-point ** :  -0.1667 0.3333 0.5000  plane waves:     608
 k-point ** :   0.0000 0.5000 0.5000  plane waves:     624
 k-point ** :   0.1667 0.5000 0.5000  plane waves:     624
 k-point ** :   0.3333 0.5000 0.5000  plane waves:     612
 k-point ** :   0.5000 0.5000 0.5000  plane waves:     596
 k-point ** :  -0.3333 0.5000 0.5000  plane waves:     612
 k-point ** :  -0.1667 0.5000 0.5000  plane waves:     624
 k-point ** :   0.0000-0.3333 0.5000  plane waves:     614
 k-point ** :   0.1667-0.3333 0.5000  plane waves:     608
 k-point ** :   0.3333-0.3333 0.5000  plane waves:     612
 k-point ** :   0.5000-0.3333 0.5000  plane waves:     612
 k-point ** :  -0.3333-0.3333 0.5000  plane waves:     608
 k-point ** :  -0.1667-0.3333 0.5000  plane waves:     614
 k-point ** :   0.0000-0.1667 0.5000  plane waves:     614
 k-point ** :   0.1667-0.1667 0.5000  plane waves:     624
 k-point ** :   0.3333-0.1667 0.5000  plane waves:     608
 k-point ** :   0.5000-0.1667 0.5000  plane waves:     624
 k-point ** :  -0.3333-0.1667 0.5000  plane waves:     614
 k-point ** :  -0.1667-0.1667 0.5000  plane waves:     636
 k-point ** :   0.0000 0.0000-0.3333  plane waves:     612
 k-point ** :   0.1667 0.0000-0.3333  plane waves:     628
 k-point ** :   0.3333 0.0000-0.3333  plane waves:     612
 k-point ** :   0.5000 0.0000-0.3333  plane waves:     614
 k-point ** :  -0.3333-0.0000-0.3333  plane waves:     618
 k-point ** :  -0.1667 0.0000-0.3333  plane waves:     614
 k-point ** :   0.0000 0.1667-0.3333  plane waves:     628
 k-point ** :   0.1667 0.1667-0.3333  plane waves:     628
 k-point ** :   0.3333 0.1667-0.3333  plane waves:     622
 k-point ** :   0.5000 0.1667-0.3333  plane waves:     608
 k-point ** :  -0.3333 0.1667-0.3333  plane waves:     608
 k-point ** :  -0.1667 0.1667-0.3333  plane waves:     622
 k-point ** :   0.0000 0.3333-0.3333  plane waves:     612
 k-point ** :   0.1667 0.3333-0.3333  plane waves:     622
 k-point ** :   0.3333 0.3333-0.3333  plane waves:     642
[...]
 k-point ** :   0.5000 0.5000-0.1667  plane waves:     624
 k-point ** :  -0.3333 0.5000-0.1667  plane waves:     614
 k-point ** :  -0.1667 0.5000-0.1667  plane waves:     636
 k-point ** :   0.0000-0.3333-0.1667  plane waves:     614
 k-point ** :   0.1667-0.3333-0.1667  plane waves:     622
 k-point ** :   0.3333-0.3333-0.1667  plane waves:     622
 k-point ** :   0.5000-0.3333-0.1667  plane waves:     614
 k-point ** :  -0.3333-0.3333-0.1667  plane waves:     632
 k-point ** :  -0.1667-0.3333-0.1667  plane waves:     632
 k-point ** :   0.0000-0.1667-0.1667  plane waves:     628
 k-point ** :   0.1667-0.1667-0.1667  plane waves:     618
 k-point ** :   0.3333-0.1667-0.1667  plane waves:     628
 k-point ** :   0.5000-0.1667-0.1667  plane waves:     636
 k-point ** :  -0.3333-0.1667-0.1667  plane waves:     632
 k-point ** :  -0.1667-0.1667-0.1667  plane waves:     636

 maximum and minimum number of plane-waves per node :       178      130

 maximum number of plane-waves:       642
 maximum index in each direction:
   IXMAX=    4   IYMAX=    4   IZMAX=    4
   IXMIN=   -5   IYMIN=   -5   IZMIN=   -5

 parallel 3D FFT for wavefunctions:
    minimum data exchange during FFTs selected (reduces bandwidth)
 parallel 3D FFT for charge:
    minimum data exchange during FFTs selected (reduces bandwidth)

 Broyden mixing: mesh for mixing (old mesh)
   NGX =  9   NGY =  9   NGZ =  9
  (NGX  = 36   NGY  = 36   NGZ  = 36)
  gives a total of    729 points

 charge density for first step will be calculated from the start-wavefunctions

 Maximum index for augmentation-charges        25947 (set IRDMAX)

 initial charge from wavefunction
 First call to EWALD:  gamma=   0.597
 Maximum number of real-space cells 3x 3x 3
 Maximum number of reciprocal cells 3x 3x 3

--------------------------------------- Iteration      1(   1)  ---------------------------------------

 eigenvalue-minimisations  : 47248
 total energy-change (2. order) :-0.1225432E+03  (-0.8629831E+02)
 number of electron      11.9923356 magnetization      -0.0000002      0.0000000      0.0000001
 augmentation part        2.1617127 magnetization       0.0000002      0.0000000      0.0000001

 Free energy of the ion-electron system (eV)
  alpha Z        PSCENC =        85.78503292
  Ewald energy   TEWEN  =     -1007.86219743
  -Hartree energ DENC   =      -142.37628399
  -exchange      EXHF   =         0.00000000
  -V(xc)+E(xc)   XCENC  =      -103.27375838
  PAW double counting   =       952.54425205     -953.46044117
  entropy T*S    EENTRO =        -0.00162766
  eigenvalues    EBANDS =        24.39590112
  atomic energy  EATOM  =      1021.70593014
  Solvation  Ediel_sol  =         0.00000000
  free energy    TOTEN  =      -122.54319239 eV

  energy without entropy =     -122.54156473  energy(sigma->0) =     -122.54237856

[...]

 Broyden mixing:
  rms(total) = 0.68409E+00    rms(broyden)= 0.68406E+00
  rms(prec ) = 0.23688E+01
  weight for this iteration     100.00

[...]

 eigenvalue-minimisations  : 30736
 total energy-change (2. order) : 0.1712362E+01  (-0.1619872E+00)
 number of electron      12.0000000 magnetization       0.0000164      0.0000028      0.0000092
 augmentation part        1.4897068 magnetization       0.0000111      0.0000002      0.0000049

[...]

 eigenvalues of (default mixing * dielectric matrix)
  average eigenvalue GAMMA=   1.2908
  1.2908

[...]

 eigenvalue-minimisations  : 40824
 total energy-change (2. order) : 0.9465739E-06  (-0.1728449E-07)
 number of electron      12.0000000 magnetization      -0.0000005      0.0000000     -0.0000003
 augmentation part        1.6030856 magnetization       0.0000003      0.0000001      0.0000000

[...]

 Broyden mixing:
  rms(total) = 0.40577E-05    rms(broyden)= 0.40461E-05
  rms(prec ) = 0.73676E-05
  weight for this iteration     100.00

 eigenvalues of (default mixing * dielectric matrix)
  average eigenvalue GAMMA=   1.3580
  2.8712  2.4101  2.4101  2.3667  1.4261  0.9884  0.9725  0.9725  0.8170  0.6736
  0.6239  0.5612  0.5612

[...]

--------------------------------------- Iteration      1(  19)  ---------------------------------------

 eigenvalue-minimisations  : 18520
 total energy-change (2. order) :-0.1007720E-08  (-0.2132403E-10)
 number of electron      12.0000000 magnetization       0.0000001     -0.0000000      0.0000000
 augmentation part        1.6031064 magnetization      -0.0000000      0.0000000     -0.0000000

 Free energy of the ion-electron system (eV)
  alpha Z        PSCENC =        85.78503292
  Ewald energy   TEWEN  =     -1007.86219743
  -Hartree energ DENC   =      -127.83410311
  -exchange      EXHF   =         0.00000000
  -V(xc)+E(xc)   XCENC  =      -103.11146776
  PAW double counting   =      1064.55620877    -1062.76427262
  entropy T*S    EENTRO =        -0.00049806
  eigenvalues    EBANDS =        -3.10835219
  atomic energy  EATOM  =      1021.70593014
  Solvation  Ediel_sol  =         0.00000000
  free energy    TOTEN  =      -132.63371934 eV

  energy without entropy =     -132.63322128  energy(sigma->0) =     -132.63347031

 average (electrostatic) potential at core
  the test charge radii are     1.2024
  (the norm of the test charge is              1.0000)
       1 -66.4594

 E-fermi :   3.2497     XC(G=0): -11.7594     alpha+bet : -8.8692

 k-point     1 :       0.0000    0.0000    0.0000
  band No.  band energies     occupation
      1      -6.0083      1.00000
      2      -6.0083      1.00000
      3      -2.1177      1.00000
      4      -2.1177      1.00000
      5      -2.1177      1.00000
      6      -2.1177      1.00000
      7       0.5342      1.00000
      8       0.5342      1.00000
      9       1.4807      1.00000
     10       1.4807      1.00000
     11       1.4807      1.00000
     12       1.4807      1.00000
     13      13.8377      0.00000
     14      13.8377      0.00000
     15      18.8343      0.00000
     16      18.8343      0.00000
     17      18.8343      0.00000
     18      18.8343      0.00000
     19      18.8344      0.00000
     20      18.8344      0.00000
     21      23.2570      0.00000
     22      23.2570      0.00000
     23      23.2572      0.00000
     24      23.2572      0.00000
     25      24.2360      0.00000
     26      24.2360      0.00000
     27      25.1738      0.00000
     28      25.1738      0.00000
     29      25.1739      0.00000
     30      25.1739      0.00000
     31      28.7000      0.00000
     32      28.7000      0.00000
     33      28.7000      0.00000
     34      28.7000      0.00000
     35      30.0497      0.00000
     36      30.0497      0.00000
     37      35.5358      0.00000
     38      35.5358      0.00000
     39      37.5025      0.00000
     40      37.5025      0.00000
     41      37.5027      0.00000
     42      37.5027      0.00000
     43      43.3137      0.00000
     44      43.3137      0.00000
     45      44.1132      0.00000
     46      44.1132      0.00000
     47      49.1526      0.00000
     48      49.1526      0.00000
     49      49.1526      0.00000
     50      49.1526      0.00000
     51      53.5034      0.00000
     52      53.5034      0.00000
     53      53.5034      0.00000
     54      53.5034      0.00000
     55      53.5036      0.00000
     56      53.5036      0.00000
     57      56.0975      0.00000
     58      56.0975      0.00000
     59      57.0435      0.00000
     60      57.0435      0.00000
     61      57.0438      0.00000
     62      57.0438      0.00000
     63      58.5099      0.00000
     64      58.5099      0.00000

[...]

 k-point   216 :      -0.1667   -0.1667   -0.1667
  band No.  band energies     occupation
      1      -2.7328      1.00000
      2      -2.7328      1.00000
      3      -2.1443      1.00000
      4      -2.1443      1.00000
      5      -1.6317      1.00000
      6      -1.6317      1.00000
      7       1.0766      1.00000
      8       1.0766      1.00000
      9       1.1979      1.00000
     10       1.1979      1.00000
     11       2.7117      1.00000
     12       2.7117      1.00000
     13       6.5107      0.00000
     14       6.5107      0.00000
     15      11.7068      0.00000
     16      11.7068      0.00000
     17      13.6356      0.00000
     18      13.6356      0.00000
     19      22.3513      0.00000
     20      22.3513      0.00000
     21      23.7066      0.00000
     22      23.7066      0.00000
     23      24.9832      0.00000
     24      24.9832      0.00000
     25      25.7245      0.00000
     26      25.7245      0.00000
     27      27.3899      0.00000
     28      27.3899      0.00000
     29      29.1994      0.00000
     30      29.1994      0.00000
     31      31.2874      0.00000
     32      31.2874      0.00000
     33      32.8530      0.00000
     34      32.8530      0.00000
     35      32.9285      0.00000
     36      32.9285      0.00000
     37      36.1620      0.00000
     38      36.1620      0.00000
     39      38.1202      0.00000
     40      38.1202      0.00000
     41      40.2897      0.00000
     42      40.2897      0.00000
     43      40.4081      0.00000
     44      40.4081      0.00000
     45      40.7299      0.00000
     46      40.7299      0.00000
     47      45.5231      0.00000
     48      45.5231      0.00000
     49      48.1923      0.00000
     50      48.1923      0.00000
     51      49.8178      0.00000
     52      49.8178      0.00000
     53      49.8362      0.00000
     54      49.8362      0.00000
     55      50.8048      0.00000
     56      50.8048      0.00000
     57      51.3578      0.00000
     58      51.3578      0.00000
     59      51.3594      0.00000
     60      51.3594      0.00000
     61      57.6586      0.00000
     62      57.6586      0.00000
     63      58.9946      0.00000
     64      58.9946      0.00000

 soft charge-density along one line, spin component           1
         0         1         2         3         4         5         6         7         8         9
 total charge-density along one line

[...]

 soft charge-density along one line, spin component           4
         0         1         2         3         4         5         6         7         8         9
 total charge-density along one line

------------------------ aborting loop because EDIFF is reached ----------------------------------------

  FORCE on cell =-STRESS in cart. coord.  units (eV):
  Direction    XX          YY          ZZ          XY          YZ          ZX
  Alpha Z    85.78503    85.78503    85.78503
  Ewald    -335.95294  -335.95350  -335.95573    -0.00079    -0.00193    -0.00137
  Hartree    42.61183    42.61159    42.61065    -0.00033    -0.00082    -0.00058
  E(xc)     -70.48502   -70.48501   -70.48500     0.00000     0.00001     0.00000
  Local      45.12559    45.12636    45.12943     0.00109     0.00266     0.00188
  n-local   -48.42501   -48.42501   -48.42502    -0.00000    -0.00001    -0.00001
  augment    20.57165    20.57165    20.57165    -0.00000    -0.00000    -0.00000
  Kinetic   261.08636   261.08639   261.08648     0.00003     0.00008     0.00006
  Fock        0.00000     0.00000     0.00000     0.00000     0.00000     0.00000
  Total       0.31750     0.31750     0.31749    -0.00000    -0.00001    -0.00001
  in kB      19.39054    19.39062    19.39027    -0.00014    -0.00058    -0.00033

 VOLUME and BASIS-vectors are now :
  energy-cutoff  :      300.00
  volume of cell :       26.23
      direct lattice vectors                 reciprocal lattice vectors
     3.242102804  0.000000000  0.000000000     0.308441792  0.109049309  0.188876893
    -1.080689200  3.056687986  0.000000000     0.000000000  0.327151481  0.188876893
    -1.080689200 -1.528319100  2.647183819     0.000000000  0.000000000  0.377759940

  length of vectors
     3.242102804  3.242102804  3.242102804     0.377759940  0.377759940  0.377759940

 FORCES acting on ions
    electron-ion (+dipol)            ewald-force                    non-local-force                 convergence-correction
   -.131E-06 0.223E-07 -.308E-07   -.136E-14 -.342E-15 -.120E-14   -.810E-07 0.756E-07 -.488E-07   0.993E-07 -.234E-07 0.332E-07
   -.125E-06 0.254E-07 -.321E-07   -.136E-14 -.342E-15 -.120E-14   -.810E-07 0.756E-07 -.488E-07   0.993E-07 -.234E-07 0.332E-07

 POSITION                                       TOTAL-FORCE (eV/Angst)
      0.00000      0.00000      0.00000        -0.000000      0.000000     -0.000000
    total drift:                               -0.000000      0.000000     -0.000000

  FREE ENERGIE OF THE ION-ELECTRON SYSTEM (eV)
  free  energy   TOTEN  =      -132.63371934 eV

  energy  without entropy=     -132.63322128  energy(sigma->0) =     -132.63347031

 writing wavefunctions

 Spin-Orbit-Coupling matrix elements

 Ion:    1  E_soc:     -2.7619030
 l=   1
     0.0000000    -0.1354853    -0.1354858
    -0.1354853     0.0000000    -0.1354854
    -0.1354858    -0.1354854     0.0000000
 l=   2
     0.0000000    -0.0640921     0.0000000    -0.0626353    -0.2607399
    -0.0640921     0.0000000    -0.1966471    -0.0640921    -0.0655491
     0.0000000    -0.1966471     0.0000000    -0.1944620     0.0000000
    -0.0626353    -0.0640921    -0.1944620     0.0000000    -0.0662775
    -0.2607399    -0.0655491     0.0000000    -0.0662775     0.0000000
 l=   3
     0.0000000     0.0000000     0.0000000     0.0000000     0.0000000     0.0000000     0.0000000
     0.0000000     0.0000000     0.0000000     0.0000000     0.0000000     0.0000000     0.0000000
     0.0000000     0.0000000     0.0000000     0.0000000     0.0000000     0.0000000     0.0000000
     0.0000000     0.0000000     0.0000000     0.0000000     0.0000000     0.0000000     0.0000000
     0.0000000     0.0000000     0.0000000     0.0000000     0.0000000     0.0000000     0.0000000
     0.0000000     0.0000000     0.0000000     0.0000000     0.0000000     0.0000000     0.0000000
     0.0000000     0.0000000     0.0000000     0.0000000     0.0000000     0.0000000     0.0000000