 vasp.5.4.4.18Apr17-6-g9f103f2a35 (build Nov 03 2018 10:20:43) complex

 executed on             LinuxIFC date 2018.12.21  15:41:18

 INCAR:
 POTCAR:    PAW_PBE Rn_d_GW 14Apr2014

 POTCAR:    PAW_PBE Rn_d_GW 14Apr2014
   VRHFIN =Rn:

   TITEL  = PAW_PBE Rn_d_GW 14Apr2014
   POMASS =  220.170; ZVAL   =   18.000    mass and valenz
   ENMAX  =  268.495; ENMIN  =  201.371 eV

  PAW_PBE Rn_d_GW 14Apr2014             :

 POSCAR: Rn_FCC
  positions in direct lattice
  velocities in cartesian coordinates

 METAGGA = SCAN     LMAXTAU =  0    LMIXTAU =  F

 ion  position               nearest neighbor table
   1  0.000  0.000  0.000-

IMPORTANT INFORMATION: All symmetrisations will be switched off!
NOSYMM: (Re-)initialisation of all symmetry stuff for point group C_1.

 KPOINTS: Automatically generated mesh + R-points
  k-points in reciprocal lattice
Space group operators:
 irot       det(A)        alpha          n_x          n_y          n_z        tau_x        tau_y        tau_z
    1     1.000000     0.000000     1.000000     0.000000     0.000000     0.000000     0.000000     0.000000

 SYSTEM =  Rn_FCC
 POSCAR =  Rn_FCC

 Startparameter for this run:
   NWRITE =      2    write-flag & timer
   PREC   = accura    normal or accurate (medium, high low for compatibility)
   ISTART =      1    job   : 0-new  1-cont  2-samecut
   ICHARG =      0    charge: 1-file 2-atom 10-const
   ISPIN  =      1    spin polarized calculation?
   LNONCOLLINEAR =      F non collinear calculations
   LSORBIT =      F    spin-orbit coupling
   INIWAV =      1    electr: 0-lowe 1-rand  2-diag
   LASPH  =      F    aspherical Exc in radial PAW
   METAGGA=      F    non-selfconsistent MetaGGA calc.

 Electronic Relaxation 1
   ENCUT  =  300.0 eV  22.05 Ry    4.70 a.u.   6.23  6.23  6.23*2*pi/ulx,y,z
   ENINI  =  300.0     initial cutoff
   ENAUG  =  715.6 eV  augmentation charge cutoff
   NELM   =     50;   NELMIN=  2; NELMDL= -5     # of ELM steps
   EDIFF  = 0.1E-07   stopping-criterion for ELM
   LREAL  =      F    real-space projection
   NLSPLINE    = F    spline interpolate recip. space projectors
   LCOMPAT=      F    compatible to vasp.4.4
   GGA_COMPAT  = F    GGA compatible to vasp.4.4-vasp.4.6
   LMAXPAW     = -100 max onsite density
   LMAXMIX     =    2 max onsite mixed and CHGCAR
   VOSKOWN=      0    Vosko Wilk Nusair interpolation
   ROPT   =    0.00000
 Ionic relaxation
   EDIFFG = 0.1E-04   stopping-criterion for IOM
   NSW    =      1    number of steps for IOM
   NBLOCK =      1;   KBLOCK =      1    inner block; outer block
   IBRION =     -1    ionic relax: 0-MD 1-quasi-New 2-CG
   NFREE  =      5    steps in history (QN), initial steepest desc. (CG)
   ISIF   =      3    stress and relaxation
   IWAVPR =     10    prediction:  0-non 1-charg 2-wave 3-comb
   ISYM   =      0    0-nonsym 1-usesym 2-fastsym
   LCORR  =      T    Harris-Foulkes like correction to forces

   POTIM  = 0.1000    time-step for ionic-motion
   TEIN   =    0.0    initial temperature
   TEBEG  =    0.0;   TEEND  =   0.0 temperature during run
   SMASS  =  -3.00    Nose mass-parameter (am)
   estimated Nose-frequenzy (Omega)   =  0.10E-29 period in steps =****** mass=  -0.445E-27a.u.
   SCALEE = 1.0000    scale energy and forces
   NPACO  =    256;   APACO  = 16.0  distance and # of slots for P.C.
   PSTRESS=    0.0 pullay stress

  Mass of Ions in am
   POMASS = 220.17
  Ionic Valenz
   ZVAL   =  18.00
  Atomic Wigner-Seitz radii
  virtual crystal weights
   VCA    =   1.00
   NELECT =      18.0000    total number of electrons
   NUPDOWN=      -1.0000    fix difference up-down

 DOS related values:
   EMIN   =  10.00;   EMAX   =-10.00  energy-range for DOS
   EFERMI =   0.00
   ISMEAR =     0;   SIGMA  =   0.05  broadening in eV -4-tet -1-fermi 0-gaus

 Electronic relaxation 2 (details)
   IALGO  =     38    algorithm
   LDIAG  =      T    sub-space diagonalisation (order eigenvalues)
   LSUBROT=      F    optimize rotation matrix (better conditioning)
   TURBO    =      0    0=normal 1=particle mesh
   IRESTART =      0    0=no restart 2=restart with 2 vectors
   NREBOOT  =      0    no. of reboots
   NMIN     =      0    reboot dimension
   EREF     =   0.00    reference energy to select bands
   IMIX   =      4    mixing-type and parameters
     AMIX     =   0.40;   BMIX     =  1.00
     AMIX_MAG =   1.60;   BMIX_MAG =  1.00
     AMIN     =   0.10
     WC   =   100.;   INIMIX=   1;  MIXPRE=   1;  MAXMIX=  50

 Intra band minimization:
   WEIMIN = 0.0000     energy-eigenvalue tresh-hold
   EBREAK =  0.78E-10  absolut break condition
   DEPER  =   0.30     relativ break condition

   TIME   =   0.40     timestep for ELM

  volume/ion in A,a.u.               =      60.83       410.53
  Fermi-wavevector in a.u.,A,eV,Ry     =   1.090892  2.061487 16.191546  1.190045
  Thomas-Fermi vector in A             =   2.227126

 Write flags
   LWAVE        =      T    write WAVECAR
   LDOWNSAMPLE  =      F    k-point downsampling of WAVECAR
   LCHARG       =      T    write CHGCAR
   LVTOT        =      F    write LOCPOT, total local potential
   LVHAR        =      F    write LOCPOT, Hartree potential only
   LELF         =      F    write electronic localiz. function (ELF)
   LORBIT       =      0    0 simple, 1 ext, 2 COOP (PROOUT), +10 PAW based schemes

 Dipole corrections
   LMONO  =      F    monopole corrections only (constant potential shift)
   LDIPOL =      F    correct potential (dipole corrections)
   IDIPOL =      0    1-x, 2-y, 3-z, 4-all directions
   EPSILON=  1.0000000 bulk dielectric constant

 Exchange correlation treatment:
   GGA     =    --    GGA type
   VOSKOWN=      0    Vosko Wilk Nusair interpolation
   LHFCALC =     F    Hartree Fock is set to
   LHFONE  =     F    Hartree Fock one center treatment
   AEXX    =    0.0000 exact exchange contribution

 Linear response parameters
   LEPSILON=     F    determine dielectric tensor
   LRPA    =     F    only Hartree local field effects (RPA)
   LNABLA  =     F    use nabla operator in PAW spheres
   LVEL    =     F    velocity operator in full k-point grid
   LINTERFAST=   F  fast interpolation
   KINTER  =     0    interpolate to denser k-point grid
   CSHIFT  =0.1000    complex shift for real part using Kramers Kronig
   OMEGAMAX=  -1.0    maximum frequency
   DEG_THRESHOLD= 0.2000000E-02 threshold for treating states as degnerate
   RTIME   =   -0.100 relaxation time in fs
  (WPLASMAI=    0.000 imaginary part of plasma frequency in eV, 0.658/RTIME)
   DFIELD  = 0.0000000 0.0000000 0.0000000 field for delta impulse in time

 Orbital magnetization related:
   ORBITALMAG=     F  switch on orbital magnetization
   LCHIMAG   =     F  perturbation theory with respect to B field
   DQ        =  0.001000  dq finite difference perturbation B field
   LLRAUG    =     F  two centre corrections for induced B field

 Static calculation
 charge density and potential will be updated during run
 non-spin polarized calculation
 Variant of blocked Davidson
 Davidson routine will perform the subspace rotation
 perform sub-space diagonalisation
    after iterative eigenvector-optimisation
 modified Broyden-mixing scheme, WC =      100.0
 initial mixing is a Kerker type mixing with AMIX =  0.4000 and BMIX =      1.0000
 Hartree-type preconditioning will be used
 using additional bands           23
 reciprocal scheme for non local part
 use partial core corrections
 calculate Harris-corrections to forces
   (improved forces if not selfconsistent)
 use gradient corrections
 use of overlap-Matrix (Vanderbilt PP)
 Gauss-broadening in eV      SIGMA  =   0.05

  energy-cutoff  :      300.00
  volume of cell :       60.83
      direct lattice vectors                 reciprocal lattice vectors
     4.414575608  0.000000000  0.000000000     0.226522341 -0.130782734 -0.092477358
     2.207287804  3.823134623 -0.000000000     0.000000000  0.261565469 -0.092477358
     2.207287804  1.274378208  3.604485890    -0.000000000  0.000000000  0.277432075

  length of vectors
     4.414575608  4.414575608  4.414575608     0.277432075  0.277432075  0.277432075

 old parameters found on file WAVECAR:
  energy-cutoff  :      300.00
  volume of cell :       65.32
      direct lattice vectors                 reciprocal lattice vectors
     4.520564769  0.000000000  0.000000000     0.221211298 -0.127716402 -0.090309134
     2.260282385  3.914923930 -0.000000000     0.000000000  0.255432805 -0.090309134
     2.260282385  1.304974643  3.691025678    -0.000000000  0.000000000  0.270927403

  length of vectors

 k-points in units of 2pi/SCALE and weight: Automatically generated mesh + R-points
   0.11060565  0.06385820  0.04515457       0.000
   0.10507537  0.06066529  0.04289684       0.000
   0.09954508  0.05747238  0.04063911       0.000
   0.09401480  0.05427947  0.03838138       0.000
   0.08848452  0.05108656  0.03612365       0.000
   0.08295424  0.04789365  0.03386593       0.000
   0.07742395  0.04470074  0.03160820       0.000
   0.07189367  0.04150783  0.02935047       0.000
   0.06636339  0.03831492  0.02709274       0.000
   0.06083311  0.03512201  0.02483501       0.000
   0.05530282  0.03192910  0.02257728       0.000
   0.04977254  0.02873619  0.02031956       0.000
   0.04424226  0.02554328  0.01806183       0.000
   0.03871198  0.02235037  0.01580410       0.000
   0.03318169  0.01915746  0.01354637       0.000
   0.02765141  0.01596455  0.01128864       0.000
   0.02212113  0.01277164  0.00903091       0.000
   0.01659085  0.00957873  0.00677319       0.000
   0.01106056  0.00638582  0.00451546       0.000
   0.00553028  0.00319291  0.00225773       0.000
   0.00000000  0.00000000  0.00000000       0.000
  -0.00000000  0.00638582  0.00451546       0.000
  -0.00000000  0.01277164  0.00903091       0.000
  -0.00000000  0.01915746  0.01354637       0.000
  -0.00000000  0.02554328  0.01806183       0.000
  -0.00000000  0.03192910  0.02257728       0.000
  -0.00000000  0.03831492  0.02709274       0.000
  -0.00000000  0.04470074  0.03160820       0.000
  -0.00000000  0.05108656  0.03612365       0.000
  -0.00000000  0.05747238  0.04063911       0.000
  -0.00000000  0.06385820  0.04515457       0.000
  -0.00000000  0.07024402  0.04967002       0.000
  -0.00000000  0.07662984  0.05418548       0.000
  -0.00000000  0.08301566  0.05870094       0.000
  -0.00000000  0.08940148  0.06321639       0.000
  -0.00000000  0.09578730  0.06773185       0.000
  -0.00000000  0.10217312  0.07224731       0.000
  -0.00000000  0.10855894  0.07676276       0.000
  -0.00000000  0.11494476  0.08127822       0.000
  -0.00000000  0.12133058  0.08579368       0.000
  -0.00000000  0.12771640  0.09030913       0.000
   0.00000000  0.00000000  0.00000000       0.005
   0.03686855 -0.02128607 -0.01505152       0.009
   0.07373710 -0.04257213 -0.03010304       0.009
   0.11060565 -0.06385820 -0.04515457       0.005
   0.00000000  0.04257213 -0.01505152       0.009
   0.03686855  0.02128607 -0.03010304       0.009
   0.07373710  0.00000000 -0.04515457       0.009
   0.11060565 -0.02128607 -0.06020609       0.009
  -0.07373710  0.08514427  0.01505152       0.009
  -0.03686855  0.06385820  0.00000000       0.009
[...]
 k-point  5 :   0.4000 0.4000 0.4000  plane waves:     721
 k-point  6 :   0.3750 0.3750 0.3750  plane waves:     730
 k-point  7 :   0.3500 0.3500 0.3500  plane waves:     730
 k-point  8 :   0.3250 0.3250 0.3250  plane waves:     736
 k-point  9 :   0.3000 0.3000 0.3000  plane waves:     718
 k-point 10 :   0.2750 0.2750 0.2750  plane waves:     718
 k-point 11 :   0.2500 0.2500 0.2500  plane waves:     721
 k-point 12 :   0.2250 0.2250 0.2250  plane waves:     718
 k-point 13 :   0.2000 0.2000 0.2000  plane waves:     718
 k-point 14 :   0.1750 0.1750 0.1750  plane waves:     712
 k-point 15 :   0.1500 0.1500 0.1500  plane waves:     712
 k-point 16 :   0.1250 0.1250 0.1250  plane waves:     712
 k-point 17 :   0.1000 0.1000 0.1000  plane waves:     724
 k-point 18 :   0.0750 0.0750 0.0750  plane waves:     722
 k-point 19 :   0.0500 0.0500 0.0500  plane waves:     725
 k-point 20 :   0.0250 0.0250 0.0250  plane waves:     725
 k-point 21 :   0.0000 0.0000 0.0000  plane waves:     725
 k-point 22 :   0.0000 0.0250 0.0250  plane waves:     725
 k-point 23 :   0.0000 0.0500 0.0500  plane waves:     725
 k-point 24 :   0.0000 0.0750 0.0750  plane waves:     721
 k-point 25 :   0.0000 0.1000 0.1000  plane waves:     713
 k-point 26 :   0.0000 0.1250 0.1250  plane waves:     713
 k-point 27 :   0.0000 0.1500 0.1500  plane waves:     709
 k-point 28 :   0.0000 0.1750 0.1750  plane waves:     709
 k-point 29 :   0.0000 0.2000 0.2000  plane waves:     709
 k-point 30 :   0.0000 0.2250 0.2250  plane waves:     717
 k-point 31 :   0.0000 0.2500 0.2500  plane waves:     713
 k-point 32 :   0.0000 0.2750 0.2750  plane waves:     713
 k-point 33 :   0.0000 0.3000 0.3000  plane waves:     717
 k-point 34 :   0.0000 0.3250 0.3250  plane waves:     717
 k-point 35 :   0.0000 0.3500 0.3500  plane waves:     717
 k-point 36 :   0.0000 0.3750 0.3750  plane waves:     713
 k-point 37 :   0.0000 0.4000 0.4000  plane waves:     717
 k-point 38 :   0.0000 0.4250 0.4250  plane waves:     716
 k-point 39 :   0.0000 0.4500 0.4500  plane waves:     724
 k-point 40 :   0.0000 0.4750 0.4750  plane waves:     724
 k-point 41 :   0.0000 0.5000 0.5000  plane waves:     724
 k-point 42 :   0.0000 0.0000 0.0000  plane waves:     725
 k-point 43 :   0.1667 0.0000 0.0000  plane waves:     712
 k-point 44 :   0.3333 0.0000 0.0000  plane waves:     745
 k-point 45 :   0.5000 0.0000 0.0000  plane waves:     718
 k-point 46 :   0.0000 0.1667 0.0000  plane waves:     712
 k-point 47 :   0.1667 0.1667 0.0000  plane waves:     709
 k-point 48 :   0.3333 0.1667 0.0000  plane waves:     718
 k-point 49 :   0.5000 0.1667 0.0000  plane waves:     714
 k-point 50 :  -0.3333 0.1667 0.0000  plane waves:     717
 k-point 51 :  -0.1667 0.1667 0.0000  plane waves:     720
 k-point 52 :   0.0000 0.3333 0.0000  plane waves:     745
 k-point 53 :   0.1667 0.3333 0.0000  plane waves:     718
 k-point 54 :   0.3333 0.3333 0.0000  plane waves:     717
 k-point 55 :   0.5000 0.3333 0.0000  plane waves:     715
 k-point 56 :  -0.3333 0.3333 0.0000  plane waves:     716
 k-point 57 :  -0.1667 0.3333 0.0000  plane waves:     717
 k-point 58 :   0.0000 0.5000 0.0000  plane waves:     718
 k-point 59 :   0.1667 0.5000 0.0000  plane waves:     714
 k-point 60 :   0.3333 0.5000 0.0000  plane waves:     715
[...]
 k-point 85 :  -0.1667 0.5000 0.1667  plane waves:     722
 k-point 86 :   0.0000-0.3333 0.1667  plane waves:     717
 k-point 87 :   0.1667-0.3333 0.1667  plane waves:     714
 k-point 88 :   0.3333-0.3333 0.1667  plane waves:     722
 k-point 89 :   0.5000-0.3333 0.1667  plane waves:     718
 k-point 90 :  -0.3333-0.3333 0.1667  plane waves:     715
 k-point 91 :  -0.1667-0.3333 0.1667  plane waves:     717
 k-point 92 :   0.0000-0.1667 0.1667  plane waves:     720
 k-point 93 :   0.1667-0.1667 0.1667  plane waves:     718
 k-point 94 :   0.3333-0.1667 0.1667  plane waves:     717
 k-point 95 :   0.5000-0.1667 0.1667  plane waves:     722
 k-point 96 :  -0.3333-0.1667 0.1667  plane waves:     717
 k-point 97 :  -0.1667-0.1667 0.1667  plane waves:     718
 k-point 98 :   0.0000 0.0000 0.3333  plane waves:     745
 k-point 99 :   0.1667 0.0000 0.3333  plane waves:     718
 k-point ** :   0.3333 0.0000 0.3333  plane waves:     717
 k-point ** :   0.5000 0.0000 0.3333  plane waves:     715
 k-point ** :  -0.3333 0.0000 0.3333  plane waves:     716
 k-point ** :  -0.1667 0.0000 0.3333  plane waves:     717
 k-point ** :   0.0000 0.1667 0.3333  plane waves:     718
 k-point ** :   0.1667 0.1667 0.3333  plane waves:     720
 k-point ** :   0.3333 0.1667 0.3333  plane waves:     718
 k-point ** :   0.5000 0.1667 0.3333  plane waves:     717
 k-point ** :  -0.3333 0.1667 0.3333  plane waves:     722
 k-point ** :  -0.1667 0.1667 0.3333  plane waves:     717
 k-point ** :   0.0000 0.3333 0.3333  plane waves:     717
 k-point ** :   0.1667 0.3333 0.3333  plane waves:     718
 k-point ** :   0.3333 0.3333 0.3333  plane waves:     745
 k-point ** :   0.5000 0.3333 0.3333  plane waves:     717
 k-point ** :  -0.3333 0.3333 0.3333  plane waves:     716
 k-point ** :  -0.1667 0.3333 0.3333  plane waves:     715
 k-point ** :   0.0000 0.5000 0.3333  plane waves:     715
 k-point ** :   0.1667 0.5000 0.3333  plane waves:     717
 k-point ** :   0.3333 0.5000 0.3333  plane waves:     717
 k-point ** :   0.5000 0.5000 0.3333  plane waves:     714
 k-point ** :  -0.3333 0.5000 0.3333  plane waves:     722
 k-point ** :  -0.1667 0.5000 0.3333  plane waves:     718
 k-point ** :   0.0000-0.3333 0.3333  plane waves:     716
 k-point ** :   0.1667-0.3333 0.3333  plane waves:     722
 k-point ** :   0.3333-0.3333 0.3333  plane waves:     716
 k-point ** :   0.5000-0.3333 0.3333  plane waves:     722
 k-point ** :  -0.3333-0.3333 0.3333  plane waves:     716
 k-point ** :  -0.1667-0.3333 0.3333  plane waves:     722
 k-point ** :   0.0000-0.1667 0.3333  plane waves:     717
 k-point ** :   0.1667-0.1667 0.3333  plane waves:     717
 k-point ** :   0.3333-0.1667 0.3333  plane waves:     715
 k-point ** :   0.5000-0.1667 0.3333  plane waves:     718
 k-point ** :  -0.3333-0.1667 0.3333  plane waves:     722
 k-point ** :  -0.1667-0.1667 0.3333  plane waves:     714
 k-point ** :   0.0000 0.0000 0.5000  plane waves:     718
 k-point ** :   0.1667 0.0000 0.5000  plane waves:     714
 k-point ** :   0.3333 0.0000 0.5000  plane waves:     715
 k-point ** :   0.5000 0.0000 0.5000  plane waves:     724
 k-point ** :   0.0000 0.1667 0.5000  plane waves:     714
 k-point ** :   0.1667 0.1667 0.5000  plane waves:     717
 k-point ** :   0.3333 0.1667 0.5000  plane waves:     717
 k-point ** :   0.5000 0.1667 0.5000  plane waves:     715
 k-point ** :  -0.3333 0.1667 0.5000  plane waves:     718
 k-point ** :  -0.1667 0.1667 0.5000  plane waves:     722
 k-point ** :   0.0000 0.3333 0.5000  plane waves:     715
 k-point ** :   0.1667 0.3333 0.5000  plane waves:     717
 k-point ** :   0.3333 0.3333 0.5000  plane waves:     717
 k-point ** :   0.5000 0.3333 0.5000  plane waves:     714
 k-point ** :  -0.3333 0.3333 0.5000  plane waves:     722
 k-point ** :  -0.1667 0.3333 0.5000  plane waves:     718
 k-point ** :   0.0000 0.5000 0.5000  plane waves:     724
 k-point ** :   0.1667 0.5000 0.5000  plane waves:     715
 k-point ** :   0.3333 0.5000 0.5000  plane waves:     714

 maximum and minimum number of plane-waves per node :       200      167

 maximum number of plane-waves:       745
 maximum index in each direction:
   IXMAX=    6   IYMAX=    6   IZMAX=    6
   IXMIN=   -6   IYMIN=   -6   IZMIN=   -6

 parallel 3D FFT for wavefunctions:
    minimum data exchange during FFTs selected (reduces bandwidth)
 parallel 3D FFT for charge:
    minimum data exchange during FFTs selected (reduces bandwidth)

 Broyden mixing: mesh for mixing (old mesh)
   NGX = 13   NGY = 13   NGZ = 13
  (NGX  = 56   NGY  = 56   NGZ  = 56)
  gives a total of   2197 points

 charge density for first step will be calculated from the start-wavefunctions

 Maximum index for augmentation-charges        26897 (set IRDMAX)

 initial charge from wavefunction
 First call to EWALD:  gamma=   0.451
 Maximum number of real-space cells 3x 3x 3
 Maximum number of reciprocal cells 3x 3x 3

--------------------------------------- Iteration      1(   1)  ---------------------------------------

 eigenvalue-minimisations  : 13768
 total energy-change (2. order) :-0.8366781E+02  (-0.3903951E+01)
 number of electron      18.0000001 magnetization
 augmentation part        7.5132094 magnetization

 Free energy of the ion-electron system (eV)
  alpha Z        PSCENC =        69.69972675
  Ewald energy   TEWEN  =     -1713.14217088
  -Hartree energ DENC   =     -1048.54917198
  -exchange      EXHF   =         0.00000000
  -V(xc)+E(xc)   XCENC  =        60.09302930
  PAW double counting   =      2453.32741460    -2522.98816239
  entropy T*S    EENTRO =        -0.00000000
  eigenvalues    EBANDS =      -412.73258113
  atomic energy  EATOM  =      3030.62410580
  Solvation  Ediel_sol  =         0.00000000
  free energy    TOTEN  =       -83.66780993 eV

  energy without entropy =      -83.66780993  energy(sigma->0) =      -83.66780993

[...]

 Broyden mixing:
  rms(total) = 0.59672E+00    rms(broyden)= 0.59657E+00
  rms(prec ) = 0.16200E+01
  weight for this iteration     100.00

[...]

 eigenvalue-minimisations  : 15360
 total energy-change (2. order) : 0.2479425E+01  (-0.2858137E+00)
 number of electron      18.0000001 magnetization
 augmentation part        7.0933018 magnetization

[...]

 eigenvalues of (default mixing * dielectric matrix)
  average eigenvalue GAMMA=   1.6013
  1.6013

[...]

 Broyden mixing:
  rms(total) = 0.18765E-03    rms(broyden)= 0.18246E-03
  rms(prec ) = 0.19509E-03
  weight for this iteration     100.00

[...]

 eigenvalue-minimisations  : 11848
 total energy-change (2. order) :-0.7654317E-06  (-0.1641313E-07)
 number of electron      18.0000001 magnetization
 augmentation part        7.1393375 magnetization

 Broyden mixing:
  rms(total) = 0.46843E-04    rms(broyden)= 0.16507E-04
  rms(prec ) = 0.30230E-04
  weight for this iteration     100.00
  WARNING: grid for Broyden might be to small

[...]

 Broyden mixing:
  rms(total) = 0.43920E-04    rms(broyden)= 0.26947E-05
  rms(prec ) = 0.31744E-05
  weight for this iteration     100.00
  WARNING: grid for Broyden might be to small

 eigenvalues of (default mixing * dielectric matrix)
  average eigenvalue GAMMA=   1.7422
  3.1775  3.1775  2.5064  2.3979  2.3979  1.5105  0.9684  0.9684  1.0060  1.0060
  0.8951  0.8951

[...]

--------------------------------------- Iteration      1(  18)  ---------------------------------------

 eigenvalue-minimisations  :  7304
 total energy-change (2. order) : 0.9960786E-08  (-0.6686025E-11)
 number of electron      18.0000001 magnetization
 augmentation part        7.1393358 magnetization

 Free energy of the ion-electron system (eV)
  alpha Z        PSCENC =        69.69972675
  Ewald energy   TEWEN  =     -1713.14217088
  -Hartree energ DENC   =      -990.19247151
  -exchange      EXHF   =         0.00000000
  -V(xc)+E(xc)   XCENC  =        59.22777975
  PAW double counting   =      2390.94560002    -2451.52024816
  entropy T*S    EENTRO =        -0.00000000
  eigenvalues    EBANDS =      -476.61887298
  atomic energy  EATOM  =      3030.62410580
  Solvation  Ediel_sol  =         0.00000000
  free energy    TOTEN  =       -80.97655121 eV

  energy without entropy =      -80.97655121  energy(sigma->0) =      -80.97655121

 average (electrostatic) potential at core
  the test charge radii are     1.0367
  (the norm of the test charge is              1.0000)
       1 -90.5435

 E-fermi :  -2.1356     XC(G=0):  -7.7457     alpha+bet : -4.8700

 k-point     1 :       0.5000    0.5000    0.5000
  band No.  band energies     occupation
      1     -42.1451      2.00000
      2     -42.1451      2.00000
      3     -42.1432      2.00000
      4     -42.1426      2.00000
      5     -42.1426      2.00000
      6     -17.7288      2.00000
      7      -4.4292      2.00000
      8      -2.6488      2.00000
      9      -2.6487      2.00000
     10       4.9109      0.00000
     11       8.0546      0.00000
     12       8.0546      0.00000
     13       8.6168      0.00000
     14      10.6750      0.00000
     15      13.3213      0.00000
     16      13.3213      0.00000
     17      13.5408      0.00000
     18      13.5408      0.00000
     19      14.4634      0.00000
     20      17.8921      0.00000
     21      18.2698      0.00000
     22      18.2698      0.00000
     23      19.9506      0.00000
     24      21.2618      0.00000
     25      22.1583      0.00000
     26      22.7202      0.00000
     27      22.7203      0.00000
     28      23.8406      0.00000
     29      23.8406      0.00000
     30      25.8202      0.00000
     31      26.2944      0.00000
     32      27.7617      0.00000

[...]

 k-point   152 :       0.3333    0.5000    0.5000
  band No.  band energies     occupation
      1     -42.1449      2.00000
      2     -42.1446      2.00000
      3     -42.1431      2.00000
      4     -42.1428      2.00000
      5     -42.1427      2.00000
      6     -17.7136      2.00000
      7      -4.2483      2.00000
      8      -3.0136      2.00000
      9      -2.7775      2.00000
     10       5.5783      0.00000
     11       6.8869      0.00000
     12       8.5353      0.00000
     13       8.7268      0.00000
     14      11.2394      0.00000
     15      12.3549      0.00000
     16      13.2026      0.00000
     17      14.0366      0.00000
     18      14.1735      0.00000
     19      17.1089      0.00000
     20      17.5525      0.00000
     21      17.6297      0.00000
     22      17.9809      0.00000
     23      19.2654      0.00000
     24      20.9115      0.00000
     25      21.6300      0.00000
     26      21.8561      0.00000
     27      22.3953      0.00000
     28      23.5412      0.00000
     29      23.7666      0.00000
     30      25.9512      0.00000
     31      26.2766      0.00000
     32      27.0166      0.00000

 soft charge-density along one line, spin component           1
         0         1         2         3         4         5         6         7         8         9
 total charge-density along one line

------------------------ aborting loop because EDIFF is reached ----------------------------------------

  FORCE on cell =-STRESS in cart. coord.  units (eV):
  Direction    XX          YY          ZZ          XY          YZ          ZX
  Alpha Z    69.69973    69.69973    69.69973
  Ewald    -571.04741  -571.04741  -571.04741     0.00000    -0.00000     0.00000
  Hartree   330.05693   330.06658   330.06899    -0.00835    -0.00341    -0.00591
  E(xc)    -110.89678  -110.89715  -110.89724     0.00032     0.00013     0.00023
  Local     -55.80770   -55.80147   -55.79991    -0.00539    -0.00220    -0.00382
  n-local    74.03952    74.02522    74.02164     0.01238     0.00506     0.00875
  augment   105.87931   105.88217   105.88296    -0.00248    -0.00101    -0.00175
  Kinetic   158.13560   158.10477   158.09702     0.02670     0.01091     0.01888
  Fock        0.00000     0.00000     0.00000     0.00000     0.00000     0.00000
  Total       0.05920     0.03243     0.02578     0.02318     0.00947     0.01639
  in kB       1.55913     0.85413     0.67893     0.61056     0.24945     0.43157

 VOLUME and BASIS-vectors are now :
  energy-cutoff  :      300.00
  volume of cell :       60.83
      direct lattice vectors                 reciprocal lattice vectors
     4.414575608  0.000000000  0.000000000     0.226522341 -0.130782734 -0.092477358
     2.207287804  3.823134623 -0.000000000     0.000000000  0.261565469 -0.092477358
     2.207287804  1.274378208  3.604485890    -0.000000000  0.000000000  0.277432075

  length of vectors
     4.414575608  4.414575608  4.414575608     0.277432075  0.277432075  0.277432075

 FORCES acting on ions
    electron-ion (+dipol)            ewald-force                    non-local-force                 convergence-correction
   -.226E-06 -.747E-06 -.127E-06   -.132E-14 0.426E-15 -.114E-14   0.234E-06 -.454E-06 -.540E-08   0.776E-06 0.279E-06 0.203E-06
   -.231E-06 -.755E-06 -.126E-06   -.132E-14 0.426E-15 -.114E-14   0.234E-06 -.454E-06 -.540E-08   0.776E-06 0.279E-06 0.203E-06

 POSITION                                       TOTAL-FORCE (eV/Angst)
      0.00000      0.00000      0.00000         0.000001     -0.000001      0.000000
    total drift:                                0.000001     -0.000001      0.000000

  FREE ENERGIE OF THE ION-ELECTRON SYSTEM (eV)
  free  energy   TOTEN  =       -80.97655121 eV

  energy  without entropy=      -80.97655121  energy(sigma->0) =      -80.97655121

 writing wavefunctions