 vasp.5.4.4.18Apr17-6-g9f103f2a35 (build Nov 03 2018 10:20:46) complex

 executed on             LinuxIFC date 2018.12.22  09:55:45

 INCAR:
 POTCAR:    Cn-PAW, fit to 4c-PBE, JanMewes Oct18

 POTCAR:    Cn-PAW, fit to 4c-PBE, JanMewes Oct18
   VRHFIN =Cn : 10d 2s

   TITEL  = Cn-PAW, fit to 4c-PBE, JanMewes Oct18
   POMASS =    0.010; ZVAL   =   12.000    mass and valenz
   ENMAX  =  273.073; ENMIN  =  204.805 eV
   QCUT   =   -4.480; QGAM   =    8.960    optimization parameters

  Cn-PAW, fit to 4c-PBE, JanMewes Oct18 :

 POSCAR: Cn BCC
  positions in direct lattice
  velocities in cartesian coordinates
 exchange correlation table for  LEXCH =        8
   RHO(1)=    0.500       N(1)  =     2000
   RHO(2)=  100.500       N(2)  =     4000

 ion  position               nearest neighbor table
   1  0.000  0.000  0.000-

IMPORTANT INFORMATION: All symmetrisations will be switched off!
NOSYMM: (Re-)initialisation of all symmetry stuff for point group C_1.

 KPOINTS: k-points

Automatic generation of k-mesh.
Space group operators:
 irot       det(A)        alpha          n_x          n_y          n_z        tau_x        tau_y        tau_z
    1     1.000000     0.000001     1.000000     0.000000     0.000000     0.000000     0.000000     0.000000

 Subroutine IBZKPT returns following result:

 Found    216 irreducible k-points:

 Following reciprocal coordinates:
            Coordinates               Weight
  0.000000  0.000000  0.000000      1.000000
  0.166667  0.000000  0.000000      1.000000
  0.333333  0.000000 -0.000000      1.000000
  0.500000  0.000000  0.000000      1.000000
 -0.333333 -0.000000  0.000000      1.000000
 -0.166667  0.000000  0.000000      1.000000
  0.000000  0.166667  0.000000      1.000000
  0.166667  0.166667  0.000000      1.000000
  0.333333  0.166667  0.000000      1.000000
  0.500000  0.166667  0.000000      1.000000
 -0.333333  0.166667 -0.000000      1.000000
 -0.166667  0.166667 -0.000000      1.000000
  0.000000  0.333333  0.000000      1.000000
  0.166667  0.333333  0.000000      1.000000
  0.333333  0.333333  0.000000      1.000000
  0.500000  0.333333  0.000000      1.000000
 -0.333333  0.333333  0.000000      1.000000
 -0.166667  0.333333  0.000000      1.000000
  0.000000  0.500000 -0.000000      1.000000
  0.166667  0.500000  0.000000      1.000000
  0.333333  0.500000  0.000000      1.000000
  0.500000  0.500000 -0.000000      1.000000
 -0.333333  0.500000 -0.000000      1.000000
 -0.166667  0.500000  0.000000      1.000000
  0.000000 -0.333333 -0.000000      1.000000
  0.166667 -0.333333 -0.000000      1.000000
  0.333333 -0.333333 -0.000000      1.000000
  0.500000 -0.333333 -0.000000      1.000000
 -0.333333 -0.333333  0.000000      1.000000
 -0.166667 -0.333333 -0.000000      1.000000
  0.000000 -0.166667 -0.000000      1.000000
  0.166667 -0.166667  0.000000      1.000000
  0.333333 -0.166667  0.000000      1.000000
  0.500000 -0.166667  0.000000      1.000000
 -0.333333 -0.166667 -0.000000      1.000000
 -0.166667 -0.166667 -0.000000      1.000000
  0.000000  0.000000  0.166667      1.000000
  0.166667  0.000000  0.166667      1.000000
  0.333333  0.000000  0.166667      1.000000
  0.500000  0.000000  0.166667      1.000000
 -0.333333 -0.000000  0.166667      1.000000
 -0.166667  0.000000  0.166667      1.000000
  0.000000  0.166667  0.166667      1.000000
  0.166667  0.166667  0.166667      1.000000
  0.333333  0.166667  0.166667      1.000000
  0.500000  0.166667  0.166667      1.000000
 -0.333333  0.166667  0.166667      1.000000
 -0.166667  0.166667  0.166667      1.000000
  0.000000  0.333333  0.166667      1.000000
  0.166667  0.333333  0.166667      1.000000
  0.333333  0.333333  0.166667      1.000000
  0.500000  0.333333  0.166667      1.000000
 -0.333333  0.333333  0.166667      1.000000
 -0.166667  0.333333  0.166667      1.000000
  0.000000  0.500000  0.166667      1.000000
  0.166667  0.500000  0.166667      1.000000
  0.333333  0.500000  0.166667      1.000000
  0.500000  0.500000  0.166667      1.000000
 -0.333333  0.500000  0.166667      1.000000
 -0.166667  0.500000  0.166667      1.000000
[...]
  0.500000  0.500000 -0.166667      1.000000
 -0.333333  0.500000 -0.166667      1.000000
 -0.166667  0.500000 -0.166667      1.000000
  0.000000 -0.333333 -0.166667      1.000000
  0.166667 -0.333333 -0.166667      1.000000
  0.333333 -0.333333 -0.166667      1.000000
  0.500000 -0.333333 -0.166667      1.000000
 -0.333333 -0.333333 -0.166667      1.000000
 -0.166667 -0.333333 -0.166667      1.000000
  0.000000 -0.166667 -0.166667      1.000000
  0.166667 -0.166667 -0.166667      1.000000
  0.333333 -0.166667 -0.166667      1.000000
  0.500000 -0.166667 -0.166667      1.000000
 -0.333333 -0.166667 -0.166667      1.000000
 -0.166667 -0.166667 -0.166667      1.000000

 Following cartesian coordinates:
            Coordinates               Weight
  0.000000  0.000000  0.000000      1.000000
  0.051407  0.018175  0.031479      1.000000
  0.102814  0.036350  0.062959      1.000000
  0.154221  0.054525  0.094438      1.000000
 -0.102814 -0.036350 -0.062959      1.000000
 -0.051407 -0.018175 -0.031479      1.000000
  0.000000  0.054525  0.031479      1.000000
  0.051407  0.072700  0.062959      1.000000
  0.102814  0.090875  0.094438      1.000000
  0.154221  0.109050  0.125918      1.000000
 -0.102814  0.018175 -0.031479      1.000000
 -0.051407  0.036350  0.000000      1.000000
  0.000000  0.109050  0.062959      1.000000
  0.051407  0.127225  0.094438      1.000000
  0.102814  0.145400  0.125918      1.000000
  0.154221  0.163575  0.157397      1.000000
 -0.102814  0.072701  0.000000      1.000000
 -0.051407  0.090876  0.031479      1.000000
  0.000000  0.163576  0.094438      1.000000
  0.051407  0.181751  0.125918      1.000000
  0.102814  0.199926  0.157397      1.000000
  0.154221  0.218100  0.188877      1.000000
 -0.102814  0.127226  0.031479      1.000000
 -0.051407  0.145401  0.062959      1.000000
  0.000000 -0.109050 -0.062959      1.000000
  0.051407 -0.090876 -0.031479      1.000000
  0.102814 -0.072701 -0.000000      1.000000
  0.154221 -0.054526  0.031479      1.000000
 -0.102814 -0.145400 -0.125918      1.000000
 -0.051407 -0.127225 -0.094438      1.000000
  0.000000 -0.054525 -0.031479      1.000000
  0.051407 -0.036350 -0.000000      1.000000
  0.102814 -0.018175  0.031479      1.000000
  0.154221 -0.000001  0.062959      1.000000
 -0.102814 -0.090875 -0.094438      1.000000
 -0.051407 -0.072700 -0.062959      1.000000
  0.000000  0.000000  0.062960      1.000000
  0.051407  0.018175  0.094439      1.000000
  0.102814  0.036350  0.125919      1.000000
  0.154221  0.054525  0.157398      1.000000
 -0.102814 -0.036350  0.000001      1.000000
 -0.051407 -0.018175  0.031481      1.000000
  0.000000  0.054525  0.094439      1.000000
  0.051407  0.072700  0.125919      1.000000
  0.102814  0.090875  0.157398      1.000000
  0.154221  0.109050  0.188878      1.000000
 -0.102814  0.018175  0.031481      1.000000
 -0.051407  0.036350  0.062960      1.000000
  0.000000  0.109050  0.125919      1.000000
  0.051407  0.127225  0.157398      1.000000
  0.102814  0.145400  0.188878      1.000000
  0.154221  0.163575  0.220357      1.000000
 -0.102814  0.072701  0.062960      1.000000
 -0.051407  0.090876  0.094439      1.000000
  0.000000  0.163576  0.157398      1.000000
  0.051407  0.181751  0.188878      1.000000
  0.102814  0.199926  0.220357      1.000000
  0.154221  0.218100  0.251837      1.000000
 -0.102814  0.127226  0.094439      1.000000
 -0.051407  0.145401  0.125919      1.000000
[...]
  0.154221  0.218100  0.125917      1.000000
 -0.102814  0.127226 -0.031481      1.000000
 -0.051407  0.145401 -0.000001      1.000000
  0.000000 -0.109050 -0.125919      1.000000
  0.051407 -0.090876 -0.094439      1.000000
  0.102814 -0.072701 -0.062960      1.000000
  0.154221 -0.054526 -0.031481      1.000000
 -0.102814 -0.145400 -0.188878      1.000000
 -0.051407 -0.127225 -0.157398      1.000000
  0.000000 -0.054525 -0.094439      1.000000
  0.051407 -0.036350 -0.062960      1.000000
  0.102814 -0.018175 -0.031481      1.000000
  0.154221 -0.000001 -0.000001      1.000000
 -0.102814 -0.090875 -0.157398      1.000000
 -0.051407 -0.072700 -0.125919      1.000000

 SYSTEM =  Cn_BCC
 POSCAR =  Cn BCC

 Startparameter for this run:
   NWRITE =      2    write-flag & timer
   PREC   = accura    normal or accurate (medium, high low for compatibility)
   ISTART =      1    job   : 0-new  1-cont  2-samecut
   ICHARG =      0    charge: 1-file 2-atom 10-const
   ISPIN  =      1    spin polarized calculation?
   LNONCOLLINEAR =      T non collinear calculations
   LSORBIT =      T    spin-orbit coupling
   INIWAV =      1    electr: 0-lowe 1-rand  2-diag
   LASPH  =      F    aspherical Exc in radial PAW
   METAGGA=      F    non-selfconsistent MetaGGA calc.

 Electronic Relaxation 1
   ENCUT  =  300.0 eV  22.05 Ry    4.70 a.u.   4.58  4.58  4.58*2*pi/ulx,y,z
   ENINI  =  300.0     initial cutoff
   ENAUG  =  361.0 eV  augmentation charge cutoff
   NELM   =     50;   NELMIN=  2; NELMDL= -5     # of ELM steps
   EDIFF  = 0.1E-07   stopping-criterion for ELM
   LREAL  =      F    real-space projection
   NLSPLINE    = F    spline interpolate recip. space projectors
   LCOMPAT=      F    compatible to vasp.4.4
   GGA_COMPAT  = F    GGA compatible to vasp.4.4-vasp.4.6
   LMAXPAW     = -100 max onsite density
   LMAXMIX     =    2 max onsite mixed and CHGCAR
   VOSKOWN=      0    Vosko Wilk Nusair interpolation
   ROPT   =    0.00000
 Ionic relaxation
   EDIFFG = 0.1E-04   stopping-criterion for IOM
   NSW    =      1    number of steps for IOM
   NBLOCK =      1;   KBLOCK =      1    inner block; outer block
   IBRION =     -1    ionic relax: 0-MD 1-quasi-New 2-CG
   NFREE  =      5    steps in history (QN), initial steepest desc. (CG)
   ISIF   =      3    stress and relaxation
   IWAVPR =     10    prediction:  0-non 1-charg 2-wave 3-comb
   ISYM   =      0    0-nonsym 1-usesym 2-fastsym
   LCORR  =      T    Harris-Foulkes like correction to forces

   POTIM  = 0.1000    time-step for ionic-motion
   TEIN   =    0.0    initial temperature
   TEBEG  =    0.0;   TEEND  =   0.0 temperature during run
   SMASS  =  -3.00    Nose mass-parameter (am)
   estimated Nose-frequenzy (Omega)   =  0.10E-29 period in steps =****** mass=  -0.240E-27a.u.
   SCALEE = 1.0000    scale energy and forces
   NPACO  =    256;   APACO  = 16.0  distance and # of slots for P.C.
   PSTRESS=    0.0 pullay stress

  Mass of Ions in am
   POMASS =   0.01
  Ionic Valenz
   ZVAL   =  12.00
  Atomic Wigner-Seitz radii
  virtual crystal weights
   VCA    =   1.00
   NELECT =      12.0000    total number of electrons
   NUPDOWN=      -1.0000    fix difference up-down

 DOS related values:
   EMIN   =  10.00;   EMAX   =-10.00  energy-range for DOS
   EFERMI =   0.00
   ISMEAR =     0;   SIGMA  =   0.00  broadening in eV -4-tet -1-fermi 0-gaus

 Electronic relaxation 2 (details)
   IALGO  =     38    algorithm
   LDIAG  =      T    sub-space diagonalisation (order eigenvalues)
   LSUBROT=      F    optimize rotation matrix (better conditioning)
[...]
 k-point ** :  -0.3333-0.0000 0.5000  plane waves:     614
 k-point ** :  -0.1667 0.0000 0.5000  plane waves:     614
 k-point ** :   0.0000 0.1667 0.5000  plane waves:     614
 k-point ** :   0.1667 0.1667 0.5000  plane waves:     636
 k-point ** :   0.3333 0.1667 0.5000  plane waves:     614
 k-point ** :   0.5000 0.1667 0.5000  plane waves:     624
 k-point ** :  -0.3333 0.1667 0.5000  plane waves:     608
 k-point ** :  -0.1667 0.1667 0.5000  plane waves:     624
 k-point ** :   0.0000 0.3333 0.5000  plane waves:     614
 k-point ** :   0.1667 0.3333 0.5000  plane waves:     614
 k-point ** :   0.3333 0.3333 0.5000  plane waves:     608
 k-point ** :   0.5000 0.3333 0.5000  plane waves:     612
 k-point ** :  -0.3333 0.3333 0.5000  plane waves:     612
 k-point ** :  -0.1667 0.3333 0.5000  plane waves:     608
 k-point ** :   0.0000 0.5000 0.5000  plane waves:     624
 k-point ** :   0.1667 0.5000 0.5000  plane waves:     624
 k-point ** :   0.3333 0.5000 0.5000  plane waves:     612
 k-point ** :   0.5000 0.5000 0.5000  plane waves:     596
 k-point ** :  -0.3333 0.5000 0.5000  plane waves:     612
 k-point ** :  -0.1667 0.5000 0.5000  plane waves:     624
 k-point ** :   0.0000-0.3333 0.5000  plane waves:     614
 k-point ** :   0.1667-0.3333 0.5000  plane waves:     608
 k-point ** :   0.3333-0.3333 0.5000  plane waves:     612
 k-point ** :   0.5000-0.3333 0.5000  plane waves:     612
 k-point ** :  -0.3333-0.3333 0.5000  plane waves:     608
 k-point ** :  -0.1667-0.3333 0.5000  plane waves:     614
 k-point ** :   0.0000-0.1667 0.5000  plane waves:     614
 k-point ** :   0.1667-0.1667 0.5000  plane waves:     624
 k-point ** :   0.3333-0.1667 0.5000  plane waves:     608
 k-point ** :   0.5000-0.1667 0.5000  plane waves:     624
 k-point ** :  -0.3333-0.1667 0.5000  plane waves:     614
 k-point ** :  -0.1667-0.1667 0.5000  plane waves:     636
 k-point ** :   0.0000 0.0000-0.3333  plane waves:     612
 k-point ** :   0.1667 0.0000-0.3333  plane waves:     628
 k-point ** :   0.3333 0.0000-0.3333  plane waves:     612
 k-point ** :   0.5000 0.0000-0.3333  plane waves:     614
 k-point ** :  -0.3333-0.0000-0.3333  plane waves:     618
 k-point ** :  -0.1667 0.0000-0.3333  plane waves:     614
 k-point ** :   0.0000 0.1667-0.3333  plane waves:     628
 k-point ** :   0.1667 0.1667-0.3333  plane waves:     628
 k-point ** :   0.3333 0.1667-0.3333  plane waves:     622
 k-point ** :   0.5000 0.1667-0.3333  plane waves:     608
 k-point ** :  -0.3333 0.1667-0.3333  plane waves:     608
 k-point ** :  -0.1667 0.1667-0.3333  plane waves:     622
 k-point ** :   0.0000 0.3333-0.3333  plane waves:     612
 k-point ** :   0.1667 0.3333-0.3333  plane waves:     622
 k-point ** :   0.3333 0.3333-0.3333  plane waves:     642
[...]
 k-point ** :   0.5000 0.5000-0.1667  plane waves:     624
 k-point ** :  -0.3333 0.5000-0.1667  plane waves:     614
 k-point ** :  -0.1667 0.5000-0.1667  plane waves:     636
 k-point ** :   0.0000-0.3333-0.1667  plane waves:     614
 k-point ** :   0.1667-0.3333-0.1667  plane waves:     622
 k-point ** :   0.3333-0.3333-0.1667  plane waves:     622
 k-point ** :   0.5000-0.3333-0.1667  plane waves:     614
 k-point ** :  -0.3333-0.3333-0.1667  plane waves:     632
 k-point ** :  -0.1667-0.3333-0.1667  plane waves:     632
 k-point ** :   0.0000-0.1667-0.1667  plane waves:     628
 k-point ** :   0.1667-0.1667-0.1667  plane waves:     618
 k-point ** :   0.3333-0.1667-0.1667  plane waves:     628
 k-point ** :   0.5000-0.1667-0.1667  plane waves:     636
 k-point ** :  -0.3333-0.1667-0.1667  plane waves:     632
 k-point ** :  -0.1667-0.1667-0.1667  plane waves:     636

 maximum and minimum number of plane-waves per node :       178      130

 maximum number of plane-waves:       642
 maximum index in each direction:
   IXMAX=    4   IYMAX=    4   IZMAX=    4
   IXMIN=   -5   IYMIN=   -5   IZMIN=   -5

 parallel 3D FFT for wavefunctions:
    minimum data exchange during FFTs selected (reduces bandwidth)
 parallel 3D FFT for charge:
    minimum data exchange during FFTs selected (reduces bandwidth)

 Broyden mixing: mesh for mixing (old mesh)
   NGX =  9   NGY =  9   NGZ =  9
  (NGX  = 36   NGY  = 36   NGZ  = 36)
  gives a total of    729 points

 charge density for first step will be calculated from the start-wavefunctions

 Maximum index for augmentation-charges        25947 (set IRDMAX)

 initial charge from wavefunction
 First call to EWALD:  gamma=   0.597
 Maximum number of real-space cells 3x 3x 3
 Maximum number of reciprocal cells 3x 3x 3

--------------------------------------- Iteration      1(   1)  ---------------------------------------

 eigenvalue-minimisations  : 31768
 total energy-change (2. order) :-0.1006565E+01  (-0.2281707E-01)
 number of electron      12.0000000 magnetization       0.0000000     -0.0000000      0.0000000
 augmentation part        1.6031054 magnetization      -0.0000000      0.0000000     -0.0000000

 Free energy of the ion-electron system (eV)
  alpha Z        PSCENC =        85.78503292
  Ewald energy   TEWEN  =     -1007.86219743
  -Hartree energ DENC   =      -127.83406599
  -exchange      EXHF   =         0.00000000
  -V(xc)+E(xc)   XCENC  =      -109.46974088
  PAW double counting   =      1070.82197927     -933.70797475
  entropy T*S    EENTRO =         0.00000000
  eigenvalues    EBANDS =        -0.44552874
  atomic energy  EATOM  =      1021.70593014
  Solvation  Ediel_sol  =         0.00000000
  free energy    TOTEN  =        -1.00656545 eV

  energy without entropy =       -1.00656545  energy(sigma->0) =       -1.00656545

[...]

 Broyden mixing:
  rms(total) = 0.36913E-01    rms(broyden)= 0.36904E-01
  rms(prec ) = 0.14597E+00
  weight for this iteration     100.00

[...]

 eigenvalue-minimisations  : 33144
 total energy-change (2. order) : 0.4962048E-02  (-0.3164171E-03)
 number of electron      12.0000000 magnetization       0.0000000     -0.0000000      0.0000000
 augmentation part        1.6137302 magnetization       0.0000000     -0.0000000      0.0000000

[...]

 eigenvalues of (default mixing * dielectric matrix)
  average eigenvalue GAMMA=   1.3313
  1.3313

[...]

 eigenvalue-minimisations  : 34648
 total energy-change (2. order) :-0.6301050E-06  (-0.5014284E-08)
 number of electron      12.0000000 magnetization       0.0000000     -0.0000000      0.0000000
 augmentation part        1.6085202 magnetization       0.0000000     -0.0000000      0.0000000

[...]

 Broyden mixing:
  rms(total) = 0.82838E-06    rms(broyden)= 0.82548E-06
  rms(prec ) = 0.15668E-05
  weight for this iteration     100.00

 eigenvalues of (default mixing * dielectric matrix)
  average eigenvalue GAMMA=   1.5587
  2.8666  2.6352  2.5744  1.3739  0.9718  0.7837  0.6249  0.6386

[...]

--------------------------------------- Iteration      1(  14)  ---------------------------------------

 eigenvalue-minimisations  : 17440
 total energy-change (2. order) : 0.2282832E-08  (-0.1111726E-10)
 number of electron      12.0000000 magnetization       0.0000000     -0.0000000      0.0000000
 augmentation part        1.6085145 magnetization       0.0000000     -0.0000000     -0.0000000

 Free energy of the ion-electron system (eV)
  alpha Z        PSCENC =        85.78503292
  Ewald energy   TEWEN  =     -1007.86219743
  -Hartree energ DENC   =      -129.11791588
  -exchange      EXHF   =         0.00000000
  -V(xc)+E(xc)   XCENC  =      -109.44526428
  PAW double counting   =      1065.86657888     -928.73090957
  entropy T*S    EENTRO =        -0.00000000
  eigenvalues    EBANDS =         0.79661865
  atomic energy  EATOM  =      1021.70593014
  Solvation  Ediel_sol  =         0.00000000
  free energy    TOTEN  =        -1.00212656 eV

  energy without entropy =       -1.00212656  energy(sigma->0) =       -1.00212656

 average (electrostatic) potential at core
  the test charge radii are     1.2024
  (the norm of the test charge is              1.0000)
       1 -63.7699

 E-fermi :   3.5222     XC(G=0): -11.2900     alpha+bet : -8.8692

 k-point     1 :       0.0000    0.0000    0.0000
  band No.  band energies     occupation
      1      -5.5045      1.00000
      2      -5.5045      1.00000
      3      -1.7898      1.00000
      4      -1.7898      1.00000
      5      -1.7897      1.00000
      6      -1.7897      1.00000
      7       0.8821      1.00000
      8       0.8821      1.00000
      9       1.8004      1.00000
     10       1.8004      1.00000
     11       1.8004      1.00000
     12       1.8004      1.00000
     13      13.9297      0.00000
     14      13.9297      0.00000
     15      18.5707      0.00000
     16      18.5707      0.00000
     17      18.5707      0.00000
     18      18.5707      0.00000
     19      18.5709      0.00000
     20      18.5709      0.00000
     21      23.2673      0.00000
     22      23.2673      0.00000
     23      23.5885      0.00000
     24      23.5885      0.00000
     25      23.5887      0.00000
     26      23.5887      0.00000
     27      24.7410      0.00000
     28      24.7410      0.00000
     29      24.7411      0.00000
     30      24.7411      0.00000
     31      28.4213      0.00000
     32      28.4213      0.00000
     33      28.4213      0.00000
     34      28.4213      0.00000
     35      29.7301      0.00000
     36      29.7301      0.00000
     37      35.1631      0.00000
     38      35.1631      0.00000
     39      37.2697      0.00000
     40      37.2697      0.00000
     41      37.2699      0.00000
     42      37.2699      0.00000
     43      42.3940      0.00000
     44      42.3940      0.00000
     45      43.7403      0.00000
     46      43.7403      0.00000
     47      48.6710      0.00000
     48      48.6710      0.00000
     49      48.6710      0.00000
     50      48.6710      0.00000
     51      52.5082      0.00000
     52      52.5082      0.00000
     53      52.5082      0.00000
     54      52.5082      0.00000
     55      52.5084      0.00000
     56      52.5084      0.00000
     57      54.7732      0.00000
     58      54.7732      0.00000
     59      55.7101      0.00000
     60      55.7101      0.00000
     61      55.7104      0.00000
     62      55.7104      0.00000
     63      57.6013      0.00000
     64      57.6013      0.00000

[...]

 k-point   216 :      -0.1667   -0.1667   -0.1667
  band No.  band energies     occupation
      1      -2.3430      1.00000
      2      -2.3430      1.00000
      3      -1.8155      1.00000
      4      -1.8155      1.00000
      5      -1.2814      1.00000
      6      -1.2814      1.00000
      7       1.4015      1.00000
      8       1.4015      1.00000
      9       1.5110      1.00000
     10       1.5110      1.00000
     11       2.9643      1.00000
     12       2.9643      1.00000
     13       6.7289      0.00000
     14       6.7289      0.00000
     15      11.7930      0.00000
     16      11.7930      0.00000
     17      13.6731      0.00000
     18      13.6731      0.00000
     19      22.0207      0.00000
     20      22.0207      0.00000
     21      23.2983      0.00000
     22      23.2983      0.00000
     23      24.7302      0.00000
     24      24.7302      0.00000
     25      25.4803      0.00000
     26      25.4803      0.00000
     27      27.0091      0.00000
     28      27.0091      0.00000
     29      28.9628      0.00000
     30      28.9628      0.00000
     31      30.7618      0.00000
     32      30.7618      0.00000
     33      32.4904      0.00000
     34      32.4904      0.00000
     35      32.5342      0.00000
     36      32.5342      0.00000
     37      35.5175      0.00000
     38      35.5175      0.00000
     39      37.8425      0.00000
     40      37.8425      0.00000
     41      39.8464      0.00000
     42      39.8464      0.00000
     43      39.9899      0.00000
     44      39.9899      0.00000
     45      40.2423      0.00000
     46      40.2423      0.00000
     47      44.8037      0.00000
     48      44.8037      0.00000
     49      47.6978      0.00000
     50      47.6978      0.00000
     51      48.9762      0.00000
     52      48.9762      0.00000
     53      48.9874      0.00000
     54      48.9874      0.00000
     55      49.8863      0.00000
     56      49.8863      0.00000
     57      50.4159      0.00000
     58      50.4159      0.00000
     59      50.4363      0.00000
     60      50.4363      0.00000
     61      56.6351      0.00000
     62      56.6351      0.00000
     63      57.8917      0.00000
     64      57.8917      0.00000

 soft charge-density along one line, spin component           1
         0         1         2         3         4         5         6         7         8         9
 total charge-density along one line

[...]

 soft charge-density along one line, spin component           4
         0         1         2         3         4         5         6         7         8         9
 total charge-density along one line

------------------------ aborting loop because EDIFF is reached ----------------------------------------

  FORCE on cell =-STRESS in cart. coord.  units (eV):
  Direction    XX          YY          ZZ          XY          YZ          ZX
  Alpha Z    85.78503    85.78503    85.78503
  Ewald    -335.95294  -335.95350  -335.95573    -0.00079    -0.00193    -0.00137
  Hartree    43.03978    43.03954    43.03858    -0.00034    -0.00083    -0.00059
  E(xc)     -72.08989   -72.08989   -72.08990    -0.00000    -0.00001    -0.00001
  Local      45.47479    45.47557    45.47870     0.00111     0.00271     0.00192
  n-local   -47.31857   -47.31858   -47.31862    -0.00001    -0.00003    -0.00002
  augment    20.62990    20.62990    20.62991     0.00000     0.00001     0.00001
  Kinetic   261.50946   261.50947   261.50951     0.00002     0.00004     0.00003
  Fock        0.00000     0.00000     0.00000     0.00000     0.00000     0.00000
  Total       1.07756     1.07755     1.07749    -0.00002    -0.00005    -0.00003
  in kB      65.80965    65.80881    65.80545    -0.00118    -0.00289    -0.00204

 VOLUME and BASIS-vectors are now :
  energy-cutoff  :      300.00
  volume of cell :       26.23
      direct lattice vectors                 reciprocal lattice vectors
     3.242102804  0.000000000  0.000000000     0.308441792  0.109049309  0.188876893
    -1.080689200  3.056687986  0.000000000     0.000000000  0.327151481  0.188876893
    -1.080689200 -1.528319100  2.647183819     0.000000000  0.000000000  0.377759940

  length of vectors
     3.242102804  3.242102804  3.242102804     0.377759940  0.377759940  0.377759940

 FORCES acting on ions
    electron-ion (+dipol)            ewald-force                    non-local-force                 convergence-correction
   0.939E-08 0.464E-08 0.193E-09   -.136E-14 -.342E-15 -.120E-14   -.331E-07 -.474E-07 -.161E-07   -.616E-08 0.258E-11 0.558E-09
   0.939E-08 0.464E-08 0.193E-09   -.136E-14 -.342E-15 -.120E-14   -.331E-07 -.474E-07 -.161E-07   -.616E-08 0.258E-11 0.558E-09

 POSITION                                       TOTAL-FORCE (eV/Angst)
      0.00000      0.00000      0.00000        -0.000000     -0.000000     -0.000000
    total drift:                               -0.000000     -0.000000     -0.000000

  FREE ENERGIE OF THE ION-ELECTRON SYSTEM (eV)
  free  energy   TOTEN  =        -1.00212656 eV

  energy  without entropy=       -1.00212656  energy(sigma->0) =       -1.00212656

 writing wavefunctions

 Spin-Orbit-Coupling matrix elements

 Ion:    1  E_soc:     -2.7373698
 l=   1
     0.0000000    -0.1310062    -0.1310072
    -0.1310062     0.0000000    -0.1310064
    -0.1310072    -0.1310064     0.0000000
 l=   2
     0.0000000    -0.0642159     0.0000000    -0.0628354    -0.2610061
    -0.0642159     0.0000000    -0.1967895    -0.0642159    -0.0655966
     0.0000000    -0.1967895     0.0000000    -0.1947189     0.0000000
    -0.0628354    -0.0642159    -0.1947189     0.0000000    -0.0662868
    -0.2610061    -0.0655966     0.0000000    -0.0662868     0.0000000
 l=   3
     0.0000000     0.0000000     0.0000000     0.0000000     0.0000000     0.0000000     0.0000000
     0.0000000     0.0000000     0.0000000     0.0000000     0.0000000     0.0000000     0.0000000
     0.0000000     0.0000000     0.0000000     0.0000000     0.0000000     0.0000000     0.0000000
     0.0000000     0.0000000     0.0000000     0.0000000     0.0000000     0.0000000     0.0000000
     0.0000000     0.0000000     0.0000000     0.0000000     0.0000000     0.0000000     0.0000000
     0.0000000     0.0000000     0.0000000     0.0000000     0.0000000     0.0000000     0.0000000
     0.0000000     0.0000000     0.0000000     0.0000000     0.0000000     0.0000000     0.0000000