 vasp.5.4.4.18Apr17-6-g9f103f2a35 (build Nov 03 2018 10:20:46) complex

 executed on             LinuxIFC date 2018.12.03  16:34:17

 INCAR:
 POTCAR:    PAW Og, JanMewes Oct 18

 POTCAR:    PAW Og, JanMewes Oct 18
   VRHFIN =Og : 10d 2s 6p, PE

   TITEL  = PAW Og, JanMewes Oct 18
   POMASS =    0.010; ZVAL   =   18.000    mass and valenz
   ENMAX  =  339.336; ENMIN  =  254.502 eV
   QCUT   =   -4.994; QGAM   =    9.988    optimization parameters

  PAW Og, JanMewes Oct 18               :

 POSCAR: Og_FCC
  positions in direct lattice
  velocities in cartesian coordinates
 exchange correlation table for  LEXCH =        8
   RHO(1)=    0.500       N(1)  =     2000
   RHO(2)=  100.500       N(2)  =     4000

 ion  position               nearest neighbor table
   1  0.000  0.000  0.000-

  LATTYP: Found a face centered cubic cell.
 ALAT       =     6.4582254590

  Lattice vectors:

 A1 = (   4.5666550164,   0.0000000000,   0.0000000000)
 A2 = (   2.2833275082,   3.9548392545,  -0.0000000000)
 A3 = (   2.2833275082,   1.3182797515,   3.7286582073)

Analysis of symmetry for initial positions (statically):
 Subroutine PRICEL returns:
 Original cell was already a primitive cell.

 Routine SETGRP: Setting up the symmetry group for a
 face centered cubic supercell.

 Subroutine GETGRP returns: Found 48 space group operations
 (whereof 48 operations were pure point group operations)
 out of a pool of 48 trial point group operations.

The static configuration has the point symmetry O_h .

Analysis of symmetry for dynamics (positions and initial velocities):
 Subroutine PRICEL returns:
 Original cell was already a primitive cell.

[...]

The dynamic configuration has the point symmetry O_h .

Analysis of structural, dynamic, and magnetic symmetry:
 Subroutine PRICEL returns:
 Original cell was already a primitive cell.

 Routine SETGRP: Setting up the symmetry group for a
 face centered cubic supercell.

 Subroutine GETGRP returns: Found  2 space group operations
 (whereof  2 operations were pure point group operations)
 out of a pool of 48 trial point group operations.

The (compounded) configuration has the point symmetry S_2 .

 Subroutine INISYM returns: Found  2 space group operations
 (whereof  2 operations are pure point group operations),
 and found     1 'primitive' translations

Automatic generation of k-mesh.
 generate k-points for:    9    9    9
Space group operators:
 irot       det(A)        alpha          n_x          n_y          n_z        tau_x        tau_y        tau_z
    1     1.000000     0.000001     1.000000     0.000000     0.000000     0.000000     0.000000     0.000000
    2    -1.000000     0.000001     1.000000     0.000000     0.000000     0.000000     0.000000     0.000000

 Subroutine IBZKPT returns following result:

 Found    365 irreducible k-points:

 Following reciprocal coordinates:
            Coordinates               Weight
  0.000000  0.000000  0.000000      1.000000
  0.111111 -0.000000  0.000000      2.000000
  0.222222 -0.000000  0.000000      2.000000
  0.333333 -0.000000  0.000000      2.000000
  0.444444 -0.000000  0.000000      2.000000
 -0.000000  0.111111 -0.000000      2.000000
  0.111111  0.111111  0.000000      2.000000
  0.222222  0.111111  0.000000      2.000000
  0.333333  0.111111  0.000000      2.000000
  0.444444  0.111111  0.000000      2.000000
 -0.444444  0.111111  0.000000      2.000000
 -0.333333  0.111111 -0.000000      2.000000
 -0.222222  0.111111 -0.000000      2.000000
 -0.111111  0.111111 -0.000000      2.000000
 -0.000000  0.222222  0.000000      2.000000
  0.111111  0.222222  0.000000      2.000000
  0.222222  0.222222  0.000000      2.000000
  0.333333  0.222222 -0.000000      2.000000
  0.444444  0.222222  0.000000      2.000000
 -0.444444  0.222222  0.000000      2.000000
 -0.333333  0.222222  0.000000      2.000000
 -0.222222  0.222222  0.000000      2.000000
 -0.111111  0.222222 -0.000000      2.000000
 -0.000000  0.333333  0.000000      2.000000
  0.111111  0.333333  0.000000      2.000000
  0.222222  0.333333  0.000000      2.000000
  0.333333  0.333333  0.000000      2.000000
  0.444444  0.333333  0.000000      2.000000
 -0.444444  0.333333 -0.000000      2.000000
 -0.333333  0.333333  0.000000      2.000000
 -0.222222  0.333333  0.000000      2.000000
 -0.111111  0.333333  0.000000      2.000000
 -0.000000  0.444444  0.000000      2.000000
  0.111111  0.444444  0.000000      2.000000
  0.222222  0.444444  0.000000      2.000000
  0.333333  0.444444  0.000000      2.000000
  0.444444  0.444444  0.000000      2.000000
 -0.444444  0.444444  0.000000      2.000000
 -0.333333  0.444444  0.000000      2.000000
 -0.222222  0.444444  0.000000      2.000000
 -0.111111  0.444444  0.000000      2.000000
  0.000000  0.000000  0.111111      2.000000
  0.111111 -0.000000  0.111111      2.000000
  0.222222 -0.000000  0.111111      2.000000
  0.333333 -0.000000  0.111111      2.000000
  0.444444 -0.000000  0.111111      2.000000
 -0.444444  0.000000  0.111111      2.000000
 -0.333333  0.000000  0.111111      2.000000
 -0.222222  0.000000  0.111111      2.000000
 -0.111111  0.000000  0.111111      2.000000
  0.000000  0.111111  0.111111      2.000000
  0.111111  0.111111  0.111111      2.000000
  0.222222  0.111111  0.111111      2.000000
  0.333333  0.111111  0.111111      2.000000
  0.444444  0.111111  0.111111      2.000000
 -0.444444  0.111111  0.111111      2.000000
 -0.333333  0.111111  0.111111      2.000000
 -0.222222  0.111111  0.111111      2.000000
 -0.111111  0.111111  0.111111      2.000000
 -0.000000  0.222222  0.111111      2.000000
[...]
  0.333333 -0.222222  0.444444      2.000000
  0.444444 -0.222222  0.444444      2.000000
 -0.444444 -0.222222  0.444444      2.000000
 -0.333333 -0.222222  0.444444      2.000000
 -0.222222 -0.222222  0.444444      2.000000
 -0.111111 -0.222222  0.444444      2.000000
  0.000000 -0.111111  0.444444      2.000000
  0.111111 -0.111111  0.444444      2.000000
  0.222222 -0.111111  0.444444      2.000000
  0.333333 -0.111111  0.444444      2.000000
  0.444444 -0.111111  0.444444      2.000000
 -0.444444 -0.111111  0.444444      2.000000
 -0.333333 -0.111111  0.444444      2.000000
 -0.222222 -0.111111  0.444444      2.000000
 -0.111111 -0.111111  0.444444      2.000000

 Following cartesian coordinates:
            Coordinates               Weight
  0.000000  0.000000  0.000000      1.000000
  0.024331 -0.014047 -0.009933      2.000000
  0.048662 -0.028095 -0.019866      2.000000
  0.072993 -0.042142 -0.029799      2.000000
  0.097324 -0.056190 -0.039732      2.000000
  0.000000  0.028095 -0.009933      2.000000
  0.024331  0.014047 -0.019866      2.000000
  0.048662 -0.000000 -0.029799      2.000000
  0.072993 -0.014047 -0.039732      2.000000
  0.097324 -0.028095 -0.049665      2.000000
 -0.097324  0.084285  0.029799      2.000000
 -0.072993  0.070237  0.019866      2.000000
 -0.048662  0.056190  0.009933      2.000000
 -0.024331  0.042142  0.000000      2.000000
  0.000000  0.056190 -0.019866      2.000000
  0.024331  0.042142 -0.029799      2.000000
  0.048662  0.028095 -0.039732      2.000000
  0.072993  0.014047 -0.049665      2.000000
  0.097324  0.000000 -0.059598      2.000000
 -0.097324  0.112380  0.019866      2.000000
 -0.072993  0.098332  0.009933      2.000000
 -0.048662  0.084285  0.000000      2.000000
 -0.024331  0.070237 -0.009933      2.000000
  0.000000  0.084285 -0.029799      2.000000
  0.024331  0.070237 -0.039732      2.000000
  0.048662  0.056190 -0.049665      2.000000
  0.072993  0.042142 -0.059598      2.000000
  0.097324  0.028095 -0.069532      2.000000
 -0.097324  0.140475  0.009933      2.000000
 -0.072993  0.126427  0.000000      2.000000
 -0.048662  0.112380 -0.009933      2.000000
 -0.024331  0.098332 -0.019866      2.000000
  0.000000  0.112380 -0.039732      2.000000
  0.024331  0.098332 -0.049665      2.000000
  0.048662  0.084285 -0.059598      2.000000
  0.072993  0.070237 -0.069532      2.000000
  0.097324  0.056190 -0.079465      2.000000
 -0.097324  0.168570  0.000000      2.000000
 -0.072993  0.154522 -0.009933      2.000000
 -0.048662  0.140475 -0.019866      2.000000
 -0.024331  0.126427 -0.029799      2.000000
 -0.000000  0.000000  0.029799      2.000000
  0.024331 -0.014047  0.019866      2.000000
  0.048662 -0.028095  0.009933      2.000000
  0.072993 -0.042142 -0.000000      2.000000
  0.097324 -0.056190 -0.009933      2.000000
 -0.097324  0.056190  0.069532      2.000000
 -0.072993  0.042142  0.059598      2.000000
 -0.048662  0.028095  0.049665      2.000000
 -0.024331  0.014047  0.039732      2.000000
 -0.000000  0.028095  0.019866      2.000000
  0.024331  0.014047  0.009933      2.000000
  0.048662 -0.000000 -0.000000      2.000000
  0.072993 -0.014047 -0.009933      2.000000
  0.097324 -0.028095 -0.019866      2.000000
 -0.097324  0.084285  0.059598      2.000000
 -0.072993  0.070237  0.049665      2.000000
 -0.048662  0.056190  0.039732      2.000000
 -0.024331  0.042142  0.029799      2.000000
 -0.000000  0.056190  0.009933      2.000000
[...]
  0.072993 -0.098332  0.109264      2.000000
  0.097324 -0.112380  0.099331      2.000000
 -0.097324  0.000000  0.178795      2.000000
 -0.072993 -0.014047  0.168862      2.000000
 -0.048662 -0.028095  0.158929      2.000000
 -0.024331 -0.042142  0.148996      2.000000
 -0.000000 -0.028095  0.129130      2.000000
  0.024331 -0.042142  0.119197      2.000000
  0.048662 -0.056190  0.109264      2.000000
  0.072993 -0.070237  0.099331      2.000000
  0.097324 -0.084285  0.089398      2.000000
 -0.097324  0.028095  0.168862      2.000000
 -0.072993  0.014047  0.158929      2.000000
 -0.048662 -0.000000  0.148996      2.000000
 -0.024331 -0.014047  0.139063      2.000000

 SYSTEM =  Og_FCC
 POSCAR =  Og_FCC

 Startparameter for this run:
   NWRITE =      2    write-flag & timer
   PREC   = accura    normal or accurate (medium, high low for compatibility)
   ISTART =      0    job   : 0-new  1-cont  2-samecut
   ICHARG =      2    charge: 1-file 2-atom 10-const
   ISPIN  =      1    spin polarized calculation?
   LNONCOLLINEAR =      T non collinear calculations
   LSORBIT =      T    spin-orbit coupling
   INIWAV =      1    electr: 0-lowe 1-rand  2-diag
   LASPH  =      F    aspherical Exc in radial PAW
   METAGGA=      F    non-selfconsistent MetaGGA calc.

 Electronic Relaxation 1
   ENCUT  =  600.0 eV  44.10 Ry    6.64 a.u.   9.12  9.12  9.12*2*pi/ulx,y,z
   ENINI  =  600.0     initial cutoff
   ENAUG  =  361.0 eV  augmentation charge cutoff
   NELM   =    100;   NELMIN=  5; NELMDL= -5     # of ELM steps
   EDIFF  = 0.1E-06   stopping-criterion for ELM
   LREAL  =      F    real-space projection
   NLSPLINE    = F    spline interpolate recip. space projectors
   LCOMPAT=      F    compatible to vasp.4.4
   GGA_COMPAT  = F    GGA compatible to vasp.4.4-vasp.4.6
   LMAXPAW     = -100 max onsite density
   LMAXMIX     =    2 max onsite mixed and CHGCAR
   VOSKOWN=      0    Vosko Wilk Nusair interpolation
   ROPT   =    0.00000
 Ionic relaxation
   EDIFFG = 0.1E-04   stopping-criterion for IOM
   NSW    =    999    number of steps for IOM
[...]
 k-point ** :  -0.2222 0.0000 0.2222  plane waves:    4502
 k-point ** :  -0.1111 0.0000 0.2222  plane waves:    4470
 k-point ** :   0.0000 0.1111 0.2222  plane waves:    4470
 k-point ** :   0.1111 0.1111 0.2222  plane waves:    4462
 k-point ** :   0.2222 0.1111 0.2222  plane waves:    4470
 k-point ** :   0.3333 0.1111 0.2222  plane waves:    4492
 k-point ** :   0.4444 0.1111 0.2222  plane waves:    4480
 k-point ** :  -0.4444 0.1111 0.2222  plane waves:    4512
 k-point ** :  -0.3333 0.1111 0.2222  plane waves:    4512
 k-point ** :  -0.2222 0.1111 0.2222  plane waves:    4480
 k-point ** :  -0.1111 0.1111 0.2222  plane waves:    4492
 k-point ** :   0.0000 0.2222 0.2222  plane waves:    4474
 k-point ** :   0.1111 0.2222 0.2222  plane waves:    4470
 k-point ** :   0.2222 0.2222 0.2222  plane waves:    4470
 k-point ** :   0.3333 0.2222 0.2222  plane waves:    4470
 k-point ** :   0.4444 0.2222 0.2222  plane waves:    4502
 k-point ** :  -0.4444 0.2222 0.2222  plane waves:    4504
 k-point ** :  -0.3333 0.2222 0.2222  plane waves:    4518
 k-point ** :  -0.2222 0.2222 0.2222  plane waves:    4488
 k-point ** :  -0.1111 0.2222 0.2222  plane waves:    4502
 k-point ** :   0.0000 0.3333 0.2222  plane waves:    4502
 k-point ** :   0.1111 0.3333 0.2222  plane waves:    4492
 k-point ** :   0.2222 0.3333 0.2222  plane waves:    4470
 k-point ** :   0.3333 0.3333 0.2222  plane waves:    4494
 k-point ** :   0.4444 0.3333 0.2222  plane waves:    4480
 k-point ** :  -0.4444 0.3333 0.2222  plane waves:    4494
 k-point ** :  -0.3333 0.3333 0.2222  plane waves:    4506
 k-point ** :  -0.2222 0.3333 0.2222  plane waves:    4498
 k-point ** :  -0.1111 0.3333 0.2222  plane waves:    4498
 k-point ** :   0.0000 0.4444 0.2222  plane waves:    4488
[...]
 k-point ** :   0.3333-0.2222 0.4444  plane waves:    4496
 k-point ** :   0.4444-0.2222 0.4444  plane waves:    4518
 k-point ** :  -0.4444-0.2222 0.4444  plane waves:    4498
 k-point ** :  -0.3333-0.2222 0.4444  plane waves:    4494
 k-point ** :  -0.2222-0.2222 0.4444  plane waves:    4504
 k-point ** :  -0.1111-0.2222 0.4444  plane waves:    4512
 k-point ** :   0.0000-0.1111 0.4444  plane waves:    4512
 k-point ** :   0.1111-0.1111 0.4444  plane waves:    4512
 k-point ** :   0.2222-0.1111 0.4444  plane waves:    4498
 k-point ** :   0.3333-0.1111 0.4444  plane waves:    4494
 k-point ** :   0.4444-0.1111 0.4444  plane waves:    4512
 k-point ** :  -0.4444-0.1111 0.4444  plane waves:    4494
 k-point ** :  -0.3333-0.1111 0.4444  plane waves:    4498
 k-point ** :  -0.2222-0.1111 0.4444  plane waves:    4512
 k-point ** :  -0.1111-0.1111 0.4444  plane waves:    4512

 maximum and minimum number of plane-waves per node :      1172     1082

 maximum number of plane-waves:      4518
 maximum index in each direction:
   IXMAX=    9   IYMAX=    9   IZMAX=    9
   IXMIN=   -9   IYMIN=   -9   IZMIN=   -9

 parallel 3D FFT for wavefunctions:
    minimum data exchange during FFTs selected (reduces bandwidth)
 parallel 3D FFT for charge:
    minimum data exchange during FFTs selected (reduces bandwidth)

 Broyden mixing: mesh for mixing (old mesh)
   NGX = 19   NGY = 19   NGZ = 19
  (NGX  = 72   NGY  = 72   NGZ  = 72)
  gives a total of   6859 points

 initial charge density was supplied:
 charge density of overlapping atoms calculated
 number of electron      18.0000000 magnetization       1.0000000      1.0000000      1.0000000
 keeping initial charge density in first step

 Maximum index for augmentation-charges        40359 (set IRDMAX)

 First call to EWALD:  gamma=   0.436
 Maximum number of real-space cells 3x 3x 3
 Maximum number of reciprocal cells 3x 3x 3

--------------------------------------- Iteration      1(   1)  ---------------------------------------

 eigenvalue-minimisations  : 20816
 total energy-change (2. order) : 0.3138856E+03  (-0.9212453E+03)
 number of electron      18.0000000 magnetization       1.0000000      1.0000000      1.0000000
 augmentation part       18.0000000 magnetization       1.0000000      1.0000000      1.0000000

 Free energy of the ion-electron system (eV)
  alpha Z        PSCENC =        56.65576874
  Ewald energy   TEWEN  =     -1656.09086145
  -Hartree energ DENC   =      -717.21189343
  -exchange      EXHF   =         0.00000000
  -V(xc)+E(xc)   XCENC  =       -69.30279552
  PAW double counting   =      2268.28454800    -2184.08492831
  entropy T*S    EENTRO =        -0.00003061
  eigenvalues    EBANDS =       -24.89295167
  atomic energy  EATOM  =      2640.52872706
  Solvation  Ediel_sol  =         0.00000000
  free energy    TOTEN  =       313.88558281 eV

  energy without entropy =      313.88561342  energy(sigma->0) =      313.88559301

[...]

 eigenvalue-minimisations  : 27412
 total energy-change (2. order) :-0.3100709E+03  (-0.3001652E+03)
 number of electron      18.0000000 magnetization       1.0000000      1.0000000      1.0000000
 augmentation part       18.0000000 magnetization       1.0000000      1.0000000      1.0000000

[...]

 Broyden mixing:
  rms(total) = 0.63112E+00    rms(broyden)= 0.63110E+00
  rms(prec ) = 0.85083E+00
  weight for this iteration     100.00

[...]

 eigenvalues of (default mixing * dielectric matrix)
  average eigenvalue GAMMA=   0.7730
  0.7730

[...]

 average (electrostatic) potential at core
  the test charge radii are     1.2024
  (the norm of the test charge is              1.0000)
       1-111.0649

 E-fermi :   2.4670     XC(G=0):  -7.5495     alpha+bet : -6.5164

 k-point     1 :       0.0000    0.0000    0.0000
  band No.  band energies     occupation
      1     -31.5642      1.00000
      2     -31.5642      1.00000
      3     -31.5642      1.00000
      4     -31.5642      1.00000
      5     -24.8721      1.00000
      6     -24.8721      1.00000
      7     -24.8702      1.00000
      8     -24.8702      1.00000
      9     -24.8702      1.00000
     10     -24.8702      1.00000
     11     -21.2368      1.00000
     12     -21.2368      1.00000
     13      -8.0801      1.00000
     14      -8.0801      1.00000
     15       2.4178      0.86568
     16       2.4178      0.86568
     17       2.4178      0.86568
     18       2.4178      0.86568
     19       2.7302     -0.00063
     20       2.7302     -0.00063
     21       9.4795      0.00000
     22       9.4795      0.00000
     23       9.4795      0.00000
     24       9.4795      0.00000
     25       9.8451      0.00000
     26       9.8451      0.00000
     27      10.0565      0.00000
     28      10.0565      0.00000

[...]

 soft charge-density along one line, spin component           1
         0         1         2         3         4         5         6         7         8         9
 total charge-density along one line

[...]

------------------------ aborting loop because EDIFF is reached ----------------------------------------

  FORCE on cell =-STRESS in cart. coord.  units (eV):
  Direction    XX          YY          ZZ          XY          YZ          ZX
  Alpha Z    56.65577    56.65577    56.65577
  Ewald    -552.03031  -552.03031  -552.03031     0.00000    -0.00000    -0.00000
  Hartree   243.25127   243.25127   243.25127     0.00000     0.00000     0.00000
  E(xc)    -111.68412  -111.68412  -111.68412    -0.00000    -0.00000    -0.00000
  Local    -205.01722  -205.01723  -205.01723     0.00001     0.00000     0.00000
  n-local    97.81956    97.81957    97.81955     0.00001     0.00001     0.00000
  augment    74.03877    74.03878    74.03878    -0.00001    -0.00000    -0.00000
  Kinetic   396.97745   396.97744   396.97746    -0.00001    -0.00001    -0.00000
  Fock        0.00000     0.00000     0.00000     0.00000     0.00000     0.00000
  Total       0.01117     0.01117     0.01116     0.00000     0.00000     0.00000
  in kB       0.26567     0.26564     0.26562     0.00001     0.00002     0.00000

 VOLUME and BASIS-vectors are now :
  energy-cutoff  :      600.00
  volume of cell :       67.34
      direct lattice vectors                 reciprocal lattice vectors
     4.566655016  0.000000000  0.000000000     0.218978661 -0.126427389 -0.089397664
     2.283327508  3.954839254 -0.000000000     0.000000000  0.252854778 -0.089397664
     2.283327508  1.318279751  3.728658207    -0.000000000  0.000000000  0.268192992

[...]

 FORCES acting on ions
    electron-ion (+dipol)            ewald-force                    non-local-force                 convergence-correction
   0.177E-13 0.383E-13 -.655E-14   0.139E-14 0.300E-16 -.142E-14   -.106E-21 0.529E-22 0.212E-21   -.125E-12 -.155E-15 -.672E-13
   0.177E-13 0.383E-13 -.655E-14   0.139E-14 0.300E-16 -.142E-14   -.106E-21 0.529E-22 0.212E-21   -.125E-12 -.155E-15 -.672E-13

 POSITION                                       TOTAL-FORCE (eV/Angst)
      0.00000      0.00000      0.00000        -0.000000      0.000000      0.000000
    total drift:                               -0.000000      0.000000     -0.000000

  FREE ENERGIE OF THE ION-ELECTRON SYSTEM (eV)
  free  energy   TOTEN  =       -13.31669987 eV

  energy  without entropy=      -13.31681955  energy(sigma->0) =      -13.31673977

 Quasi-Newton relaxation of ions (Broydens 2nd method)
  g(Force)  = 0.000E+00   g(Stress)= 0.180E-05

 Reset! Starting new Quasi-Newton update for ions

[...]

 eigenvalue-minimisations  : 14549
 total energy-change (2. order) : 0.2736242E-06  (-0.1554826E-07)
 number of electron      18.0000000 magnetization       0.0000001      0.0000003      0.0000003
 augmentation part        2.7935791 magnetization       0.0000001      0.0000002      0.0000002

 Broyden mixing:
  rms(total) = 0.58404E-05    rms(broyden)= 0.58372E-05
  rms(prec ) = 0.96212E-05
  weight for this iteration     100.00

 eigenvalues of (default mixing * dielectric matrix)
  average eigenvalue GAMMA=   1.4709
  3.8752  3.3002  2.8053  2.6396  2.4633  1.5133  1.3210  1.3210  1.0252  1.0252
  0.9851  0.8713  0.8112  0.7432  0.7152  0.6471  0.6198  0.6329  0.6329

[...]

--------------------------------------- Iteration      2(   6)  ---------------------------------------

 eigenvalue-minimisations  : 12325
 total energy-change (2. order) :-0.6538266E-07  (-0.1861360E-08)
 number of electron      18.0000000 magnetization       0.0000001      0.0000003      0.0000003
 augmentation part        2.7935791 magnetization       0.0000001      0.0000002      0.0000002

 Free energy of the ion-electron system (eV)
  alpha Z        PSCENC =        56.64661467
  Ewald energy   TEWEN  =     -1656.00166324
  -Hartree energ DENC   =      -729.81510043
  -exchange      EXHF   =         0.00000000
  -V(xc)+E(xc)   XCENC  =       -68.94939195
  PAW double counting   =      2321.87822518    -2246.44715686
  entropy T*S    EENTRO =         0.00011971
  eigenvalues    EBANDS =      -331.15707578
  atomic energy  EATOM  =      2640.52872706
  Solvation  Ediel_sol  =         0.00000000
  free energy    TOTEN  =       -13.31670164 eV

  energy without entropy =      -13.31682135  energy(sigma->0) =      -13.31674154

 average (electrostatic) potential at core
  the test charge radii are     1.2024
  (the norm of the test charge is              1.0000)
       1-111.0660

 E-fermi :   2.4654     XC(G=0):  -7.5488     alpha+bet : -6.5154

[...]

 k-point   365 :      -0.1111   -0.1111    0.4444
  band No.  band energies     occupation
      1     -31.5649      1.00000
      2     -31.5649      1.00000
      3     -31.5639      1.00000
      4     -31.5639      1.00000
      5     -24.8722      1.00000
      6     -24.8722      1.00000
      7     -24.8688      1.00000
      8     -24.8688      1.00000
      9     -24.8675      1.00000
     10     -24.8675      1.00000
     11     -21.1757      1.00000
     12     -21.1757      1.00000
     13      -8.3170      1.00000
     14      -8.3170      1.00000
     15      -0.0604      1.00000
     16      -0.0604      1.00000
     17       1.7253      1.00000
     18       1.7253      1.00000
     19       5.5306      0.00000
     20       5.5306      0.00000
     21       8.1217      0.00000
     22       8.1217      0.00000
     23       9.2895      0.00000
     24       9.2895      0.00000
     25       9.8162      0.00000
     26       9.8162      0.00000
     27      11.1199      0.00000
     28      11.1199      0.00000

[...]

 soft charge-density along one line, spin component           4
         0         1         2         3         4         5         6         7         8         9
 total charge-density along one line

------------------------ aborting loop because EDIFF is reached ----------------------------------------

  FORCE on cell =-STRESS in cart. coord.  units (eV):
  Direction    XX          YY          ZZ          XY          YZ          ZX
  Alpha Z    56.64661    56.64661    56.64661
  Ewald    -552.00057  -552.00057  -552.00057     0.00000    -0.00000     0.00000
  Hartree   243.27165   243.27165   243.27165    -0.00000     0.00000    -0.00000
  E(xc)    -111.68400  -111.68400  -111.68400     0.00000     0.00000     0.00000
  Local    -205.05818  -205.05819  -205.05819     0.00001     0.00000     0.00001
  n-local    97.81982    97.81982    97.81982    -0.00000     0.00000    -0.00000
  augment    74.03883    74.03884    74.03884    -0.00001    -0.00000    -0.00000
  Kinetic   396.97696   396.97696   396.97697    -0.00000    -0.00000     0.00000
  Fock        0.00000     0.00000     0.00000     0.00000     0.00000     0.00000
  Total       0.01113     0.01113     0.01113     0.00000     0.00000     0.00000
  in kB       0.26476     0.26484     0.26486     0.00007     0.00005     0.00007

 VOLUME and BASIS-vectors are now :
  energy-cutoff  :      600.00
  volume of cell :       67.35
      direct lattice vectors                 reciprocal lattice vectors
     4.566900993  0.000000000  0.000000000     0.218966866 -0.126420579 -0.089392849
     2.283450496  3.955052276 -0.000000000     0.000000000  0.252841159 -0.089392849
     2.283450496  1.318350759  3.728859046    -0.000000000  0.000000000  0.268178547

  length of vectors
     4.566900993  4.566900993  4.566900993     0.268178547  0.268178547  0.268178547

 FORCES acting on ions
    electron-ion (+dipol)            ewald-force                    non-local-force                 convergence-correction
   0.123E-13 0.373E-13 -.511E-14   -.608E-14 0.689E-15 0.207E-15   0.318E-21 0.106E-21 -.212E-21   -.528E-13 -.109E-13 -.739E-14
   0.123E-13 0.373E-13 -.511E-14   -.608E-14 0.689E-15 0.207E-15   0.318E-21 0.106E-21 -.212E-21   -.528E-13 -.109E-13 -.739E-14

 POSITION                                       TOTAL-FORCE (eV/Angst)
      0.00000      0.00000      0.00000        -0.000000      0.000000      0.000000
    total drift:                               -0.000000      0.000000     -0.000000

  FREE ENERGIE OF THE ION-ELECTRON SYSTEM (eV)
  free  energy   TOTEN  =       -13.31670164 eV

  energy  without entropy=      -13.31682135  energy(sigma->0) =      -13.31674154

 d Force = 0.0000000E+00[ 0.000E+00, 0.000E+00]  d Energy = 0.1764256E-05-0.176E-05
 d Force = 0.0000000E+00[ 0.000E+00, 0.000E+00]  d Ewald  =-0.8919821E-01 0.892E-01

 Quasi-Newton relaxation of ions (Broydens 2nd method)
  g(Force)  = 0.000E+00   g(Stress)= 0.179E-05

 retain information from N=  1 steps
 eigenvalues of (default step * inverse Hessian matrix)
  average eigenvalue of G= 347.5373
 eigenvalue spectrum of G is347.5373

 reached required accuracy - stopping structural energy minimisation

 Spin-Orbit-Coupling matrix elements

 Ion:    1  E_soc:    -32.9847213
 l=   1
     0.0000000    -5.0729539    -5.0729538
    -5.0729539     0.0000000    -5.0729539
    -5.0729538    -5.0729539     0.0000000
 l=   2
     0.0000000    -0.0849025     0.0000000    -0.0849025    -0.3395930
    -0.0849025     0.0000000    -0.2546947    -0.0849067    -0.0849025
     0.0000000    -0.2546947     0.0000000    -0.2546947     0.0000000
    -0.0849025    -0.0849067    -0.2546947     0.0000000    -0.0849025
    -0.3395930    -0.0849025     0.0000000    -0.0849025     0.0000000
 l=   3
     0.0000000     0.0000000     0.0000000     0.0000000     0.0000000     0.0000000     0.0000000
     0.0000000     0.0000000     0.0000000     0.0000000     0.0000000     0.0000000     0.0000000
     0.0000000     0.0000000     0.0000000     0.0000000     0.0000000     0.0000000     0.0000000
     0.0000000     0.0000000     0.0000000     0.0000000     0.0000000     0.0000000     0.0000000
     0.0000000     0.0000000     0.0000000     0.0000000     0.0000000     0.0000000     0.0000000
     0.0000000     0.0000000     0.0000000     0.0000000     0.0000000     0.0000000     0.0000000
     0.0000000     0.0000000     0.0000000     0.0000000     0.0000000     0.0000000     0.0000000