 vasp.5.4.4.18Apr17-6-g9f103f2a35 (build Nov 03 2018 10:20:46) complex

 executed on             LinuxIFC date 2018.12.04  09:35:20

 INCAR:
 POTCAR:    PAW_PBE Ar_GW 21Aug2013

 POTCAR:    PAW_PBE Ar_GW 21Aug2013
   VRHFIN =Ar: s2p6

   TITEL  = PAW_PBE Ar_GW 21Aug2013
   POMASS =   39.949; ZVAL   =    8.000    mass and valenz
   ENMAX  =  290.599; ENMIN  =  217.949 eV

  PAW_PBE Ar_GW 21Aug2013               :

 POSCAR: Ar_FCC
  positions in direct lattice
  velocities in cartesian coordinates
 exchange correlation table for  LEXCH =        8
   RHO(1)=    0.500       N(1)  =     2000
   RHO(2)=  100.500       N(2)  =     4000

 ion  position               nearest neighbor table
   1  0.000  0.000  0.000-

  LATTYP: Found a face centered cubic cell.
 ALAT       =     5.0907399578

  Lattice vectors:

 A1 = (   3.5996967453,   0.0000000000,   0.0000000000)
 A2 = (   1.7998483727,   3.1174288273,  -0.0000000000)
 A3 = (   1.7998483727,   1.0391429424,   2.9391400850)

Analysis of symmetry for initial positions (statically):
 Subroutine PRICEL returns:
 Original cell was already a primitive cell.

 Routine SETGRP: Setting up the symmetry group for a
 face centered cubic supercell.

 Subroutine GETGRP returns: Found 48 space group operations
 (whereof 48 operations were pure point group operations)
 out of a pool of 48 trial point group operations.

The static configuration has the point symmetry O_h .

Analysis of symmetry for dynamics (positions and initial velocities):
 Subroutine PRICEL returns:
 Original cell was already a primitive cell.

 Routine SETGRP: Setting up the symmetry group for a
 face centered cubic supercell.

 Subroutine GETGRP returns: Found 48 space group operations
 (whereof 48 operations were pure point group operations)
 out of a pool of 48 trial point group operations.

The dynamic configuration has the point symmetry O_h .

 Subroutine INISYM returns: Found 48 space group operations
 (whereof 48 operations are pure point group operations),
 and found     1 'primitive' translations

Automatic generation of k-mesh.
 generate k-points for:   11   11   11
Space group operators:
 irot       det(A)        alpha          n_x          n_y          n_z        tau_x        tau_y        tau_z
    1     1.000000     0.000000     1.000000     0.000000     0.000000     0.000000     0.000000     0.000000
    2    -1.000000     0.000000     1.000000     0.000000     0.000000     0.000000     0.000000     0.000000
    3     1.000000   120.000000    -0.816497    -0.471405    -0.333333     0.000000     0.000000     0.000000
    4    -1.000000   120.000000    -0.816497    -0.471405    -0.333333     0.000000     0.000000     0.000000
    5     1.000000   120.000000     0.816497     0.471405     0.333333     0.000000     0.000000     0.000000
    6    -1.000000   120.000000     0.816497     0.471405     0.333333     0.000000     0.000000     0.000000
    7     1.000000    90.000000    -0.707107    -0.408248     0.577350     0.000000     0.000000     0.000000
    8    -1.000000    90.000000    -0.707107    -0.408248     0.577350     0.000000     0.000000     0.000000
    9     1.000000   180.000000     1.000000     0.000000     0.000000     0.000000     0.000000     0.000000
   10    -1.000000   180.000000     1.000000     0.000000     0.000000     0.000000     0.000000     0.000000
   11     1.000000    90.000000     0.707107    -0.408248     0.577350     0.000000     0.000000     0.000000
   12    -1.000000    90.000000     0.707107    -0.408248     0.577350     0.000000     0.000000     0.000000
   13     1.000000   180.000000     0.707107     0.408248    -0.577350     0.000000     0.000000     0.000000
   14    -1.000000   180.000000     0.707107     0.408248    -0.577350     0.000000     0.000000     0.000000
   15     1.000000   120.000000     0.816497    -0.471405    -0.333333     0.000000     0.000000     0.000000
   16    -1.000000   120.000000     0.816497    -0.471405    -0.333333     0.000000     0.000000     0.000000
   17     1.000000   120.000000     0.000000    -0.942809     0.333333     0.000000     0.000000     0.000000
   18    -1.000000   120.000000     0.000000    -0.942809     0.333333     0.000000     0.000000     0.000000
   19     1.000000    90.000000     0.707107     0.408248    -0.577350     0.000000     0.000000     0.000000
   20    -1.000000    90.000000     0.707107     0.408248    -0.577350     0.000000     0.000000     0.000000
   21     1.000000    90.000000    -0.000000    -0.816497    -0.577350     0.000000     0.000000     0.000000
   22    -1.000000    90.000000    -0.000000    -0.816497    -0.577350     0.000000     0.000000     0.000000
   23     1.000000   180.000000     0.500000     0.866025     0.000000     0.000000     0.000000     0.000000
   24    -1.000000   180.000000     0.500000     0.866025     0.000000     0.000000     0.000000     0.000000
   25     1.000000   120.000000     0.000000     0.942809    -0.333333     0.000000     0.000000     0.000000
   26    -1.000000   120.000000     0.000000     0.942809    -0.333333     0.000000     0.000000     0.000000
   27     1.000000   120.000000    -0.000000     0.000000    -1.000000     0.000000     0.000000     0.000000
   28    -1.000000   120.000000    -0.000000     0.000000    -1.000000     0.000000     0.000000     0.000000
   29     1.000000   180.000000    -0.000000     0.816497     0.577350     0.000000     0.000000     0.000000
   30    -1.000000   180.000000    -0.000000     0.816497     0.577350     0.000000     0.000000     0.000000
   31     1.000000    90.000000    -0.707107     0.408248    -0.577350     0.000000     0.000000     0.000000
   32    -1.000000    90.000000    -0.707107     0.408248    -0.577350     0.000000     0.000000     0.000000
   33     1.000000   180.000000     0.500000     0.288675     0.816497     0.000000     0.000000     0.000000
   34    -1.000000   180.000000     0.500000     0.288675     0.816497     0.000000     0.000000     0.000000
   35     1.000000    90.000000    -0.000000     0.816497     0.577350     0.000000     0.000000     0.000000
   36    -1.000000    90.000000    -0.000000     0.816497     0.577350     0.000000     0.000000     0.000000
   37     1.000000   120.000000    -0.816497     0.471405     0.333333     0.000000     0.000000     0.000000
   38    -1.000000   120.000000    -0.816497     0.471405     0.333333     0.000000     0.000000     0.000000
   39     1.000000   180.000000    -0.707107     0.408248    -0.577350     0.000000     0.000000     0.000000
   40    -1.000000   180.000000    -0.707107     0.408248    -0.577350     0.000000     0.000000     0.000000
   41     1.000000   120.000000    -0.000000    -0.000000     1.000000     0.000000     0.000000     0.000000
   42    -1.000000   120.000000    -0.000000    -0.000000     1.000000     0.000000     0.000000     0.000000
   43     1.000000   179.999999     0.000000     0.577350    -0.816497     0.000000     0.000000     0.000000
   44    -1.000000   179.999999     0.000000     0.577350    -0.816497     0.000000     0.000000     0.000000
   45     1.000000   180.000000    -0.500000     0.866025     0.000000     0.000000     0.000000     0.000000
   46    -1.000000   180.000000    -0.500000     0.866025     0.000000     0.000000     0.000000     0.000000
   47     1.000000   180.000000    -0.500000     0.288675     0.816497     0.000000     0.000000     0.000000
   48    -1.000000   180.000000    -0.500000     0.288675     0.816497     0.000000     0.000000     0.000000

 Subroutine IBZKPT returns following result:

 Found     56 irreducible k-points:

 Following reciprocal coordinates:
            Coordinates               Weight
  0.000000  0.000000  0.000000      1.000000
  0.090909  0.000000  0.000000      8.000000
  0.181818  0.000000  0.000000      8.000000
  0.272727  0.000000  0.000000      8.000000
  0.363636  0.000000  0.000000      8.000000
  0.454545  0.000000  0.000000      8.000000
  0.090909  0.090909  0.000000      6.000000
  0.181818  0.090909  0.000000     24.000000
  0.272727  0.090909  0.000000     24.000000
  0.363636  0.090909  0.000000     24.000000
  0.454545  0.090909  0.000000     24.000000
 -0.454545  0.090909 -0.000000     24.000000
 -0.363636  0.090909 -0.000000     24.000000
 -0.272727  0.090909 -0.000000     24.000000
 -0.181818  0.090909 -0.000000     24.000000
 -0.090909  0.090909 -0.000000     12.000000
  0.181818  0.181818  0.000000      6.000000
  0.272727  0.181818  0.000000     24.000000
  0.363636  0.181818  0.000000     24.000000
  0.454545  0.181818  0.000000     24.000000
 -0.454545  0.181818 -0.000000     24.000000
 -0.363636  0.181818 -0.000000     24.000000
 -0.272727  0.181818 -0.000000     24.000000
 -0.181818  0.181818 -0.000000     12.000000
  0.272727  0.272727  0.000000      6.000000
  0.363636  0.272727  0.000000     24.000000
  0.454545  0.272727  0.000000     24.000000
 -0.454545  0.272727 -0.000000     24.000000
 -0.363636  0.272727 -0.000000     24.000000
 -0.272727  0.272727  0.000000     12.000000
  0.363636  0.363636  0.000000      6.000000
  0.454545  0.363636  0.000000     24.000000
 -0.454545  0.363636 -0.000000     24.000000
 -0.363636  0.363636 -0.000000     12.000000
  0.454545  0.454545  0.000000      6.000000
 -0.454545  0.454545 -0.000000     12.000000
  0.272727  0.181818  0.090909     24.000000
  0.363636  0.181818  0.090909     48.000000
  0.454545  0.181818  0.090909     48.000000
 -0.454545  0.181818  0.090909     48.000000
  0.363636  0.272727  0.090909     24.000000
  0.454545  0.272727  0.090909     48.000000
 -0.454545  0.272727  0.090909     48.000000
 -0.363636  0.272727  0.090909     48.000000
 -0.272727  0.272727  0.090909     48.000000
 -0.181818  0.272727  0.090909     24.000000
  0.454545  0.363636  0.090909     24.000000
 -0.454545  0.363636  0.090909     48.000000
 -0.363636  0.363636  0.090909     48.000000
 -0.272727  0.363636  0.090909     24.000000
 -0.454545  0.454545  0.090909     24.000000
 -0.363636  0.454545  0.090909     24.000000
 -0.454545  0.363636  0.181818     24.000000
 -0.363636  0.363636  0.181818     48.000000
 -0.363636  0.454545  0.181818     24.000000
 -0.272727  0.454545  0.181818     24.000000

 Following cartesian coordinates:
            Coordinates               Weight
  0.000000  0.000000  0.000000      1.000000
  0.025255 -0.014581 -0.010310      8.000000
  0.050509 -0.029162 -0.020620      8.000000
  0.075764 -0.043742 -0.030931      8.000000
  0.101019 -0.058323 -0.041241      8.000000
  0.126273 -0.072904 -0.051551      8.000000
  0.025255  0.014581 -0.020620      6.000000
  0.050509  0.000000 -0.030931     24.000000
  0.075764 -0.014581 -0.041241     24.000000
  0.101019 -0.029162 -0.051551     24.000000
  0.126273 -0.043742 -0.061861     24.000000
 -0.126273  0.102065  0.041241     24.000000
 -0.101019  0.087485  0.030931     24.000000
 -0.075764  0.072904  0.020620     24.000000
 -0.050509  0.058323  0.010310     24.000000
 -0.025255  0.043742  0.000000     12.000000
  0.050509  0.029162 -0.041241      6.000000
  0.075764  0.014581 -0.051551     24.000000
  0.101019  0.000000 -0.061861     24.000000
  0.126273 -0.014581 -0.072171     24.000000
[...]
   0.12627326 -0.04374234 -0.06186101       0.018
  -0.12627326  0.10206546  0.04124068       0.018
  -0.10101861  0.08748468  0.03093051       0.018
  -0.07576396  0.07290390  0.02062034       0.018
  -0.05050931  0.05832312  0.01031017       0.018
  -0.02525465  0.04374234  0.00000000       0.009
   0.05050931  0.02916156 -0.04124068       0.005
   0.07576396  0.01458078 -0.05155084       0.018
   0.10101861  0.00000000 -0.06186101       0.018
   0.12627326 -0.01458078 -0.07217118       0.018
  -0.12627326  0.13122702  0.03093051       0.018
  -0.10101861  0.11664624  0.02062034       0.018
  -0.07576396  0.10206546  0.01031017       0.018
  -0.05050931  0.08748468  0.00000000       0.009
   0.07576396  0.04374234 -0.06186101       0.005
   0.10101861  0.02916156 -0.07217118       0.018
   0.12627326  0.01458078 -0.08248135       0.018
  -0.12627326  0.16038859  0.02062034       0.018
  -0.10101861  0.14580780  0.01031017       0.018
  -0.07576396  0.13122702  0.00000000       0.009
   0.10101861  0.05832312 -0.08248135       0.005
   0.12627326  0.04374234 -0.09279152       0.018
  -0.12627326  0.18955015  0.01031017       0.018
  -0.10101861  0.17496937  0.00000000       0.009
   0.12627326  0.07290390 -0.10310169       0.005
  -0.12627326  0.21871171  0.00000000       0.009
   0.07576396  0.01458078 -0.02062034       0.018
   0.10101861  0.00000000 -0.03093051       0.036
   0.12627326 -0.01458078 -0.04124068       0.036
  -0.12627326  0.13122702  0.06186101       0.036
   0.10101861  0.02916156 -0.04124068       0.018
   0.12627326  0.01458078 -0.05155084       0.036
  -0.12627326  0.16038859  0.05155084       0.036
  -0.10101861  0.14580780  0.04124068       0.036
  -0.07576396  0.13122702  0.03093051       0.036
  -0.05050931  0.11664624  0.02062034       0.018
   0.12627326  0.04374234 -0.06186101       0.018
  -0.12627326  0.18955015  0.04124068       0.036
  -0.10101861  0.17496937  0.03093051       0.036
  -0.07576396  0.16038859  0.02062034       0.018
  -0.12627326  0.21871171  0.03093051       0.018
  -0.10101861  0.20413093  0.02062034       0.018
  -0.12627326  0.18955015  0.07217118       0.018
  -0.10101861  0.17496937  0.06186101       0.036
  -0.10101861  0.20413093  0.05155084       0.018
  -0.07576396  0.18955015  0.04124068       0.018

 k-points in reciprocal lattice and weights: read from INCAR
   0.00000000  0.00000000  0.00000000       0.001
   0.09090909  0.00000000  0.00000000       0.006
   0.18181818  0.00000000  0.00000000       0.006
   0.27272727  0.00000000  0.00000000       0.006
   0.36363636  0.00000000  0.00000000       0.006
   0.45454545  0.00000000  0.00000000       0.006
   0.09090909  0.09090909  0.00000000       0.005
   0.18181818  0.09090909  0.00000000       0.018
   0.27272727  0.09090909  0.00000000       0.018
   0.36363636  0.09090909  0.00000000       0.018
   0.45454545  0.09090909  0.00000000       0.018
  -0.45454545  0.09090909 -0.00000000       0.018
  -0.36363636  0.09090909 -0.00000000       0.018
  -0.27272727  0.09090909 -0.00000000       0.018
  -0.18181818  0.09090909 -0.00000000       0.018
  -0.09090909  0.09090909 -0.00000000       0.009
   0.18181818  0.18181818  0.00000000       0.005
   0.27272727  0.18181818  0.00000000       0.018
   0.36363636  0.18181818  0.00000000       0.018
   0.45454545  0.18181818  0.00000000       0.018
  -0.45454545  0.18181818 -0.00000000       0.018
  -0.36363636  0.18181818 -0.00000000       0.018
  -0.27272727  0.18181818 -0.00000000       0.018
  -0.18181818  0.18181818 -0.00000000       0.009
   0.27272727  0.27272727  0.00000000       0.005
   0.36363636  0.27272727  0.00000000       0.018
   0.45454545  0.27272727  0.00000000       0.018
  -0.45454545  0.27272727 -0.00000000       0.018
  -0.36363636  0.27272727 -0.00000000       0.018
  -0.27272727  0.27272727  0.00000000       0.009
   0.36363636  0.36363636  0.00000000       0.005
   0.45454545  0.36363636  0.00000000       0.018
  -0.45454545  0.36363636 -0.00000000       0.018
  -0.36363636  0.36363636 -0.00000000       0.009
   0.45454545  0.45454545  0.00000000       0.005
  -0.45454545  0.45454545 -0.00000000       0.009
   0.27272727  0.18181818  0.09090909       0.018
   0.36363636  0.18181818  0.09090909       0.036
   0.45454545  0.18181818  0.09090909       0.036
  -0.45454545  0.18181818  0.09090909       0.036
   0.36363636  0.27272727  0.09090909       0.018
   0.45454545  0.27272727  0.09090909       0.036
  -0.45454545  0.27272727  0.09090909       0.036
  -0.36363636  0.27272727  0.09090909       0.036
  -0.27272727  0.27272727  0.09090909       0.036
  -0.18181818  0.27272727  0.09090909       0.018
   0.45454545  0.36363636  0.09090909       0.018
  -0.45454545  0.36363636  0.09090909       0.036
  -0.36363636  0.36363636  0.09090909       0.036
  -0.27272727  0.36363636  0.09090909       0.018
  -0.45454545  0.45454545  0.09090909       0.018
  -0.36363636  0.45454545  0.09090909       0.018
  -0.45454545  0.36363636  0.18181818       0.018
  -0.36363636  0.36363636  0.18181818       0.036
  -0.36363636  0.45454545  0.18181818       0.018
  -0.27272727  0.45454545  0.18181818       0.018

 position of ions in fractional coordinates (direct lattice)
   0.00000000  0.00000000  0.00000000

 position of ions in cartesian coordinates  (Angst):
   0.00000000  0.00000000  0.00000000

 k-point  1 :   0.0000 0.0000 0.0000  plane waves:    1067
 k-point  2 :   0.0909 0.0000 0.0000  plane waves:    1097
 k-point  3 :   0.1818 0.0000 0.0000  plane waves:    1098
 k-point  4 :   0.2727 0.0000 0.0000  plane waves:    1095
 k-point  5 :   0.3636 0.0000 0.0000  plane waves:    1101
 k-point  6 :   0.4545 0.0000 0.0000  plane waves:    1101
 k-point  7 :   0.0909 0.0909 0.0000  plane waves:    1098
 k-point  8 :   0.1818 0.0909 0.0000  plane waves:    1110
 k-point  9 :   0.2727 0.0909 0.0000  plane waves:    1092
 k-point 10 :   0.3636 0.0909 0.0000  plane waves:    1099
 k-point 11 :   0.4545 0.0909 0.0000  plane waves:    1105
 k-point 12 :  -0.4545 0.0909-0.0000  plane waves:    1104
 k-point 13 :  -0.3636 0.0909-0.0000  plane waves:    1111
 k-point 14 :  -0.2727 0.0909-0.0000  plane waves:    1099
 k-point 15 :  -0.1818 0.0909-0.0000  plane waves:    1095
 k-point 16 :  -0.0909 0.0909-0.0000  plane waves:    1095
 k-point 17 :   0.1818 0.1818 0.0000  plane waves:    1094
 k-point 18 :   0.2727 0.1818 0.0000  plane waves:    1091
 k-point 19 :   0.3636 0.1818 0.0000  plane waves:    1097
 k-point 20 :   0.4545 0.1818 0.0000  plane waves:    1098
 k-point 21 :  -0.4545 0.1818-0.0000  plane waves:    1099
 k-point 22 :  -0.3636 0.1818-0.0000  plane waves:    1105
 k-point 23 :  -0.2727 0.1818-0.0000  plane waves:    1100
 k-point 24 :  -0.1818 0.1818-0.0000  plane waves:    1093
 k-point 25 :   0.2727 0.2727 0.0000  plane waves:    1094
 k-point 26 :   0.3636 0.2727 0.0000  plane waves:    1091
 k-point 27 :   0.4545 0.2727 0.0000  plane waves:    1095
 k-point 28 :  -0.4545 0.2727-0.0000  plane waves:    1108
 k-point 29 :  -0.3636 0.2727-0.0000  plane waves:    1115
 k-point 30 :  -0.2727 0.2727 0.0000  plane waves:    1113
 k-point 31 :   0.3636 0.3636 0.0000  plane waves:    1094
 k-point 32 :   0.4545 0.3636 0.0000  plane waves:    1100
 k-point 33 :  -0.4545 0.3636-0.0000  plane waves:    1107
 k-point 34 :  -0.3636 0.3636-0.0000  plane waves:    1115
 k-point 35 :   0.4545 0.4545 0.0000  plane waves:    1102
 k-point 36 :  -0.4545 0.4545-0.0000  plane waves:    1108
 k-point 37 :   0.2727 0.1818 0.0909  plane waves:    1100
 k-point 38 :   0.3636 0.1818 0.0909  plane waves:    1091
 k-point 39 :   0.4545 0.1818 0.0909  plane waves:    1099
 k-point 40 :  -0.4545 0.1818 0.0909  plane waves:    1107
 k-point 41 :   0.3636 0.2727 0.0909  plane waves:    1091
 k-point 42 :   0.4545 0.2727 0.0909  plane waves:    1097
 k-point 43 :  -0.4545 0.2727 0.0909  plane waves:    1102
 k-point 44 :  -0.3636 0.2727 0.0909  plane waves:    1099
 k-point 45 :  -0.2727 0.2727 0.0909  plane waves:    1100
 k-point 46 :  -0.1818 0.2727 0.0909  plane waves:    1097
 k-point 47 :   0.4545 0.3636 0.0909  plane waves:    1083
 k-point 48 :  -0.4545 0.3636 0.0909  plane waves:    1102
 k-point 49 :  -0.3636 0.3636 0.0909  plane waves:    1107
 k-point 50 :  -0.2727 0.3636 0.0909  plane waves:    1102
 k-point 51 :  -0.4545 0.4545 0.0909  plane waves:    1096
 k-point 52 :  -0.3636 0.4545 0.0909  plane waves:    1107
 k-point 53 :  -0.4545 0.3636 0.1818  plane waves:    1104
 k-point 54 :  -0.3636 0.3636 0.1818  plane waves:    1100
 k-point 55 :  -0.3636 0.4545 0.1818  plane waves:    1104
 k-point 56 :  -0.2727 0.4545 0.1818  plane waves:    1109

 maximum and minimum number of plane-waves per node :       283      262

 maximum number of plane-waves:      1115
 maximum index in each direction:
   IXMAX=    7   IYMAX=    7   IZMAX=    7
   IXMIN=   -7   IYMIN=   -7   IZMIN=   -7

 parallel 3D FFT for wavefunctions:
    minimum data exchange during FFTs selected (reduces bandwidth)
 parallel 3D FFT for charge:
    minimum data exchange during FFTs selected (reduces bandwidth)

 Broyden mixing: mesh for mixing (old mesh)
   NGX = 15   NGY = 15   NGZ = 15
  (NGX  = 60   NGY  = 60   NGZ  = 60)
  gives a total of   3375 points

 initial charge density was supplied:
 charge density of overlapping atoms calculated
 number of electron       8.0000000 magnetization
 keeping initial charge density in first step

 Maximum index for augmentation-charges        28973 (set IRDMAX)

 First call to EWALD:  gamma=   0.553
 Maximum number of real-space cells 3x 3x 3
 Maximum number of reciprocal cells 3x 3x 3

--------------------------------------- Iteration      1(   1)  ---------------------------------------

 eigenvalue-minimisations  :   896
 total energy-change (2. order) : 0.4535870E+02  (-0.3905090E+03)
 number of electron       8.0000000 magnetization
 augmentation part        8.0000000 magnetization

 Free energy of the ion-electron system (eV)
  alpha Z        PSCENC =         9.11079249
  Ewald energy   TEWEN  =      -415.00316949
  -Hartree energ DENC   =      -129.14864416
  -exchange      EXHF   =         0.00000000
  -V(xc)+E(xc)   XCENC  =        27.53802251
  PAW double counting   =       466.10911557     -468.88429274
  entropy T*S    EENTRO =         0.00000149
  eigenvalues    EBANDS =       -23.40866650
  atomic energy  EATOM  =       579.04554086
  Solvation  Ediel_sol  =         0.00000000
  free energy    TOTEN  =        45.35870002 eV

  energy without entropy =       45.35869853  energy(sigma->0) =       45.35869953

[...]

 eigenvalue-minimisations  :  1272
 total energy-change (2. order) :-0.4425275E+02  (-0.4212714E+02)
 number of electron       8.0000000 magnetization
 augmentation part        8.0000000 magnetization

[...]

 Broyden mixing:
  rms(total) = 0.80031E-02    rms(broyden)= 0.75909E-02
  rms(prec ) = 0.26786E-01
  weight for this iteration     100.00

[...]

 eigenvalue-minimisations  :   896
 total energy-change (2. order) : 0.1148668E-03  (-0.3372147E-04)
 number of electron       8.0000000 magnetization
 augmentation part       -0.5139380 magnetization

[...]

 eigenvalues of (default mixing * dielectric matrix)
  average eigenvalue GAMMA=   1.5355
  1.5355

[...]

 Broyden mixing:
  rms(total) = 0.39275E-04    rms(broyden)= 0.39264E-04
  rms(prec ) = 0.11818E-03
  weight for this iteration     100.00

 eigenvalues of (default mixing * dielectric matrix)
  average eigenvalue GAMMA=   1.8106
  3.0150  2.5144  1.5440  1.0920  0.8876

[...]

--------------------------------------- Iteration      1(  11)  ---------------------------------------

 eigenvalue-minimisations  :   640
 total energy-change (2. order) :-0.1641513E-07  (-0.3876192E-08)
 number of electron       8.0000000 magnetization
 augmentation part       -0.5139464 magnetization

 Free energy of the ion-electron system (eV)
  alpha Z        PSCENC =         9.11079249
  Ewald energy   TEWEN  =      -415.00316949
  -Hartree energ DENC   =      -129.48735441
  -exchange      EXHF   =         0.00000000
  -V(xc)+E(xc)   XCENC  =        27.56434299
  PAW double counting   =       467.23499140     -470.01401340
  entropy T*S    EENTRO =         0.00229919
  eigenvalues    EBANDS =       -68.43683797
  atomic energy  EATOM  =       579.04554086
  Solvation  Ediel_sol  =         0.00000000
  free energy    TOTEN  =         0.01659165 eV

  energy without entropy =        0.01429246  energy(sigma->0) =        0.01582525

 average (electrostatic) potential at core
  the test charge radii are     0.8078
  (the norm of the test charge is              1.0000)
       1-114.3494

 E-fermi :  -4.3574     XC(G=0):  -7.1793     alpha+bet : -5.1558

 k-point     1 :       0.0000    0.0000    0.0000
  band No.  band energies     occupation
      1     -19.3456      2.00000
      2      -4.3774      1.33083
      3      -4.3774      1.33083
      4      -4.3774      1.33083
      5       4.4516      0.00000
      6      11.4886      0.00000
      7      11.4886      0.00000
      8      11.4886      0.00000

[...]

 k-point    56 :      -0.2727    0.4545    0.1818
  band No.  band energies     occupation
      1     -18.9689      2.00000
      2      -5.4668      2.00000
      3      -5.3858      2.00000
      4      -4.9313      2.00000
      5       8.0273      0.00000
      6       9.4459      0.00000
      7       9.9937      0.00000
      8      12.1843      0.00000

 soft charge-density along one line, spin component           1
         0         1         2         3         4         5         6         7         8         9
 total charge-density along one line

------------------------ aborting loop because EDIFF is reached ----------------------------------------

         DFTD3 V3.0 Rev 1
 IVDW         = 12
 DF pbe
 parameters
 VDW_S6       =    1.0000
 VDW_S8       =    0.7875
 VDW_A1       =    0.4289
 VDW_A2       =    4.4407
 k1-k3        =   16.0000    1.3333   -4.0000
 VDW_RADIUS   =   50.2022 A
 VDW_CNRADIUS =   21.1671 A
 Edisp (eV)   -0.27711

 E6    (eV) :    -0.1881
 E8    (eV) :    -0.0890
 % E8        : 32.12

  FORCE on cell =-STRESS in cart. coord.  units (eV):
  Direction    XX          YY          ZZ          XY          YZ          ZX
  Alpha Z     9.11079     9.11079     9.11079
  Ewald    -138.33439  -138.33439  -138.33439    -0.00000    -0.00000    -0.00000
  Hartree    43.16249    43.16249    43.16249     0.00000    -0.00000     0.00000
  E(xc)     -31.87061   -31.87061   -31.87061     0.00000     0.00000     0.00000
  Local    -110.78209  -110.78209  -110.78209    -0.00000    -0.00000    -0.00000
  n-local    93.34972    94.31000    94.81388     0.35746    -0.12742     0.93278
  augment   -10.50839   -10.50840   -10.50840     0.00000     0.00000     0.00000
  Kinetic   142.97546   145.88047   147.39249     1.15470    -0.25297     2.75525
  Fock        0.00000     0.00000     0.00000     0.00000     0.00000     0.00000
  vdW        -0.34701    -0.34701    -0.34701    -0.00000    -0.00000    -0.00000
  Total       0.00479     0.00479     0.00479    -0.00000    -0.00000     0.00000
  in kB       0.23268     0.23268     0.23268    -0.00000    -0.00000     0.00000

 VOLUME and BASIS-vectors are now :
  energy-cutoff  :      600.00
  volume of cell :       32.98
      direct lattice vectors                 reciprocal lattice vectors
     3.599696745  0.000000000  0.000000000     0.277801179 -0.160388585 -0.113411856
     1.799848373  3.117428827 -0.000000000     0.000000000  0.320777171 -0.113411856
     1.799848373  1.039142942  2.939140085    -0.000000000  0.000000000  0.340235569

  length of vectors
     3.599696745  3.599696745  3.599696745     0.340235569  0.340235569  0.340235569

 FORCES acting on ions
    electron-ion (+dipol)            ewald-force                    non-local-force                 convergence-correction
   0.268E-14 -.930E-15 0.208E-14   0.344E-15 0.140E-15 -.637E-15   0.122E-21 -.265E-22 -.331E-23   0.852E-15 0.453E-14 -.788E-15
   0.268E-14 -.930E-15 0.208E-14   0.344E-15 0.140E-15 -.637E-15   0.122E-21 -.265E-22 -.331E-23   0.852E-15 0.453E-14 -.788E-15

 POSITION                                       TOTAL-FORCE (eV/Angst)
      0.00000      0.00000      0.00000        -0.000000      0.000000      0.000000
    total drift:                                0.000000      0.000000      0.000000

  FREE ENERGIE OF THE ION-ELECTRON SYSTEM (eV)
  free  energy   TOTEN  =        -0.26051994 eV

  energy  without entropy=       -0.26281913  energy(sigma->0) =       -0.26128634

 Quasi-Newton relaxation of ions (Broydens 2nd method)
  g(Force)  = 0.000E+00   g(Stress)= 0.664E-06

 Reset! Starting new Quasi-Newton update for ions

 reached required accuracy - stopping structural energy minimisation