 vasp.5.4.4.18Apr17-6-g9f103f2a35 (build Nov 03 2018 10:20:46) complex

 executed on             LinuxIFC date 2018.11.15  15:12:30

 INCAR:
 POTCAR:    PAW_PBE Ar_GW 21Aug2013

 POTCAR:    PAW_PBE Ar_GW 21Aug2013
   VRHFIN =Ar: s2p6

   TITEL  = PAW_PBE Ar_GW 21Aug2013
   POMASS =   39.949; ZVAL   =    8.000    mass and valenz
   ENMAX  =  290.599; ENMIN  =  217.949 eV

  PAW_PBE Ar_GW 21Aug2013               :

 POSCAR: Ar_FCC
  positions in direct lattice
  velocities in cartesian coordinates
 exchange correlation table for  LEXCH =        8
   RHO(1)=    0.500       N(1)  =     2000
   RHO(2)=  100.500       N(2)  =     4000

 ion  position               nearest neighbor table
   1  0.000  0.000  0.000-

  LATTYP: Found a face centered cubic cell.
 ALAT       =     5.0904486113

  Lattice vectors:

 A1 = (   3.5994907323,   0.0000000000,   0.0000000000)
 A2 = (   1.7997453661,   3.1172504148,  -0.0000000000)
 A3 = (   1.7997453661,   1.0390834716,   2.9389718761)

Analysis of symmetry for initial positions (statically):
 Subroutine PRICEL returns:
 Original cell was already a primitive cell.

 Routine SETGRP: Setting up the symmetry group for a
 face centered cubic supercell.

 Subroutine GETGRP returns: Found 48 space group operations
 (whereof 48 operations were pure point group operations)
 out of a pool of 48 trial point group operations.

The static configuration has the point symmetry O_h .

Analysis of symmetry for dynamics (positions and initial velocities):
 Subroutine PRICEL returns:
 Original cell was already a primitive cell.

[...]

The dynamic configuration has the point symmetry O_h .

Analysis of structural, dynamic, and magnetic symmetry:
 Subroutine PRICEL returns:
 Original cell was already a primitive cell.

 Routine SETGRP: Setting up the symmetry group for a
 face centered cubic supercell.

 Subroutine GETGRP returns: Found  2 space group operations
 (whereof  2 operations were pure point group operations)
 out of a pool of 48 trial point group operations.

The (compounded) configuration has the point symmetry S_2 .

 Subroutine INISYM returns: Found  2 space group operations
 (whereof  2 operations are pure point group operations),
 and found     1 'primitive' translations

Automatic generation of k-mesh.
 generate k-points for:    8    8    8
Space group operators:
 irot       det(A)        alpha          n_x          n_y          n_z        tau_x        tau_y        tau_z
    1     1.000000     0.000001     1.000000     0.000000     0.000000     0.000000     0.000000     0.000000
    2    -1.000000     0.000001     1.000000     0.000000     0.000000     0.000000     0.000000     0.000000

 Subroutine IBZKPT returns following result:

 Found    260 irreducible k-points:

 Following reciprocal coordinates:
            Coordinates               Weight
  0.000000  0.000000  0.000000      1.000000
  0.125000 -0.000000 -0.000000      2.000000
  0.250000 -0.000000 -0.000000      2.000000
  0.375000 -0.000000 -0.000000      2.000000
  0.500000 -0.000000 -0.000000      1.000000
  0.000000  0.125000 -0.000000      2.000000
  0.125000  0.125000 -0.000000      2.000000
  0.250000  0.125000 -0.000000      2.000000
  0.375000  0.125000 -0.000000      2.000000
  0.500000  0.125000  0.000000      2.000000
 -0.375000  0.125000  0.000000      2.000000
 -0.250000  0.125000  0.000000      2.000000
 -0.125000  0.125000  0.000000      2.000000
  0.000000  0.250000 -0.000000      2.000000
  0.125000  0.250000 -0.000000      2.000000
  0.250000  0.250000 -0.000000      2.000000
  0.375000  0.250000 -0.000000      2.000000
  0.500000  0.250000 -0.000000      2.000000
 -0.375000  0.250000  0.000000      2.000000
 -0.250000  0.250000  0.000000      2.000000
 -0.125000  0.250000  0.000000      2.000000
  0.000000  0.375000 -0.000000      2.000000
  0.125000  0.375000 -0.000000      2.000000
  0.250000  0.375000 -0.000000      2.000000
  0.375000  0.375000 -0.000000      2.000000
  0.500000  0.375000 -0.000000      2.000000
 -0.375000  0.375000 -0.000000      2.000000
 -0.250000  0.375000 -0.000000      2.000000
 -0.125000  0.375000 -0.000000      2.000000
  0.000000  0.500000 -0.000000      1.000000
  0.125000  0.500000 -0.000000      2.000000
  0.250000  0.500000 -0.000000      2.000000
  0.375000  0.500000  0.000000      2.000000
  0.500000  0.500000 -0.000000      1.000000
  0.000000  0.000000  0.125000      2.000000
  0.125000  0.000000  0.125000      2.000000
  0.250000 -0.000000  0.125000      2.000000
  0.375000 -0.000000  0.125000      2.000000
  0.500000 -0.000000  0.125000      2.000000
 -0.375000  0.000000  0.125000      2.000000
 -0.250000  0.000000  0.125000      2.000000
 -0.125000  0.000000  0.125000      2.000000
  0.000000  0.125000  0.125000      2.000000
  0.125000  0.125000  0.125000      2.000000
  0.250000  0.125000  0.125000      2.000000
  0.375000  0.125000  0.125000      2.000000
  0.500000  0.125000  0.125000      2.000000
 -0.375000  0.125000  0.125000      2.000000
 -0.250000  0.125000  0.125000      2.000000
 -0.125000  0.125000  0.125000      2.000000
 -0.000000  0.250000  0.125000      2.000000
  0.125000  0.250000  0.125000      2.000000
  0.250000  0.250000  0.125000      2.000000
  0.375000  0.250000  0.125000      2.000000
  0.500000  0.250000  0.125000      2.000000
 -0.375000  0.250000  0.125000      2.000000
 -0.250000  0.250000  0.125000      2.000000
 -0.125000  0.250000  0.125000      2.000000
 -0.000000  0.375000  0.125000      2.000000
  0.125000  0.375000  0.125000      2.000000
[...]
 -0.250000  0.250000  0.500000      2.000000
 -0.125000  0.250000  0.500000      2.000000
  0.000000  0.375000  0.500000      2.000000
  0.125000  0.375000  0.500000      2.000000
  0.250000  0.375000  0.500000      2.000000
  0.375000  0.375000  0.500000      2.000000
  0.500000  0.375000  0.500000      2.000000
 -0.375000  0.375000  0.500000      2.000000
 -0.250000  0.375000  0.500000      2.000000
 -0.125000  0.375000  0.500000      2.000000
  0.000000  0.500000  0.500000      1.000000
  0.125000  0.500000  0.500000      2.000000
  0.250000  0.500000  0.500000      2.000000
  0.375000  0.500000  0.500000      2.000000
  0.500000  0.500000  0.500000      1.000000

 Following cartesian coordinates:
            Coordinates               Weight
  0.000000  0.000000  0.000000      1.000000
  0.034727 -0.020050 -0.014177      2.000000
  0.069454 -0.040099 -0.028355      2.000000
  0.104181 -0.060149 -0.042532      2.000000
  0.138909 -0.080199 -0.056709      1.000000
  0.000000  0.040099 -0.014177      2.000000
  0.034727  0.020050 -0.028355      2.000000
  0.069454 -0.000000 -0.042532      2.000000
  0.104181 -0.020050 -0.056709      2.000000
  0.138909 -0.040099 -0.070886      2.000000
 -0.104181  0.100249  0.028355      2.000000
 -0.069454  0.080199  0.014177      2.000000
 -0.034727  0.060149  0.000000      2.000000
  0.000000  0.080199 -0.028355      2.000000
  0.034727  0.060149 -0.042532      2.000000
  0.069454  0.040099 -0.056709      2.000000
  0.104181  0.020050 -0.070886      2.000000
  0.138909 -0.000000 -0.085064      2.000000
 -0.104181  0.140348  0.014177      2.000000
 -0.069454  0.120298  0.000000      2.000000
 -0.034727  0.100249 -0.014177      2.000000
  0.000000  0.120298 -0.042532      2.000000
  0.034727  0.100249 -0.056709      2.000000
  0.069454  0.080199 -0.070886      2.000000
  0.104181  0.060149 -0.085064      2.000000
  0.138909  0.040099 -0.099241      2.000000
 -0.104181  0.180447  0.000000      2.000000
 -0.069454  0.160398 -0.014177      2.000000
 -0.034727  0.140348 -0.028355      2.000000
  0.000000  0.160398 -0.056709      1.000000
  0.034727  0.140348 -0.070886      2.000000
  0.069454  0.120298 -0.085064      2.000000
  0.104181  0.100249 -0.099241      2.000000
  0.138909  0.080199 -0.113418      1.000000
 -0.000000  0.000000  0.042532      2.000000
  0.034727 -0.020050  0.028355      2.000000
  0.069454 -0.040099  0.014177      2.000000
  0.104181 -0.060149 -0.000000      2.000000
  0.138909 -0.080199 -0.014177      2.000000
 -0.104181  0.060149  0.085064      2.000000
 -0.069454  0.040099  0.070886      2.000000
 -0.034727  0.020050  0.056709      2.000000
 -0.000000  0.040099  0.028355      2.000000
  0.034727  0.020050  0.014177      2.000000
  0.069454  0.000000  0.000000      2.000000
  0.104181 -0.020050 -0.014177      2.000000
  0.138909 -0.040099 -0.028355      2.000000
 -0.104181  0.100249  0.070886      2.000000
 -0.069454  0.080199  0.056709      2.000000
 -0.034727  0.060149  0.042532      2.000000
 -0.000000  0.080199  0.014177      2.000000
  0.034727  0.060149  0.000000      2.000000
  0.069454  0.040099 -0.014177      2.000000
  0.104181  0.020050 -0.028355      2.000000
  0.138909  0.000000 -0.042532      2.000000
 -0.104181  0.140348  0.056709      2.000000
 -0.069454  0.120298  0.042532      2.000000
 -0.034727  0.100249  0.028355      2.000000
 -0.000000  0.120298  0.000000      2.000000
  0.034727  0.100249 -0.014177      2.000000
[...]
 -0.069454  0.120298  0.170128      2.000000
 -0.034727  0.100249  0.155950      2.000000
 -0.000000  0.120298  0.127596      2.000000
  0.034727  0.100249  0.113418      2.000000
  0.069454  0.080199  0.099241      2.000000
  0.104181  0.060149  0.085064      2.000000
  0.138909  0.040099  0.070886      2.000000
 -0.104181  0.180447  0.170128      2.000000
 -0.069454  0.160398  0.155950      2.000000
 -0.034727  0.140348  0.141773      2.000000
 -0.000000  0.160398  0.113418      1.000000
  0.034727  0.140348  0.099241      2.000000
  0.069454  0.120298  0.085064      2.000000
  0.104181  0.100249  0.070886      2.000000
  0.138909  0.080199  0.056709      1.000000

 SYSTEM =  Cn_FCC
 POSCAR =  Ar_FCC

 Startparameter for this run:
   NWRITE =      2    write-flag & timer
   PREC   = accura    normal or accurate (medium, high low for compatibility)
   ISTART =      0    job   : 0-new  1-cont  2-samecut
   ICHARG =      2    charge: 1-file 2-atom 10-const
   ISPIN  =      1    spin polarized calculation?
   LNONCOLLINEAR =      T non collinear calculations
   LSORBIT =      T    spin-orbit coupling
   INIWAV =      1    electr: 0-lowe 1-rand  2-diag
   LASPH  =      F    aspherical Exc in radial PAW
   METAGGA=      F    non-selfconsistent MetaGGA calc.

 Electronic Relaxation 1
   ENCUT  =  600.0 eV  44.10 Ry    6.64 a.u.   7.19  7.19  7.19*2*pi/ulx,y,z
   ENINI  =  600.0     initial cutoff
   ENAUG  =  799.9 eV  augmentation charge cutoff
   NELM   =    100;   NELMIN=  5; NELMDL= -5     # of ELM steps
   EDIFF  = 0.1E-06   stopping-criterion for ELM
   LREAL  =      F    real-space projection
   NLSPLINE    = F    spline interpolate recip. space projectors
   LCOMPAT=      F    compatible to vasp.4.4
   GGA_COMPAT  = F    GGA compatible to vasp.4.4-vasp.4.6
   LMAXPAW     = -100 max onsite density
   LMAXMIX     =    2 max onsite mixed and CHGCAR
   VOSKOWN=      0    Vosko Wilk Nusair interpolation
   ROPT   =    0.00000
 Ionic relaxation
   EDIFFG = 0.1E-04   stopping-criterion for IOM
   NSW    =    999    number of steps for IOM
   NBLOCK =      1;   KBLOCK =    999    inner block; outer block
   IBRION =      1    ionic relax: 0-MD 1-quasi-New 2-CG
[...]
 k-point ** :  -0.3750 0.3750 0.2500  plane waves:    2204
 k-point ** :  -0.2500 0.3750 0.2500  plane waves:    2198
 k-point ** :  -0.1250 0.3750 0.2500  plane waves:    2168
 k-point ** :  -0.0000 0.5000 0.2500  plane waves:    2204
 k-point ** :   0.1250 0.5000 0.2500  plane waves:    2208
 k-point ** :   0.2500 0.5000 0.2500  plane waves:    2194
 k-point ** :   0.3750 0.5000 0.2500  plane waves:    2208
 k-point ** :   0.5000 0.5000 0.2500  plane waves:    2204
 k-point ** :  -0.3750 0.5000 0.2500  plane waves:    2198
 k-point ** :  -0.2500 0.5000 0.2500  plane waves:    2248
 k-point ** :  -0.1250 0.5000 0.2500  plane waves:    2198
 k-point ** :   0.0000-0.3750 0.2500  plane waves:    2222
 k-point ** :   0.1250-0.3750 0.2500  plane waves:    2216
 k-point ** :   0.2500-0.3750 0.2500  plane waves:    2222
 k-point ** :   0.3750-0.3750 0.2500  plane waves:    2204
 k-point ** :   0.5000-0.3750 0.2500  plane waves:    2198
 k-point ** :  -0.3750-0.3750 0.2500  plane waves:    2242
 k-point ** :  -0.2500-0.3750 0.2500  plane waves:    2198
 k-point ** :  -0.1250-0.3750 0.2500  plane waves:    2204
 k-point ** :   0.0000-0.2500 0.2500  plane waves:    2194
 k-point ** :   0.1250-0.2500 0.2500  plane waves:    2208
 k-point ** :   0.2500-0.2500 0.2500  plane waves:    2204
 k-point ** :   0.3750-0.2500 0.2500  plane waves:    2198
 k-point ** :   0.5000-0.2500 0.2500  plane waves:    2248
 k-point ** :  -0.3750-0.2500 0.2500  plane waves:    2198
 k-point ** :  -0.2500-0.2500 0.2500  plane waves:    2204
 k-point ** :  -0.1250-0.2500 0.2500  plane waves:    2208
 k-point ** :   0.0000-0.1250 0.2500  plane waves:    2204
 k-point ** :   0.1250-0.1250 0.2500  plane waves:    2192
 k-point ** :   0.2500-0.1250 0.2500  plane waves:    2182
 k-point ** :   0.3750-0.1250 0.2500  plane waves:    2168
 k-point ** :   0.5000-0.1250 0.2500  plane waves:    2198
[...]
 k-point ** :  -0.2500 0.2500 0.5000  plane waves:    2248
 k-point ** :  -0.1250 0.2500 0.5000  plane waves:    2198
 k-point ** :   0.0000 0.3750 0.5000  plane waves:    2212
 k-point ** :   0.1250 0.3750 0.5000  plane waves:    2168
 k-point ** :   0.2500 0.3750 0.5000  plane waves:    2208
 k-point ** :   0.3750 0.3750 0.5000  plane waves:    2214
 k-point ** :   0.5000 0.3750 0.5000  plane waves:    2202
 k-point ** :  -0.3750 0.3750 0.5000  plane waves:    2216
 k-point ** :  -0.2500 0.3750 0.5000  plane waves:    2198
 k-point ** :  -0.1250 0.3750 0.5000  plane waves:    2212
 k-point ** :   0.0000 0.5000 0.5000  plane waves:    2212
 k-point ** :   0.1250 0.5000 0.5000  plane waves:    2212
 k-point ** :   0.2500 0.5000 0.5000  plane waves:    2204
 k-point ** :   0.3750 0.5000 0.5000  plane waves:    2202
 k-point ** :   0.5000 0.5000 0.5000  plane waves:    2208

 maximum and minimum number of plane-waves per node :       602      506

 maximum number of plane-waves:      2248
 maximum index in each direction:
   IXMAX=    7   IYMAX=    7   IZMAX=    7
   IXMIN=   -7   IYMIN=   -7   IZMIN=   -7

 parallel 3D FFT for wavefunctions:
    minimum data exchange during FFTs selected (reduces bandwidth)
 parallel 3D FFT for charge:
    minimum data exchange during FFTs selected (reduces bandwidth)

 Broyden mixing: mesh for mixing (old mesh)
   NGX = 15   NGY = 15   NGZ = 15
  (NGX  = 60   NGY  = 60   NGZ  = 60)
  gives a total of   3375 points

 initial charge density was supplied:
 charge density of overlapping atoms calculated
 number of electron       8.0000000 magnetization       1.0000000      1.0000000      1.0000000
 keeping initial charge density in first step

 Maximum index for augmentation-charges        14415 (set IRDMAX)

 First call to EWALD:  gamma=   0.553
 Maximum number of real-space cells 3x 3x 3
 Maximum number of reciprocal cells 3x 3x 3

--------------------------------------- Iteration      1(   1)  ---------------------------------------

 eigenvalue-minimisations  :  9360
 total energy-change (2. order) : 0.5226558E+02  (-0.3552953E+03)
 number of electron       8.0000000 magnetization       1.0000000      1.0000000      1.0000000
 augmentation part        8.0000000 magnetization       1.0000000      1.0000000      1.0000000

 Free energy of the ion-electron system (eV)
  alpha Z        PSCENC =         9.11235692
  Ewald energy   TEWEN  =      -415.02692176
  -Hartree energ DENC   =      -129.13352278
  -exchange      EXHF   =         0.00000000
  -V(xc)+E(xc)   XCENC  =        27.80634748
  PAW double counting   =       465.84220318     -468.61657345
  entropy T*S    EENTRO =        -0.00000042
  eigenvalues    EBANDS =       -16.76385066
  atomic energy  EATOM  =       579.04554086
  Solvation  Ediel_sol  =         0.00000000
  free energy    TOTEN  =        52.26557936 eV

  energy without entropy =       52.26557978  energy(sigma->0) =       52.26557950

[...]

 eigenvalue-minimisations  : 13396
 total energy-change (2. order) :-0.4859893E+02  (-0.4424875E+02)
 number of electron       8.0000000 magnetization       1.0000000      1.0000000      1.0000000
 augmentation part        8.0000000 magnetization       1.0000000      1.0000000      1.0000000

[...]

 Broyden mixing:
  rms(total) = 0.66272E+00    rms(broyden)= 0.66271E+00
  rms(prec ) = 0.66296E+00
  weight for this iteration     100.00

[...]

 eigenvalues of (default mixing * dielectric matrix)
  average eigenvalue GAMMA=   0.7667
  0.7667

[...]

 average (electrostatic) potential at core
  the test charge radii are     0.8078
  (the norm of the test charge is              1.0000)
       1-114.3476

 E-fermi :  -4.2964     XC(G=0):  -7.1800     alpha+bet : -5.1566

 k-point     1 :       0.0000    0.0000    0.0000
  band No.  band energies     occupation
      1     -19.3445      1.00000
      2     -19.3445      1.00000
      3      -4.5062      1.00576
      4      -4.5061      1.00576
      5      -4.3114      0.62534
      6      -4.3114      0.62520
      7      -4.3114      0.62507
      8      -4.3114      0.62488
      9       4.4530      0.00000
     10       4.4530      0.00000
     11      11.4889      0.00000
     12      11.4889      0.00000
     13      11.4889      0.00000
     14      11.4890      0.00000
     15      11.4919      0.00000
     16      11.4919      0.00000
     17      13.8905      0.00000
     18      13.8905      0.00000

[...]

 soft charge-density along one line, spin component           1
         0         1         2         3         4         5         6         7         8         9
 total charge-density along one line

[...]

------------------------ aborting loop because EDIFF is reached ----------------------------------------

         DFTD3 V3.0 Rev 1
 IVDW         = 12
 DF pbe
 parameters
 VDW_S6       =    1.0000
 VDW_S8       =    0.7875
 VDW_A1       =    0.4289
 VDW_A2       =    4.4407
 k1-k3        =   16.0000    1.3333   -4.0000
 VDW_RADIUS   =   50.2022 A
 VDW_CNRADIUS =   21.1671 A
 Edisp (eV)   -0.27717

 E6    (eV) :    -0.1881
 E8    (eV) :    -0.0890
 % E8        : 32.12

  FORCE on cell =-STRESS in cart. coord.  units (eV):
  Direction    XX          YY          ZZ          XY          YZ          ZX
  Alpha Z     9.11236     9.11236     9.11236
  Ewald    -138.34231  -138.34231  -138.34231    -0.00000    -0.00000     0.00000
  Hartree    43.15795    43.15795    43.15795     0.00000     0.00000     0.00000
  E(xc)     -31.87077   -31.87077   -31.87077    -0.00000    -0.00000    -0.00000
  Local    -110.76976  -110.76976  -110.76976    -0.00001    -0.00001    -0.00001
  n-local    94.15500    94.15501    94.15501    -0.00000     0.00000    -0.00000
  augment   -10.50772   -10.50773   -10.50773     0.00001     0.00000     0.00001
  Kinetic   145.41823   145.41823   145.41823    -0.00000    -0.00000    -0.00000
  Fock        0.00000     0.00000     0.00000     0.00000     0.00000     0.00000
  vdW        -0.34704    -0.34704    -0.34704     0.00000    -0.00000    -0.00000
  Total       0.00593     0.00593     0.00593    -0.00001    -0.00001    -0.00001
  in kB       0.28827     0.28818     0.28815    -0.00035    -0.00037    -0.00033

 VOLUME and BASIS-vectors are now :
  energy-cutoff  :      600.00
  volume of cell :       32.98
      direct lattice vectors                 reciprocal lattice vectors
     3.599490732  0.000000000  0.000000000     0.277817079 -0.160397765 -0.113418347
     1.799745366  3.117250415 -0.000000000     0.000000000  0.320795530 -0.113418347
     1.799745366  1.039083472  2.938971876    -0.000000000  0.000000000  0.340255042

[...]

 FORCES acting on ions
    electron-ion (+dipol)            ewald-force                    non-local-force                 convergence-correction
   0.221E-14 -.804E-15 0.251E-14   -.225E-15 -.134E-15 -.786E-17   -.529E-22 0.000E+00 0.000E+00   0.134E-14 0.340E-14 -.252E-14
   0.221E-14 -.804E-15 0.251E-14   -.225E-15 -.134E-15 -.786E-17   -.529E-22 0.000E+00 0.000E+00   0.134E-14 0.340E-14 -.252E-14

 POSITION                                       TOTAL-FORCE (eV/Angst)
      0.00000      0.00000      0.00000        -0.000000     -0.000000      0.000000
    total drift:                                0.000000      0.000000     -0.000000

  FREE ENERGIE OF THE ION-ELECTRON SYSTEM (eV)
  free  energy   TOTEN  =        -0.26337779 eV

  energy  without entropy=       -0.26482653  energy(sigma->0) =       -0.26386070

 Quasi-Newton relaxation of ions (Broydens 2nd method)
  g(Force)  = 0.000E+00   g(Stress)= 0.102E-05

 Reset! Starting new Quasi-Newton update for ions

[...]

 eigenvalue-minimisations  : 11596
 total energy-change (2. order) :-0.6257413E-04  (-0.3888521E-05)
 number of electron       8.0000000 magnetization       0.0002378      0.0002330      0.0002351
 augmentation part       -0.5139087 magnetization       0.0002379      0.0002328      0.0002350

[...]

 Broyden mixing:
  rms(total) = 0.11942E-04    rms(broyden)= 0.11942E-04
  rms(prec ) = 0.15506E-04
  weight for this iteration     100.00

 eigenvalues of (default mixing * dielectric matrix)
  average eigenvalue GAMMA=   1.2627
  2.8361  2.4272  1.7548  1.6829  1.0592  1.0592  0.6258  0.7999  0.7549  0.7549
  0.6987  0.6987

[...]

--------------------------------------- Iteration      2(   6)  ---------------------------------------

 eigenvalue-minimisations  :  5335
 total energy-change (2. order) : 0.8622953E-07  (-0.2897077E-09)
 number of electron       8.0000000 magnetization       0.0000092      0.0000092      0.0000092
 augmentation part       -0.5139168 magnetization       0.0000083      0.0000087      0.0000087

 Free energy of the ion-electron system (eV)
  alpha Z        PSCENC =         9.11079249
  Ewald energy   TEWEN  =      -415.00316949
  -Hartree energ DENC   =      -129.48918451
  -exchange      EXHF   =         0.00000000
  -V(xc)+E(xc)   XCENC  =        27.56440889
  PAW double counting   =       467.23677153     -470.01579996
  entropy T*S    EENTRO =         0.00144987
  eigenvalues    EBANDS =       -68.43707696
  atomic energy  EATOM  =       579.04554086
  Solvation  Ediel_sol  =         0.00000000
  free energy    TOTEN  =         0.01373272 eV

  energy without entropy =        0.01228285  energy(sigma->0) =        0.01324943

 average (electrostatic) potential at core
  the test charge radii are     0.8078
  (the norm of the test charge is              1.0000)
       1-114.3487

 E-fermi :  -4.2976     XC(G=0):  -7.1793     alpha+bet : -5.1558

[...]

 k-point   260 :       0.5000    0.5000    0.5000
  band No.  band energies     occupation
      1     -19.0586      1.00000
      2     -19.0586      1.00000
      3      -6.0178      1.00000
      4      -6.0178      1.00000
      5      -4.6165      1.00003
      6      -4.6165      1.00003
      7      -4.4941      1.00896
      8      -4.4940      1.00896
      9       7.1838      0.00000
     10       7.1838      0.00000
     11       9.9422      0.00000
     12       9.9422      0.00000
     13      11.0930      0.00000
     14      11.0930      0.00000
     15      11.0960      0.00000
     16      11.0960      0.00000
     17      15.6398      0.00000
     18      15.6424      0.00000

[...]

 soft charge-density along one line, spin component           4
         0         1         2         3         4         5         6         7         8         9
 total charge-density along one line

------------------------ aborting loop because EDIFF is reached ----------------------------------------

         DFTD3 V3.0 Rev 1
 Edisp (eV)   -0.27711

 E6    (eV) :    -0.1881
 E8    (eV) :    -0.0890
 % E8        : 32.12

  FORCE on cell =-STRESS in cart. coord.  units (eV):
  Direction    XX          YY          ZZ          XY          YZ          ZX
  Alpha Z     9.11079     9.11079     9.11079
  Ewald    -138.33439  -138.33439  -138.33439    -0.00000    -0.00000    -0.00000
  Hartree    43.16306    43.16306    43.16306     0.00000     0.00000     0.00000
  E(xc)     -31.87068   -31.87068   -31.87068    -0.00000    -0.00000     0.00000
  Local    -110.78108  -110.78108  -110.78108     0.00000     0.00000     0.00000
  n-local    94.15508    94.15508    94.15508    -0.00000    -0.00000    -0.00000
  augment   -10.50774   -10.50774   -10.50774     0.00000     0.00000     0.00000
  Kinetic   145.41820   145.41820   145.41820     0.00000     0.00000     0.00000
  Fock        0.00000     0.00000     0.00000     0.00000     0.00000     0.00000
  vdW        -0.34701    -0.34701    -0.34701    -0.00000    -0.00000    -0.00000
  Total       0.00623     0.00623     0.00623     0.00000     0.00000     0.00000
  in kB       0.30267     0.30259     0.30258     0.00005     0.00001     0.00003

 VOLUME and BASIS-vectors are now :
  energy-cutoff  :      600.00
  volume of cell :       32.98
      direct lattice vectors                 reciprocal lattice vectors
     3.599696745  0.000000000  0.000000000     0.277801179 -0.160388585 -0.113411856
     1.799848373  3.117428827 -0.000000000     0.000000000  0.320777171 -0.113411856
     1.799848373  1.039142942  2.939140085    -0.000000000  0.000000000  0.340235569

  length of vectors
     3.599696745  3.599696745  3.599696745     0.340235569  0.340235569  0.340235569

 FORCES acting on ions
    electron-ion (+dipol)            ewald-force                    non-local-force                 convergence-correction
   0.282E-14 -.714E-15 0.203E-14   0.344E-15 0.140E-15 -.637E-15   0.000E+00 0.000E+00 0.000E+00   0.573E-14 0.830E-15 -.351E-14
   0.282E-14 -.714E-15 0.203E-14   0.344E-15 0.140E-15 -.637E-15   0.000E+00 0.000E+00 0.000E+00   0.573E-14 0.830E-15 -.351E-14

 POSITION                                       TOTAL-FORCE (eV/Angst)
      0.00000      0.00000      0.00000        -0.000000      0.000000      0.000000
    total drift:                                0.000000      0.000000     -0.000000

  FREE ENERGIE OF THE ION-ELECTRON SYSTEM (eV)
  free  energy   TOTEN  =        -0.26337887 eV

  energy  without entropy=       -0.26482874  energy(sigma->0) =       -0.26386216

 d Force = 0.0000000E+00[ 0.000E+00, 0.000E+00]  d Energy = 0.1086756E-05-0.109E-05
 d Force = 0.0000000E+00[ 0.000E+00, 0.000E+00]  d Ewald  =-0.2375227E-01 0.238E-01

 Quasi-Newton relaxation of ions (Broydens 2nd method)
  g(Force)  = 0.000E+00   g(Stress)= 0.112E-05

 retain information from N=  1 steps
 eigenvalues of (default step * inverse Hessian matrix)
  average eigenvalue of G=  19.8986
 eigenvalue spectrum of G is 19.8986

 reached required accuracy - stopping structural energy minimisation

 Spin-Orbit-Coupling matrix elements

 Ion:    1  E_soc:     -0.0051549
 l=   1
     0.0000000    -0.0008591    -0.0008591
    -0.0008591     0.0000000    -0.0008591
    -0.0008591    -0.0008591     0.0000000
 l=   2
     0.0000000    -0.0000000     0.0000000    -0.0000000    -0.0000000
    -0.0000000     0.0000000    -0.0000000    -0.0000000    -0.0000000
     0.0000000    -0.0000000     0.0000000    -0.0000000     0.0000000
    -0.0000000    -0.0000000    -0.0000000     0.0000000    -0.0000000
    -0.0000000    -0.0000000     0.0000000    -0.0000000     0.0000000
 l=   3
     0.0000000     0.0000000     0.0000000     0.0000000     0.0000000     0.0000000     0.0000000
     0.0000000     0.0000000     0.0000000     0.0000000     0.0000000     0.0000000     0.0000000
     0.0000000     0.0000000     0.0000000     0.0000000     0.0000000     0.0000000     0.0000000
     0.0000000     0.0000000     0.0000000     0.0000000     0.0000000     0.0000000     0.0000000
     0.0000000     0.0000000     0.0000000     0.0000000     0.0000000     0.0000000     0.0000000
     0.0000000     0.0000000     0.0000000     0.0000000     0.0000000     0.0000000     0.0000000
     0.0000000     0.0000000     0.0000000     0.0000000     0.0000000     0.0000000     0.0000000