 vasp.5.4.4.18Apr17-6-g9f103f2a35 (build Nov 03 2018 10:20:43) complex

 executed on             LinuxIFC date 2018.12.03  16:13:33

 INCAR:
 POTCAR:    PAW Og, JanMewes Oct 18

 POTCAR:    PAW Og, JanMewes Oct 18
   VRHFIN =Og : 10d 2s 6p, PE

   TITEL  = PAW Og, JanMewes Oct 18
   POMASS =    0.010; ZVAL   =   18.000    mass and valenz
   ENMAX  =  339.336; ENMIN  =  254.502 eV
   QCUT   =   -4.994; QGAM   =    9.988    optimization parameters

  PAW Og, JanMewes Oct 18               :

 POSCAR: Og_FCC
  positions in direct lattice
  velocities in cartesian coordinates
 exchange correlation table for  LEXCH =        8
   RHO(1)=    0.500       N(1)  =     2000
   RHO(2)=  100.500       N(2)  =     4000

 ion  position               nearest neighbor table
   1  0.000  0.000  0.000-

  LATTYP: Found a face centered cubic cell.
 ALAT       =     7.1330275536

  Lattice vectors:

 A1 = (   5.0438121535,   0.0000000000,   0.0000000000)
 A2 = (   2.5219060767,   4.3680694568,  -0.0000000000)
 A3 = (   2.5219060767,   1.4560231523,   4.1182553783)

Analysis of symmetry for initial positions (statically):
 Subroutine PRICEL returns:
 Original cell was already a primitive cell.

 Routine SETGRP: Setting up the symmetry group for a
 face centered cubic supercell.

 Subroutine GETGRP returns: Found 48 space group operations
 (whereof 48 operations were pure point group operations)
 out of a pool of 48 trial point group operations.

The static configuration has the point symmetry O_h .

Analysis of symmetry for dynamics (positions and initial velocities):
 Subroutine PRICEL returns:
 Original cell was already a primitive cell.

 Routine SETGRP: Setting up the symmetry group for a
 face centered cubic supercell.

 Subroutine GETGRP returns: Found 48 space group operations
 (whereof 48 operations were pure point group operations)
 out of a pool of 48 trial point group operations.

The dynamic configuration has the point symmetry O_h .

 Subroutine INISYM returns: Found 48 space group operations
 (whereof 48 operations are pure point group operations),
 and found     1 'primitive' translations

Automatic generation of k-mesh.
 generate k-points for:    8    8    8
Space group operators:
 irot       det(A)        alpha          n_x          n_y          n_z        tau_x        tau_y        tau_z
    1     1.000000     0.000000     1.000000     0.000000     0.000000     0.000000     0.000000     0.000000
    2    -1.000000     0.000000     1.000000     0.000000     0.000000     0.000000     0.000000     0.000000
    3     1.000000   120.000000    -0.816497    -0.471405    -0.333333     0.000000     0.000000     0.000000
    4    -1.000000   120.000000    -0.816497    -0.471405    -0.333333     0.000000     0.000000     0.000000
    5     1.000000   120.000000     0.816497     0.471405     0.333333     0.000000     0.000000     0.000000
    6    -1.000000   120.000000     0.816497     0.471405     0.333333     0.000000     0.000000     0.000000
    7     1.000000    90.000000    -0.707107    -0.408248     0.577350     0.000000     0.000000     0.000000
    8    -1.000000    90.000000    -0.707107    -0.408248     0.577350     0.000000     0.000000     0.000000
    9     1.000000   180.000000     1.000000     0.000000     0.000000     0.000000     0.000000     0.000000
   10    -1.000000   180.000000     1.000000     0.000000     0.000000     0.000000     0.000000     0.000000
   11     1.000000    90.000000     0.707107    -0.408248     0.577350     0.000000     0.000000     0.000000
   12    -1.000000    90.000000     0.707107    -0.408248     0.577350     0.000000     0.000000     0.000000
   13     1.000000   180.000000     0.707107     0.408248    -0.577350     0.000000     0.000000     0.000000
   14    -1.000000   180.000000     0.707107     0.408248    -0.577350     0.000000     0.000000     0.000000
   15     1.000000   120.000000     0.816497    -0.471405    -0.333333     0.000000     0.000000     0.000000
   16    -1.000000   120.000000     0.816497    -0.471405    -0.333333     0.000000     0.000000     0.000000
   17     1.000000   120.000000     0.000000    -0.942809     0.333333     0.000000     0.000000     0.000000
   18    -1.000000   120.000000     0.000000    -0.942809     0.333333     0.000000     0.000000     0.000000
   19     1.000000    90.000000     0.707107     0.408248    -0.577350     0.000000     0.000000     0.000000
   20    -1.000000    90.000000     0.707107     0.408248    -0.577350     0.000000     0.000000     0.000000
   21     1.000000    90.000000    -0.000000    -0.816497    -0.577350     0.000000     0.000000     0.000000
   22    -1.000000    90.000000    -0.000000    -0.816497    -0.577350     0.000000     0.000000     0.000000
   23     1.000000   180.000000     0.500000     0.866025    -0.000000     0.000000     0.000000     0.000000
   24    -1.000000   180.000000     0.500000     0.866025    -0.000000     0.000000     0.000000     0.000000
   25     1.000000   120.000000     0.000000     0.942809    -0.333333     0.000000     0.000000     0.000000
   26    -1.000000   120.000000     0.000000     0.942809    -0.333333     0.000000     0.000000     0.000000
   27     1.000000   120.000000     0.000000    -0.000000    -1.000000     0.000000     0.000000     0.000000
   28    -1.000000   120.000000     0.000000    -0.000000    -1.000000     0.000000     0.000000     0.000000
   29     1.000000   180.000000     0.000000    -0.816497    -0.577350     0.000000     0.000000     0.000000
   30    -1.000000   180.000000     0.000000    -0.816497    -0.577350     0.000000     0.000000     0.000000
   31     1.000000    90.000000    -0.707107     0.408248    -0.577350     0.000000     0.000000     0.000000
   32    -1.000000    90.000000    -0.707107     0.408248    -0.577350     0.000000     0.000000     0.000000
   33     1.000000   180.000000     0.500000     0.288675     0.816497     0.000000     0.000000     0.000000
   34    -1.000000   180.000000     0.500000     0.288675     0.816497     0.000000     0.000000     0.000000
   35     1.000000    90.000000    -0.000000     0.816497     0.577350     0.000000     0.000000     0.000000
   36    -1.000000    90.000000    -0.000000     0.816497     0.577350     0.000000     0.000000     0.000000
   37     1.000000   120.000000    -0.816497     0.471405     0.333333     0.000000     0.000000     0.000000
   38    -1.000000   120.000000    -0.816497     0.471405     0.333333     0.000000     0.000000     0.000000
   39     1.000000   179.999999    -0.707107     0.408248    -0.577350     0.000000     0.000000     0.000000
   40    -1.000000   179.999999    -0.707107     0.408248    -0.577350     0.000000     0.000000     0.000000
   41     1.000000   120.000000     0.000000     0.000000     1.000000     0.000000     0.000000     0.000000
   42    -1.000000   120.000000     0.000000     0.000000     1.000000     0.000000     0.000000     0.000000
   43     1.000000   180.000000     0.000000     0.577350    -0.816497     0.000000     0.000000     0.000000
   44    -1.000000   180.000000     0.000000     0.577350    -0.816497     0.000000     0.000000     0.000000
   45     1.000000   180.000000    -0.500000     0.866025    -0.000000     0.000000     0.000000     0.000000
   46    -1.000000   180.000000    -0.500000     0.866025    -0.000000     0.000000     0.000000     0.000000
   47     1.000000   180.000000    -0.500000     0.288675     0.816497     0.000000     0.000000     0.000000
   48    -1.000000   180.000000    -0.500000     0.288675     0.816497     0.000000     0.000000     0.000000

 Subroutine IBZKPT returns following result:

 Found     29 irreducible k-points:

 Following reciprocal coordinates:
            Coordinates               Weight
  0.000000  0.000000  0.000000      1.000000
  0.125000  0.000000  0.000000      8.000000
  0.250000  0.000000  0.000000      8.000000
  0.375000  0.000000  0.000000      8.000000
  0.500000  0.000000  0.000000      4.000000
  0.125000  0.125000  0.000000      6.000000
  0.250000  0.125000  0.000000     24.000000
  0.375000  0.125000  0.000000     24.000000
  0.500000  0.125000  0.000000     24.000000
 -0.375000  0.125000  0.000000     24.000000
 -0.250000  0.125000 -0.000000     24.000000
 -0.125000  0.125000  0.000000     12.000000
  0.250000  0.250000  0.000000      6.000000
  0.375000  0.250000  0.000000     24.000000
  0.500000  0.250000  0.000000     24.000000
 -0.375000  0.250000  0.000000     24.000000
 -0.250000  0.250000  0.000000     12.000000
  0.375000  0.375000  0.000000      6.000000
  0.500000  0.375000  0.000000     24.000000
 -0.375000  0.375000  0.000000     12.000000
  0.500000  0.500000  0.000000      3.000000
  0.375000  0.250000  0.125000     24.000000
  0.500000  0.250000  0.125000     48.000000
 -0.375000  0.250000  0.125000     24.000000
  0.500000  0.375000  0.125000     24.000000
 -0.375000  0.375000  0.125000     48.000000
 -0.250000  0.375000  0.125000     24.000000
 -0.375000  0.500000  0.125000     12.000000
 -0.250000  0.500000  0.250000      6.000000

 Following cartesian coordinates:
            Coordinates               Weight
  0.000000  0.000000  0.000000      1.000000
  0.025278 -0.014595 -0.010320      8.000000
  0.050557 -0.029189 -0.020640      8.000000
  0.075835 -0.043784 -0.030960      8.000000
  0.101114 -0.058378 -0.041280      4.000000
  0.025278  0.014595 -0.020640      6.000000
  0.050557  0.000000 -0.030960     24.000000
  0.075835 -0.014595 -0.041280     24.000000
  0.101114 -0.029189 -0.051600     24.000000
 -0.075835  0.072973  0.020640     24.000000
 -0.050557  0.058378  0.010320     24.000000
 -0.025278  0.043784 -0.000000     12.000000
  0.050557  0.029189 -0.041280      6.000000
  0.075835  0.014595 -0.051600     24.000000
  0.101114  0.000000 -0.061919     24.000000
 -0.075835  0.102162  0.010320     24.000000
 -0.050557  0.087567 -0.000000     12.000000
  0.075835  0.043784 -0.061919      6.000000
  0.101114  0.029189 -0.072239     24.000000
 -0.075835  0.131351 -0.000000     12.000000
  0.101114  0.058378 -0.082559      3.000000
  0.075835  0.014595 -0.020640     24.000000
  0.101114  0.000000 -0.030960     48.000000
 -0.075835  0.102162  0.041280     24.000000
  0.101114  0.029189 -0.041280     24.000000
 -0.075835  0.131351  0.030960     48.000000
 -0.050557  0.116756  0.020640     24.000000
 -0.075835  0.160540  0.020640     12.000000
 -0.050557  0.145945  0.041280      6.000000

 SYSTEM =  Og_FCC
 POSCAR =  Og_FCC

 Startparameter for this run:
   NWRITE =      2    write-flag & timer
   PREC   = accura    normal or accurate (medium, high low for compatibility)
   ISTART =      0    job   : 0-new  1-cont  2-samecut
   ICHARG =      2    charge: 1-file 2-atom 10-const
   ISPIN  =      1    spin polarized calculation?
   LNONCOLLINEAR =      F non collinear calculations
   LSORBIT =      F    spin-orbit coupling
   INIWAV =      1    electr: 0-lowe 1-rand  2-diag
   LASPH  =      F    aspherical Exc in radial PAW
   METAGGA=      F    non-selfconsistent MetaGGA calc.

 Electronic Relaxation 1
   ENCUT  =  600.0 eV  44.10 Ry    6.64 a.u.  10.07 10.07 10.07*2*pi/ulx,y,z
   ENINI  =  600.0     initial cutoff
[...]
   IRESTART =      0    0=no restart 2=restart with 2 vectors
   NREBOOT  =      0    no. of reboots
   NMIN     =      0    reboot dimension
   EREF     =   0.00    reference energy to select bands
   IMIX   =      4    mixing-type and parameters
     AMIX     =   0.40;   BMIX     =  1.00
     AMIX_MAG =   1.60;   BMIX_MAG =  1.00
     AMIN     =   0.10
     WC   =   100.;   INIMIX=   1;  MIXPRE=   1;  MAXMIX=  50

 Intra band minimization:
   WEIMIN = 0.0000     energy-eigenvalue tresh-hold
   EBREAK =  0.19E-08  absolut break condition
   DEPER  =   0.30     relativ break condition

   TIME   =   0.40     timestep for ELM

  volume/ion in A,a.u.               =      90.73       612.29
  Fermi-wavevector in a.u.,A,eV,Ry     =   0.954799  1.804308 12.403620  0.911640
  Thomas-Fermi vector in A             =   2.083578

 Write flags
   LWAVE        =      F    write WAVECAR
   LDOWNSAMPLE  =      F    k-point downsampling of WAVECAR
   LCHARG       =      F    write CHGCAR
   LVTOT        =      F    write LOCPOT, total local potential
   LVHAR        =      F    write LOCPOT, Hartree potential only
   LELF         =      F    write electronic localiz. function (ELF)
   LORBIT       =      0    0 simple, 1 ext, 2 COOP (PROOUT), +10 PAW based schemes

 Dipole corrections
   LMONO  =      F    monopole corrections only (constant potential shift)
   LDIPOL =      F    correct potential (dipole corrections)
   IDIPOL =      0    1-x, 2-y, 3-z, 4-all directions
   EPSILON=  1.0000000 bulk dielectric constant

 Exchange correlation treatment:
   GGA     =    PE    GGA type
   VOSKOWN=      0    Vosko Wilk Nusair interpolation
   LHFCALC =     F    Hartree Fock is set to
   LHFONE  =     F    Hartree Fock one center treatment
   AEXX    =    0.0000 exact exchange contribution

 Linear response parameters
   LEPSILON=     F    determine dielectric tensor
   LRPA    =     F    only Hartree local field effects (RPA)
   LNABLA  =     F    use nabla operator in PAW spheres
   LVEL    =     F    velocity operator in full k-point grid
   LINTERFAST=   F  fast interpolation
   KINTER  =     0    interpolate to denser k-point grid
   CSHIFT  =0.1000    complex shift for real part using Kramers Kronig
   OMEGAMAX=  -1.0    maximum frequency
   DEG_THRESHOLD= 0.2000000E-02 threshold for treating states as degnerate
   RTIME   =   -0.100 relaxation time in fs
  (WPLASMAI=    0.000 imaginary part of plasma frequency in eV, 0.658/RTIME)
   DFIELD  = 0.0000000 0.0000000 0.0000000 field for delta impulse in time

 Orbital magnetization related:
   ORBITALMAG=     F  switch on orbital magnetization
   LCHIMAG   =     F  perturbation theory with respect to B field
   DQ        =  0.001000  dq finite difference perturbation B field
   LLRAUG    =     F  two centre corrections for induced B field

 Static calculation
 charge density and potential will be updated during run
 non-spin polarized calculation
 RMM-DIIS sequential band-by-band and
  variant of blocked Davidson during initial phase
 perform sub-space diagonalisation
    before iterative eigenvector-optimisation
 modified Broyden-mixing scheme, WC =      100.0
 initial mixing is a Kerker type mixing with AMIX =  0.4000 and BMIX =      1.0000
 Hartree-type preconditioning will be used
 using additional bands            4
 reciprocal scheme for non local part
 use partial core corrections
 calculate Harris-corrections to forces
   (improved forces if not selfconsistent)
 use gradient corrections
 use of overlap-Matrix (Vanderbilt PP)
 Methfessel and Paxton  Order N= 1 SIGMA  =   0.10

  energy-cutoff  :      600.00
  volume of cell :       90.73
      direct lattice vectors                 reciprocal lattice vectors
     5.043812153  0.000000000  0.000000000     0.198262737 -0.114467044 -0.080940423
     2.521906077  4.368069457 -0.000000000     0.000000000  0.228934089 -0.080940423
     2.521906077  1.456023152  4.118255378    -0.000000000  0.000000000  0.242821270

  length of vectors
     5.043812153  5.043812153  5.043812154     0.242821270  0.242821270  0.242821270

 k-points in units of 2pi/SCALE and weight: read from INCAR
   0.00000000  0.00000000  0.00000000       0.002
   0.02527850 -0.01459455 -0.01031990       0.016
   0.05055700 -0.02918910 -0.02063981       0.016
   0.07583550 -0.04378364 -0.03095971       0.016
   0.10111400 -0.05837819 -0.04127962       0.008
   0.02527850  0.01459455 -0.02063981       0.012
   0.05055700  0.00000000 -0.03095971       0.047
   0.07583550 -0.01459455 -0.04127962       0.047
   0.10111400 -0.02918910 -0.05159952       0.047
  -0.07583550  0.07297274  0.02063981       0.047
  -0.05055700  0.05837819  0.01031990       0.047
  -0.02527850  0.04378364 -0.00000000       0.023
   0.05055700  0.02918910 -0.04127962       0.012
   0.07583550  0.01459455 -0.05159952       0.047
   0.10111400  0.00000000 -0.06191942       0.047
  -0.07583550  0.10216184  0.01031990       0.047
  -0.05055700  0.08756729 -0.00000000       0.023
   0.07583550  0.04378364 -0.06191942       0.012
   0.10111400  0.02918910 -0.07223933       0.047
  -0.07583550  0.13135093 -0.00000000       0.023
   0.10111400  0.05837819 -0.08255923       0.006
   0.07583550  0.01459455 -0.02063981       0.047
   0.10111400  0.00000000 -0.03095971       0.094
  -0.07583550  0.10216184  0.04127962       0.047
   0.10111400  0.02918910 -0.04127962       0.047
  -0.07583550  0.13135093  0.03095971       0.094
  -0.05055700  0.11675639  0.02063981       0.047
  -0.07583550  0.16054003  0.02063981       0.023
  -0.05055700  0.14594548  0.04127962       0.012

 k-points in reciprocal lattice and weights: read from INCAR
   0.00000000  0.00000000  0.00000000       0.002
   0.12500000  0.00000000  0.00000000       0.016
   0.25000000  0.00000000  0.00000000       0.016
   0.37500000  0.00000000  0.00000000       0.016
   0.50000000  0.00000000  0.00000000       0.008
   0.12500000  0.12500000  0.00000000       0.012
   0.25000000  0.12500000  0.00000000       0.047
   0.37500000  0.12500000  0.00000000       0.047
   0.50000000  0.12500000  0.00000000       0.047
  -0.37500000  0.12500000  0.00000000       0.047
  -0.25000000  0.12500000 -0.00000000       0.047
  -0.12500000  0.12500000  0.00000000       0.023
   0.25000000  0.25000000  0.00000000       0.012
   0.37500000  0.25000000  0.00000000       0.047
   0.50000000  0.25000000  0.00000000       0.047
  -0.37500000  0.25000000  0.00000000       0.047
  -0.25000000  0.25000000  0.00000000       0.023
   0.37500000  0.37500000  0.00000000       0.012
   0.50000000  0.37500000  0.00000000       0.047
  -0.37500000  0.37500000  0.00000000       0.023
   0.50000000  0.50000000  0.00000000       0.006
   0.37500000  0.25000000  0.12500000       0.047
   0.50000000  0.25000000  0.12500000       0.094
  -0.37500000  0.25000000  0.12500000       0.047
   0.50000000  0.37500000  0.12500000       0.047
  -0.37500000  0.37500000  0.12500000       0.094
  -0.25000000  0.37500000  0.12500000       0.047
  -0.37500000  0.50000000  0.12500000       0.023
  -0.25000000  0.50000000  0.25000000       0.012

 position of ions in fractional coordinates (direct lattice)
   0.00000000  0.00000000  0.00000000

 position of ions in cartesian coordinates  (Angst):
   0.00000000  0.00000000  0.00000000

 k-point  1 :   0.0000 0.0000 0.0000  plane waves:    2975
 k-point  2 :   0.1250 0.0000 0.0000  plane waves:    3014
 k-point  3 :   0.2500 0.0000 0.0000  plane waves:    3001
 k-point  4 :   0.3750 0.0000 0.0000  plane waves:    3016
 k-point  5 :   0.5000 0.0000 0.0000  plane waves:    3040
 k-point  6 :   0.1250 0.1250 0.0000  plane waves:    3006
 k-point  7 :   0.2500 0.1250 0.0000  plane waves:    3012
 k-point  8 :   0.3750 0.1250 0.0000  plane waves:    3006
 k-point  9 :   0.5000 0.1250 0.0000  plane waves:    3039
 k-point 10 :  -0.3750 0.1250 0.0000  plane waves:    3029
 k-point 11 :  -0.2500 0.1250-0.0000  plane waves:    3016
 k-point 12 :  -0.1250 0.1250 0.0000  plane waves:    3012
 k-point 13 :   0.2500 0.2500 0.0000  plane waves:    3042
 k-point 14 :   0.3750 0.2500 0.0000  plane waves:    3031
 k-point 15 :   0.5000 0.2500 0.0000  plane waves:    3022
 k-point 16 :  -0.3750 0.2500 0.0000  plane waves:    3031
 k-point 17 :  -0.2500 0.2500 0.0000  plane waves:    3042
 k-point 18 :   0.3750 0.3750 0.0000  plane waves:    3034
 k-point 19 :   0.5000 0.3750 0.0000  plane waves:    3028
 k-point 20 :  -0.3750 0.3750 0.0000  plane waves:    3032
 k-point 21 :   0.5000 0.5000 0.0000  plane waves:    3026
 k-point 22 :   0.3750 0.2500 0.1250  plane waves:    3017
 k-point 23 :   0.5000 0.2500 0.1250  plane waves:    3032
 k-point 24 :  -0.3750 0.2500 0.1250  plane waves:    3052
 k-point 25 :   0.5000 0.3750 0.1250  plane waves:    3032
 k-point 26 :  -0.3750 0.3750 0.1250  plane waves:    3044
 k-point 27 :  -0.2500 0.3750 0.1250  plane waves:    3044
 k-point 28 :  -0.3750 0.5000 0.1250  plane waves:    3024
 k-point 29 :  -0.2500 0.5000 0.2500  plane waves:    3028

 maximum and minimum number of plane-waves per node :      1532     1479

 maximum number of plane-waves:      3052
 maximum index in each direction:
   IXMAX=   10   IYMAX=   10   IZMAX=   10
   IXMIN=  -10   IYMIN=  -10   IZMIN=  -10

 parallel 3D FFT for wavefunctions:
    minimum data exchange during FFTs selected (reduces bandwidth)
 parallel 3D FFT for charge:
    minimum data exchange during FFTs selected (reduces bandwidth)

 Broyden mixing: mesh for mixing (old mesh)
   NGX = 21   NGY = 21   NGZ = 21
  (NGX  = 80   NGY  = 80   NGZ  = 80)
  gives a total of   9261 points

 initial charge density was supplied:
 charge density of overlapping atoms calculated
 number of electron      18.0000000 magnetization
 keeping initial charge density in first step

 Maximum index for augmentation-charges       164409 (set IRDMAX)

 First call to EWALD:  gamma=   0.394
 Maximum number of real-space cells 3x 3x 3
 Maximum number of reciprocal cells 3x 3x 3

--------------------------------------- Iteration      1(   1)  ---------------------------------------

 eigenvalue-minimisations  :   754
 total energy-change (2. order) : 0.3193769E+03  (-0.8510987E+03)
 number of electron      18.0000000 magnetization
 augmentation part       18.0000000 magnetization

 Free energy of the ion-electron system (eV)
  alpha Z        PSCENC =        42.04961645
  Ewald energy   TEWEN  =     -1499.42055927
  -Hartree energ DENC   =      -829.03028450
  -exchange      EXHF   =         0.00000000
  -V(xc)+E(xc)   XCENC  =       -69.60702378
  PAW double counting   =      2268.42939301    -2184.22833953
  entropy T*S    EENTRO =        -0.00142855
  eigenvalues    EBANDS =       -49.34321319
  atomic energy  EATOM  =      2640.52872706
  Solvation  Ediel_sol  =         0.00000000
  free energy    TOTEN  =       319.37688769 eV

  energy without entropy =      319.37831623  energy(sigma->0) =      319.37736387

[...]

 eigenvalue-minimisations  :  1162
 total energy-change (2. order) :-0.3058992E+03  (-0.2917214E+03)
 number of electron      18.0000000 magnetization
 augmentation part       18.0000000 magnetization

[...]

 Broyden mixing:
  rms(total) = 0.13247E-01    rms(broyden)= 0.12033E-01
  rms(prec ) = 0.21807E-01
  weight for this iteration     100.00

[...]

 eigenvalues of (default mixing * dielectric matrix)
  average eigenvalue GAMMA=   2.2301
  2.2301

[...]

 eigenvalue-minimisations  :   839
 total energy-change (2. order) :-0.3526488E-06  (-0.8247814E-07)
 number of electron      18.0000000 magnetization
 augmentation part        2.9910026 magnetization

 Broyden mixing:
  rms(total) = 0.26261E-04    rms(broyden)= 0.26054E-04
  rms(prec ) = 0.55153E-04
  weight for this iteration     100.00

 eigenvalues of (default mixing * dielectric matrix)
  average eigenvalue GAMMA=   2.0853
  3.3753  0.8932  0.9848  2.5255  2.5255  2.2076

[...]

--------------------------------------- Iteration      1(  12)  ---------------------------------------

 eigenvalue-minimisations  :   664
 total energy-change (2. order) : 0.1514172E-07  (-0.1528191E-07)
 number of electron      18.0000000 magnetization
 augmentation part        2.9910026 magnetization

 Free energy of the ion-electron system (eV)
  alpha Z        PSCENC =        42.04961645
  Ewald energy   TEWEN  =     -1499.42055927
  -Hartree energ DENC   =      -828.44765505
  -exchange      EXHF   =         0.00000000
  -V(xc)+E(xc)   XCENC  =       -69.64152688
  PAW double counting   =      2266.28401631    -2182.07133909
  entropy T*S    EENTRO =         0.00296939
  eigenvalues    EBANDS =      -369.30002174
  atomic energy  EATOM  =      2640.52872706
  Solvation  Ediel_sol  =         0.00000000
  free energy    TOTEN  =        -0.01577281 eV

  energy without entropy =       -0.01874220  energy(sigma->0) =       -0.01676261

 average (electrostatic) potential at core
  the test charge radii are     1.2024
  (the norm of the test charge is              1.0000)
       1-115.1686

 E-fermi :  -1.7035     XC(G=0):  -6.1905     alpha+bet : -4.8364

 k-point     1 :       0.0000    0.0000    0.0000
  band No.  band energies     occupation
      1     -30.8262      2.00000
      2     -30.8262      2.00000
      3     -30.8262      2.00000
      4     -30.8259      2.00000
      5     -30.8259      2.00000
      6     -23.7595      2.00000
      7      -1.7268      1.38322
      8      -1.7268      1.38322
      9      -1.7268      1.38322
     10       1.5084      0.00000
     11       7.4128      0.00000
     12       7.4128      0.00000
     13       7.4128      0.00000

[...]

 k-point    29 :      -0.2500    0.5000    0.2500
  band No.  band energies     occupation
      1     -30.8259      2.00000
      2     -30.8258      2.00000
      3     -30.8258      2.00000
      4     -30.8256      2.00000
      5     -30.8252      2.00000
      6     -23.7416      2.00000
      7      -2.5322      2.00000
      8      -2.5322      2.00000
      9      -2.2021      2.00000
     10       5.4319      0.00000
     11       5.9536      0.00000
     12       6.5853      0.00000
     13       6.5853      0.00000

 soft charge-density along one line, spin component           1
         0         1         2         3         4         5         6         7         8         9
 total charge-density along one line

------------------------ aborting loop because EDIFF is reached ----------------------------------------

  FORCE on cell =-STRESS in cart. coord.  units (eV):
  Direction    XX          YY          ZZ          XY          YZ          ZX
  Alpha Z    42.04962    42.04962    42.04962
  Ewald    -499.80687  -499.80687  -499.80687     0.00000    -0.00000     0.00000
  Hartree   276.14793   276.14793   276.14793     0.00000    -0.00000     0.00000
  E(xc)    -110.38351  -110.38351  -110.38351     0.00000     0.00000     0.00000
  Local    -274.73541  -274.73543  -274.73543     0.00001     0.00000     0.00001
  n-local    98.73723   100.97647   102.13756     0.79028    -0.21910     2.20711
  augment    79.64856    79.64857    79.64857    -0.00001    -0.00000    -0.00001
  Kinetic   384.84842   386.71568   387.71720     0.73870    -0.07630     1.90465
  Fock        0.00000     0.00000     0.00000     0.00000     0.00000     0.00000
  Total      -0.03549    -0.03549    -0.03549     0.00000     0.00000     0.00000
  in kB      -0.62669    -0.62669    -0.62669     0.00000     0.00000     0.00000

 VOLUME and BASIS-vectors are now :
  energy-cutoff  :      600.00
  volume of cell :       90.73
      direct lattice vectors                 reciprocal lattice vectors
     5.043812153  0.000000000  0.000000000     0.198262737 -0.114467044 -0.080940423
     2.521906077  4.368069457 -0.000000000     0.000000000  0.228934089 -0.080940423
     2.521906077  1.456023152  4.118255378    -0.000000000  0.000000000  0.242821270

  length of vectors
     5.043812153  5.043812153  5.043812154     0.242821270  0.242821270  0.242821270

 FORCES acting on ions
    electron-ion (+dipol)            ewald-force                    non-local-force                 convergence-correction
   -.403E-13 0.756E-14 -.647E-13   0.389E-14 0.150E-15 -.539E-15   -.424E-21 0.159E-21 0.000E+00   -.192E-12 -.175E-13 -.131E-12
   -.403E-13 0.756E-14 -.647E-13   0.389E-14 0.150E-15 -.539E-15   -.424E-21 0.159E-21 0.000E+00   -.192E-12 -.175E-13 -.131E-12

 POSITION                                       TOTAL-FORCE (eV/Angst)
      0.00000      0.00000      0.00000        -0.000000      0.000000     -0.000000
    total drift:                               -0.000000     -0.000000     -0.000000

  FREE ENERGIE OF THE ION-ELECTRON SYSTEM (eV)
  free  energy   TOTEN  =        -0.01577281 eV

  energy  without entropy=       -0.01874220  energy(sigma->0) =       -0.01676261