 vasp.5.4.4.18Apr17-6-g9f103f2a35 (build Nov 03 2018 10:20:43) complex

 executed on             LinuxIFC date 2018.12.03  15:05:20

 INCAR:
 POTCAR:    PAW_PBE Xe_GW 08Jan2009

 POTCAR:    PAW_PBE Xe_GW 08Jan2009
   VRHFIN =Xe: s2p6

   TITEL  = PAW_PBE Xe_GW 08Jan2009
   POMASS =  131.294; ZVAL   =    8.000    mass and valenz
   ENMAX  =  179.547; ENMIN  =  134.660 eV

  PAW_PBE Xe_GW 08Jan2009               :

 POSCAR: Kr_FCC
  positions in direct lattice
  velocities in cartesian coordinates

 METAGGA = SCAN     LMAXTAU =  0    LMIXTAU =  F

 ion  position               nearest neighbor table
   1  0.000  0.000  0.000-

  LATTYP: Found a face centered cubic cell.
 ALAT       =     6.3076408150

  Lattice vectors:

 A1 = (   4.4601755935,   0.0000000000,   0.0000000000)
 A2 = (   2.2300877967,   3.8626253692,  -0.0000000000)
 A3 = (   2.2300877967,   1.2875417897,   3.6417181225)

Analysis of symmetry for initial positions (statically):
 Subroutine PRICEL returns:
 Original cell was already a primitive cell.

 Routine SETGRP: Setting up the symmetry group for a
 face centered cubic supercell.

 Subroutine GETGRP returns: Found 48 space group operations
 (whereof 48 operations were pure point group operations)
 out of a pool of 48 trial point group operations.

The static configuration has the point symmetry O_h .

Analysis of symmetry for dynamics (positions and initial velocities):
 Subroutine PRICEL returns:
 Original cell was already a primitive cell.

 Routine SETGRP: Setting up the symmetry group for a
 face centered cubic supercell.

 Subroutine GETGRP returns: Found 48 space group operations
 (whereof 48 operations were pure point group operations)
 out of a pool of 48 trial point group operations.

The dynamic configuration has the point symmetry O_h .

 Subroutine INISYM returns: Found 48 space group operations
 (whereof 48 operations are pure point group operations),
 and found     1 'primitive' translations

Automatic generation of k-mesh.
 generate k-points for:    9    9    9
Space group operators:
 irot       det(A)        alpha          n_x          n_y          n_z        tau_x        tau_y        tau_z
    1     1.000000     0.000001     1.000000     0.000000     0.000000     0.000000     0.000000     0.000000
    2    -1.000000     0.000001     1.000000     0.000000     0.000000     0.000000     0.000000     0.000000
    3     1.000000   120.000000    -0.816497    -0.471405    -0.333333     0.000000     0.000000     0.000000
    4    -1.000000   120.000000    -0.816497    -0.471405    -0.333333     0.000000     0.000000     0.000000
    5     1.000000   120.000000     0.816497     0.471405     0.333333     0.000000     0.000000     0.000000
    6    -1.000000   120.000000     0.816497     0.471405     0.333333     0.000000     0.000000     0.000000
    7     1.000000    90.000000    -0.707107    -0.408248     0.577350     0.000000     0.000000     0.000000
    8    -1.000000    90.000000    -0.707107    -0.408248     0.577350     0.000000     0.000000     0.000000
    9     1.000000   179.999999     1.000000     0.000000     0.000000     0.000000     0.000000     0.000000
   10    -1.000000   179.999999     1.000000     0.000000     0.000000     0.000000     0.000000     0.000000
   11     1.000000    90.000000     0.707107    -0.408248     0.577350     0.000000     0.000000     0.000000
   12    -1.000000    90.000000     0.707107    -0.408248     0.577350     0.000000     0.000000     0.000000
   13     1.000000   179.999999     0.707107     0.408248    -0.577350     0.000000     0.000000     0.000000
   14    -1.000000   179.999999     0.707107     0.408248    -0.577350     0.000000     0.000000     0.000000
   15     1.000000   120.000000     0.816497    -0.471405    -0.333333     0.000000     0.000000     0.000000
   16    -1.000000   120.000000     0.816497    -0.471405    -0.333333     0.000000     0.000000     0.000000
   17     1.000000   120.000000     0.000000    -0.942809     0.333333     0.000000     0.000000     0.000000
   18    -1.000000   120.000000     0.000000    -0.942809     0.333333     0.000000     0.000000     0.000000
   19     1.000000    90.000000     0.707107     0.408248    -0.577350     0.000000     0.000000     0.000000
   20    -1.000000    90.000000     0.707107     0.408248    -0.577350     0.000000     0.000000     0.000000
   21     1.000000    90.000000    -0.000000    -0.816497    -0.577350     0.000000     0.000000     0.000000
   22    -1.000000    90.000000    -0.000000    -0.816497    -0.577350     0.000000     0.000000     0.000000
   23     1.000000   180.000000     0.500000     0.866025     0.000000     0.000000     0.000000     0.000000
   24    -1.000000   180.000000     0.500000     0.866025     0.000000     0.000000     0.000000     0.000000
   25     1.000000   120.000000     0.000000     0.942809    -0.333333     0.000000     0.000000     0.000000
   26    -1.000000   120.000000     0.000000     0.942809    -0.333333     0.000000     0.000000     0.000000
   27     1.000000   120.000000    -0.000000     0.000000    -1.000000     0.000000     0.000000     0.000000
   28    -1.000000   120.000000    -0.000000     0.000000    -1.000000     0.000000     0.000000     0.000000
   29     1.000000   180.000000     0.000000    -0.816497    -0.577350     0.000000     0.000000     0.000000
   30    -1.000000   180.000000     0.000000    -0.816497    -0.577350     0.000000     0.000000     0.000000
   31     1.000000    90.000000    -0.707107     0.408248    -0.577350     0.000000     0.000000     0.000000
   32    -1.000000    90.000000    -0.707107     0.408248    -0.577350     0.000000     0.000000     0.000000
   33     1.000000   180.000000     0.500000     0.288675     0.816497     0.000000     0.000000     0.000000
   34    -1.000000   180.000000     0.500000     0.288675     0.816497     0.000000     0.000000     0.000000
   35     1.000000    90.000000    -0.000000     0.816497     0.577350     0.000000     0.000000     0.000000
   36    -1.000000    90.000000    -0.000000     0.816497     0.577350     0.000000     0.000000     0.000000
   37     1.000000   120.000000    -0.816497     0.471405     0.333333     0.000000     0.000000     0.000000
   38    -1.000000   120.000000    -0.816497     0.471405     0.333333     0.000000     0.000000     0.000000
   39     1.000000   179.999999     0.707107    -0.408248     0.577350     0.000000     0.000000     0.000000
   40    -1.000000   179.999999     0.707107    -0.408248     0.577350     0.000000     0.000000     0.000000
   41     1.000000   120.000000    -0.000000    -0.000000     1.000000     0.000000     0.000000     0.000000
   42    -1.000000   120.000000    -0.000000    -0.000000     1.000000     0.000000     0.000000     0.000000
   43     1.000000   180.000000    -0.000000    -0.577350     0.816497     0.000000     0.000000     0.000000
   44    -1.000000   180.000000    -0.000000    -0.577350     0.816497     0.000000     0.000000     0.000000
   45     1.000000   180.000000    -0.500000     0.866025     0.000000     0.000000     0.000000     0.000000
   46    -1.000000   180.000000    -0.500000     0.866025     0.000000     0.000000     0.000000     0.000000
   47     1.000000   179.999999    -0.500000     0.288675     0.816497     0.000000     0.000000     0.000000
   48    -1.000000   179.999999    -0.500000     0.288675     0.816497     0.000000     0.000000     0.000000

 Subroutine IBZKPT returns following result:

 Found     35 irreducible k-points:

 Following reciprocal coordinates:
            Coordinates               Weight
  0.000000  0.000000  0.000000      1.000000
  0.111111  0.000000  0.000000      8.000000
  0.222222 -0.000000  0.000000      8.000000
  0.333333  0.000000  0.000000      8.000000
  0.444444 -0.000000  0.000000      8.000000
  0.111111  0.111111  0.000000      6.000000
  0.222222  0.111111  0.000000     24.000000
  0.333333  0.111111  0.000000     24.000000
  0.444444  0.111111  0.000000     24.000000
 -0.444444  0.111111 -0.000000     24.000000
 -0.333333  0.111111 -0.000000     24.000000
 -0.222222  0.111111 -0.000000     24.000000
 -0.111111  0.111111 -0.000000     12.000000
  0.222222  0.222222  0.000000      6.000000
  0.333333  0.222222  0.000000     24.000000
  0.444444  0.222222  0.000000     24.000000
 -0.444444  0.222222 -0.000000     24.000000
 -0.333333  0.222222 -0.000000     24.000000
 -0.222222  0.222222 -0.000000     12.000000
  0.333333  0.333333  0.000000      6.000000
  0.444444  0.333333  0.000000     24.000000
 -0.444444  0.333333 -0.000000     24.000000
 -0.333333  0.333333 -0.000000     12.000000
  0.444444  0.444444  0.000000      6.000000
 -0.444444  0.444444 -0.000000     12.000000
  0.333333  0.222222  0.111111     24.000000
  0.444444  0.222222  0.111111     48.000000
 -0.444444  0.222222  0.111111     48.000000
  0.444444  0.333333  0.111111     24.000000
 -0.444444  0.333333  0.111111     48.000000
 -0.333333  0.333333  0.111111     48.000000
 -0.222222  0.333333  0.111111     24.000000
 -0.444444  0.444444  0.111111     24.000000
 -0.333333  0.444444  0.111111     24.000000
 -0.333333  0.444444  0.222222     24.000000

 Following cartesian coordinates:
            Coordinates               Weight
  0.000000  0.000000  0.000000      1.000000
  0.024912 -0.014383 -0.010170      8.000000
  0.049824 -0.028766 -0.020340      8.000000
  0.074735 -0.043149 -0.030511      8.000000
  0.099647 -0.057531 -0.040681      8.000000
  0.024912  0.014383 -0.020340      6.000000
  0.049824 -0.000000 -0.030511     24.000000
  0.074735 -0.014383 -0.040681     24.000000
  0.099647 -0.028766 -0.050851     24.000000
 -0.099647  0.086297  0.030511     24.000000
 -0.074735  0.071914  0.020340     24.000000
 -0.049824  0.057531  0.010170     24.000000
 -0.024912  0.043149  0.000000     12.000000
  0.049824  0.028766 -0.040681      6.000000
  0.074735  0.014383 -0.050851     24.000000
  0.099647  0.000000 -0.061021     24.000000
 -0.099647  0.115063  0.020340     24.000000
 -0.074735  0.100680  0.010170     24.000000
 -0.049824  0.086297  0.000000     12.000000
  0.074735  0.043149 -0.061021      6.000000
  0.099647  0.028766 -0.071191     24.000000
 -0.099647  0.143828  0.010170     24.000000
 -0.074735  0.129446  0.000000     12.000000
  0.099647  0.057531 -0.081362      6.000000
 -0.099647  0.172594  0.000000     12.000000
  0.074735  0.014383 -0.020340     24.000000
  0.099647  0.000000 -0.030511     48.000000
 -0.099647  0.115063  0.050851     48.000000
  0.099647  0.028766 -0.040681     24.000000
 -0.099647  0.143828  0.040681     48.000000
 -0.074735  0.129446  0.030511     48.000000
 -0.049824  0.115063  0.020340     24.000000
 -0.099647  0.172594  0.030511     24.000000
 -0.074735  0.158211  0.020340     24.000000
 -0.074735  0.158211  0.050851     24.000000

 SYSTEM =  Cn_FCC
 POSCAR =  Kr_FCC

 Startparameter for this run:
   NWRITE =      2    write-flag & timer
   PREC   = accura    normal or accurate (medium, high low for compatibility)
   ISTART =      0    job   : 0-new  1-cont  2-samecut
   ICHARG =      2    charge: 1-file 2-atom 10-const
   ISPIN  =      1    spin polarized calculation?
[...]
   LDIPOL =      F    correct potential (dipole corrections)
   IDIPOL =      0    1-x, 2-y, 3-z, 4-all directions
   EPSILON=  1.0000000 bulk dielectric constant

 Exchange correlation treatment:
   GGA     =    --    GGA type
   VOSKOWN=      0    Vosko Wilk Nusair interpolation
   LHFCALC =     F    Hartree Fock is set to
   LHFONE  =     F    Hartree Fock one center treatment
   AEXX    =    0.0000 exact exchange contribution

 Linear response parameters
   LEPSILON=     F    determine dielectric tensor
   LRPA    =     F    only Hartree local field effects (RPA)
   LNABLA  =     F    use nabla operator in PAW spheres
   LVEL    =     F    velocity operator in full k-point grid
   LINTERFAST=   F  fast interpolation
   KINTER  =     0    interpolate to denser k-point grid
   CSHIFT  =0.1000    complex shift for real part using Kramers Kronig
   OMEGAMAX=  -1.0    maximum frequency
   DEG_THRESHOLD= 0.2000000E-02 threshold for treating states as degnerate
   RTIME   =   -0.100 relaxation time in fs
  (WPLASMAI=    0.000 imaginary part of plasma frequency in eV, 0.658/RTIME)
   DFIELD  = 0.0000000 0.0000000 0.0000000 field for delta impulse in time

 Orbital magnetization related:
   ORBITALMAG=     F  switch on orbital magnetization
   LCHIMAG   =     F  perturbation theory with respect to B field
   DQ        =  0.001000  dq finite difference perturbation B field
   LLRAUG    =     F  two centre corrections for induced B field

 quasi-Newton-method for relaxation of ions
 charge density and potential will be updated during run
 non-spin polarized calculation
 RMM-DIIS sequential band-by-band and
  variant of blocked Davidson during initial phase
 perform sub-space diagonalisation
    before iterative eigenvector-optimisation
 modified Broyden-mixing scheme, WC =      100.0
 initial mixing is a Kerker type mixing with AMIX =  0.4000 and BMIX =      1.0000
 Hartree-type preconditioning will be used
 using additional bands            4
 reciprocal scheme for non local part
 use partial core corrections
 calculate Harris-corrections to forces
   (improved forces if not selfconsistent)
 use gradient corrections
 use of overlap-Matrix (Vanderbilt PP)
 Methfessel and Paxton  Order N= 1 SIGMA  =   0.10

  energy-cutoff  :      600.00
  volume of cell :       62.74
      direct lattice vectors                 reciprocal lattice vectors
     4.460175593  0.000000000  0.000000000     0.224206419 -0.129445637 -0.091531887
     2.230087797  3.862625369 -0.000000000     0.000000000  0.258891273 -0.091531887
     2.230087797  1.287541790  3.641718123    -0.000000000  0.000000000  0.274595662

  length of vectors
     4.460175593  4.460175593  4.460175594     0.274595662  0.274595662  0.274595662

 k-points in units of 2pi/SCALE and weight: read from INCAR
   0.00000000  0.00000000  0.00000000       0.001
   0.02491182 -0.01438285 -0.01017021       0.011
   0.04982365 -0.02876570 -0.02034042       0.011
   0.07473547 -0.04314855 -0.03051063       0.011
   0.09964730 -0.05753139 -0.04068084       0.011
   0.02491182  0.01438285 -0.02034042       0.008
   0.04982365 -0.00000000 -0.03051063       0.033
   0.07473547 -0.01438285 -0.04068084       0.033
   0.09964730 -0.02876570 -0.05085105       0.033
  -0.09964730  0.08629709  0.03051063       0.033
  -0.07473547  0.07191424  0.02034042       0.033
  -0.04982365  0.05753139  0.01017021       0.033
  -0.02491182  0.04314855  0.00000000       0.016
   0.04982365  0.02876570 -0.04068084       0.008
   0.07473547  0.01438285 -0.05085105       0.033
   0.09964730  0.00000000 -0.06102126       0.033
  -0.09964730  0.11506279  0.02034042       0.033
  -0.07473547  0.10067994  0.01017021       0.033
  -0.04982365  0.08629709  0.00000000       0.016
   0.07473547  0.04314855 -0.06102126       0.008
   0.09964730  0.02876570 -0.07119147       0.033
  -0.09964730  0.14382849  0.01017021       0.033
  -0.07473547  0.12944564  0.00000000       0.016
   0.09964730  0.05753139 -0.08136168       0.008
  -0.09964730  0.17259418  0.00000000       0.016
   0.07473547  0.01438285 -0.02034042       0.033
   0.09964730  0.00000000 -0.03051063       0.066
  -0.09964730  0.11506279  0.05085105       0.066
   0.09964730  0.02876570 -0.04068084       0.033
  -0.09964730  0.14382849  0.04068084       0.066
  -0.07473547  0.12944564  0.03051063       0.066
  -0.04982365  0.11506279  0.02034042       0.033
  -0.09964730  0.17259418  0.03051063       0.033
  -0.07473547  0.15821133  0.02034042       0.033
  -0.07473547  0.15821133  0.05085105       0.033

 k-points in reciprocal lattice and weights: read from INCAR
   0.00000000  0.00000000  0.00000000       0.001
   0.11111111  0.00000000  0.00000000       0.011
   0.22222222 -0.00000000  0.00000000       0.011
   0.33333333  0.00000000  0.00000000       0.011
   0.44444444 -0.00000000  0.00000000       0.011
   0.11111111  0.11111111  0.00000000       0.008
   0.22222222  0.11111111  0.00000000       0.033
   0.33333333  0.11111111  0.00000000       0.033
   0.44444444  0.11111111  0.00000000       0.033
  -0.44444444  0.11111111 -0.00000000       0.033
  -0.33333333  0.11111111 -0.00000000       0.033
  -0.22222222  0.11111111 -0.00000000       0.033
  -0.11111111  0.11111111 -0.00000000       0.016
   0.22222222  0.22222222  0.00000000       0.008
   0.33333333  0.22222222  0.00000000       0.033
   0.44444444  0.22222222  0.00000000       0.033
  -0.44444444  0.22222222 -0.00000000       0.033
  -0.33333333  0.22222222 -0.00000000       0.033
  -0.22222222  0.22222222 -0.00000000       0.016
   0.33333333  0.33333333  0.00000000       0.008
   0.44444444  0.33333333  0.00000000       0.033
  -0.44444444  0.33333333 -0.00000000       0.033
  -0.33333333  0.33333333 -0.00000000       0.016
   0.44444444  0.44444444  0.00000000       0.008
  -0.44444444  0.44444444 -0.00000000       0.016
   0.33333333  0.22222222  0.11111111       0.033
   0.44444444  0.22222222  0.11111111       0.066
  -0.44444444  0.22222222  0.11111111       0.066
   0.44444444  0.33333333  0.11111111       0.033
  -0.44444444  0.33333333  0.11111111       0.066
  -0.33333333  0.33333333  0.11111111       0.066
  -0.22222222  0.33333333  0.11111111       0.033
  -0.44444444  0.44444444  0.11111111       0.033
  -0.33333333  0.44444444  0.11111111       0.033
  -0.33333333  0.44444444  0.22222222       0.033

 position of ions in fractional coordinates (direct lattice)
   0.00000000  0.00000000  0.00000000

 position of ions in cartesian coordinates  (Angst):
   0.00000000  0.00000000  0.00000000

 k-point  1 :   0.0000 0.0000 0.0000  plane waves:    2085
 k-point  2 :   0.1111 0.0000 0.0000  plane waves:    2085
 k-point  3 :   0.2222-0.0000 0.0000  plane waves:    2085
 k-point  4 :   0.3333 0.0000 0.0000  plane waves:    2102
 k-point  5 :   0.4444-0.0000 0.0000  plane waves:    2084
 k-point  6 :   0.1111 0.1111 0.0000  plane waves:    2077
 k-point  7 :   0.2222 0.1111 0.0000  plane waves:    2079
 k-point  8 :   0.3333 0.1111 0.0000  plane waves:    2085
 k-point  9 :   0.4444 0.1111 0.0000  plane waves:    2086
 k-point 10 :  -0.4444 0.1111-0.0000  plane waves:    2090
 k-point 11 :  -0.3333 0.1111-0.0000  plane waves:    2096
 k-point 12 :  -0.2222 0.1111-0.0000  plane waves:    2090
 k-point 13 :  -0.1111 0.1111-0.0000  plane waves:    2095
 k-point 14 :   0.2222 0.2222 0.0000  plane waves:    2069
 k-point 15 :   0.3333 0.2222 0.0000  plane waves:    2095
 k-point 16 :   0.4444 0.2222 0.0000  plane waves:    2099
 k-point 17 :  -0.4444 0.2222-0.0000  plane waves:    2093
 k-point 18 :  -0.3333 0.2222-0.0000  plane waves:    2092
 k-point 19 :  -0.2222 0.2222-0.0000  plane waves:    2093
 k-point 20 :   0.3333 0.3333 0.0000  plane waves:    2080
 k-point 21 :   0.4444 0.3333 0.0000  plane waves:    2095
 k-point 22 :  -0.4444 0.3333-0.0000  plane waves:    2112
 k-point 23 :  -0.3333 0.3333-0.0000  plane waves:    2121
 k-point 24 :   0.4444 0.4444 0.0000  plane waves:    2088
 k-point 25 :  -0.4444 0.4444-0.0000  plane waves:    2093
 k-point 26 :   0.3333 0.2222 0.1111  plane waves:    2080
 k-point 27 :   0.4444 0.2222 0.1111  plane waves:    2099
 k-point 28 :  -0.4444 0.2222 0.1111  plane waves:    2088
 k-point 29 :   0.4444 0.3333 0.1111  plane waves:    2083
 k-point 30 :  -0.4444 0.3333 0.1111  plane waves:    2098
 k-point 31 :  -0.3333 0.3333 0.1111  plane waves:    2097
 k-point 32 :  -0.2222 0.3333 0.1111  plane waves:    2090
 k-point 33 :  -0.4444 0.4444 0.1111  plane waves:    2100
 k-point 34 :  -0.3333 0.4444 0.1111  plane waves:    2112
 k-point 35 :  -0.3333 0.4444 0.2222  plane waves:    2122

 maximum and minimum number of plane-waves per node :       534      513

 maximum number of plane-waves:      2122
 maximum index in each direction:
   IXMAX=    9   IYMAX=    8   IZMAX=    8
   IXMIN=   -9   IYMIN=   -9   IZMIN=   -9

 parallel 3D FFT for wavefunctions:
    minimum data exchange during FFTs selected (reduces bandwidth)
 parallel 3D FFT for charge:
    minimum data exchange during FFTs selected (reduces bandwidth)

 Broyden mixing: mesh for mixing (old mesh)
   NGX = 17   NGY = 17   NGZ = 17
  (NGX  = 72   NGY  = 72   NGZ  = 72)
  gives a total of   4913 points

 initial charge density was supplied:
 charge density of overlapping atoms calculated
 number of electron       8.0000000 magnetization
 keeping initial charge density in first step

 Maximum index for augmentation-charges        17767 (set IRDMAX)

 First call to EWALD:  gamma=   0.446
 Maximum number of real-space cells 3x 3x 3
 Maximum number of reciprocal cells 3x 3x 3

--------------------------------------- Iteration      1(   1)  ---------------------------------------

 eigenvalue-minimisations  :   560
 total energy-change (2. order) :-0.1130671E+01  (-0.3384920E+03)
 number of electron       8.0000000 magnetization
 augmentation part        8.0000000 magnetization

 Free energy of the ion-electron system (eV)
  alpha Z        PSCENC =        20.78062946
  Ewald energy   TEWEN  =      -334.93873217
  -Hartree energ DENC   =       -69.82544759
  -exchange      EXHF   =         0.00000000
  -V(xc)+E(xc)   XCENC  =       -57.58697966
  PAW double counting   =       413.10232264     -372.75623973
  entropy T*S    EENTRO =        -0.00002164
  eigenvalues    EBANDS =       -29.42052138
  atomic energy  EATOM  =       429.51431920
  Solvation  Ediel_sol  =         0.00000000
  free energy    TOTEN  =        -1.13067088 eV

  energy without entropy =       -1.13064925  energy(sigma->0) =       -1.13066367

[...]

 Broyden mixing:
  rms(total) = 0.23527E-01    rms(broyden)= 0.23509E-01
  rms(prec ) = 0.77316E-01
  weight for this iteration     100.00

[...]

 eigenvalue-minimisations  :   560
 total energy-change (2. order) : 0.1611253E+01  (-0.1534462E-01)
 number of electron       8.0000000 magnetization
 augmentation part       -1.3395357 magnetization

[...]

 eigenvalues of (default mixing * dielectric matrix)
  average eigenvalue GAMMA=   0.6588
  0.6588

[...]

 eigenvalue-minimisations  :   394
 total energy-change (2. order) :-0.2315328E-06  (-0.3200613E-08)
 number of electron       8.0000000 magnetization
 augmentation part       -1.3373600 magnetization

[...]

 Broyden mixing:
  rms(total) = 0.15591E-04    rms(broyden)= 0.15461E-04
  rms(prec ) = 0.33586E-04
  weight for this iteration     100.00

[...]

 eigenvalue-minimisations  :   293
 total energy-change (2. order) : 0.3864831E-06  (-0.5058969E-09)
 number of electron       8.0000000 magnetization
 augmentation part       -1.3373639 magnetization

 Broyden mixing:
  rms(total) = 0.45387E-05    rms(broyden)= 0.40711E-05
  rms(prec ) = 0.79054E-05
  weight for this iteration     100.00
  WARNING: grid for Broyden might be to small

 eigenvalues of (default mixing * dielectric matrix)
  average eigenvalue GAMMA=   1.7237
  3.3270  3.3270  2.5478  2.0030  1.1054  1.1054  1.0517  1.0517  0.9481  0.7700

[...]

--------------------------------------- Iteration      1(  16)  ---------------------------------------

 eigenvalue-minimisations  :   156
 total energy-change (2. order) :-0.3666275E-07  ( 0.0000000E+00)
 number of electron       8.0000000 magnetization
 augmentation part       -1.3373639 magnetization

 Free energy of the ion-electron system (eV)
  alpha Z        PSCENC =        20.78062946
  Ewald energy   TEWEN  =      -334.93873217
  -Hartree energ DENC   =       -69.78260357
  -exchange      EXHF   =         0.00000000
  -V(xc)+E(xc)   XCENC  =       -57.20900957
  PAW double counting   =       414.22743464     -373.88536168
  entropy T*S    EENTRO =         0.00236076
  eigenvalues    EBANDS =       -64.95493986
  atomic energy  EATOM  =       429.51431920
  Solvation  Ediel_sol  =         0.00000000
  free energy    TOTEN  =       -36.24590279 eV

  energy without entropy =      -36.24826355  energy(sigma->0) =      -36.24668971

 average (electrostatic) potential at core
  the test charge radii are     1.1266
  (the norm of the test charge is              1.0000)
       1 -63.2295

 E-fermi :  -4.5070     XC(G=0):  -6.9283     alpha+bet : -3.4898

 k-point     1 :       0.0000    0.0000    0.0000
  band No.  band energies     occupation
      1     -17.2235      2.00000
      2      -4.5300      1.37740
      3      -4.5300      1.37740
      4      -4.5300      1.37737
      5       2.3376      0.00000
      6       6.9517      0.00000
      7       6.9517      0.00000
      8       6.9517      0.00000

[...]

 k-point    35 :      -0.3333    0.4444    0.2222
  band No.  band energies     occupation
      1     -16.9771      2.00000
      2      -5.5710      2.00000
      3      -5.3897      2.00000
      4      -5.0420      2.00000
      5       4.5497      0.00000
      6       5.7586      0.00000
      7       6.1490      0.00000
      8       7.6205      0.00000

 soft charge-density along one line, spin component           1
         0         1         2         3         4         5         6         7         8         9
 total charge-density along one line

------------------------ aborting loop because EDIFF is reached ----------------------------------------

  FORCE on cell =-STRESS in cart. coord.  units (eV):
  Direction    XX          YY          ZZ          XY          YZ          ZX
  Alpha Z    20.78063    20.78063    20.78063
  Ewald    -111.64625  -111.64625  -111.64625     0.00000    -0.00000     0.00000
  Hartree    23.26091    23.26091    23.26091     0.00000    -0.00000     0.00000
  E(xc)     -40.02593   -39.94783   -39.90670     0.03223    -0.00399     0.07631
  Local     -17.87216   -17.87216   -17.87216     0.00000     0.00000     0.00000
  n-local    44.59281    45.03079    45.25205     0.15549    -0.05876     0.41946
  augment   -11.71696   -11.71695   -11.71695    -0.00001    -0.00000    -0.00001
  Kinetic    90.19339    92.57342    93.82264     0.95268    -0.15652     2.30900
  Fock        0.00000     0.00000     0.00000     0.00000     0.00000     0.00000
  Total       0.00106     0.00106     0.00106     0.00000    -0.00000     0.00000
  in kB       0.02696     0.02696     0.02696     0.00000    -0.00000     0.00000

 VOLUME and BASIS-vectors are now :
  energy-cutoff  :      600.00
  volume of cell :       62.74
      direct lattice vectors                 reciprocal lattice vectors
     4.460175593  0.000000000  0.000000000     0.224206419 -0.129445637 -0.091531887
     2.230087797  3.862625369 -0.000000000     0.000000000  0.258891273 -0.091531887
     2.230087797  1.287541790  3.641718123    -0.000000000  0.000000000  0.274595662

  length of vectors
     4.460175593  4.460175593  4.460175594     0.274595662  0.274595662  0.274595662

 FORCES acting on ions
    electron-ion (+dipol)            ewald-force                    non-local-force                 convergence-correction
   -.426E-14 -.313E-14 0.968E-15   0.652E-15 -.131E-16 -.968E-16   0.000E+00 -.388E-25 0.000E+00   -.101E-13 0.228E-14 -.303E-14
   -.459E-14 -.101E-14 -.174E-14   0.652E-15 -.131E-16 -.968E-16   0.000E+00 -.388E-25 0.000E+00   -.101E-13 0.228E-14 -.303E-14

 POSITION                                       TOTAL-FORCE (eV/Angst)
      0.00000      0.00000      0.00000         0.000000      0.000000      0.000000
    total drift:                               -0.000000      0.000000     -0.000000

  FREE ENERGIE OF THE ION-ELECTRON SYSTEM (eV)
  free  energy   TOTEN  =       -36.24590279 eV

  energy  without entropy=      -36.24826355  energy(sigma->0) =      -36.24668971

 Quasi-Newton relaxation of ions (Broydens 2nd method)
  g(Force)  = 0.000E+00   g(Stress)= 0.323E-07

 Reset! Starting new Quasi-Newton update for ions

 reached required accuracy - stopping structural energy minimisation