 vasp.5.4.4.18Apr17-6-g9f103f2a35 (build Jul 09 2018 16:43:14) complex

 executed on             LinuxIFC date 2018.11.22  03:42:37

 INCAR:
 POTCAR:    PAW_PBE Rn_d_GW 14Apr2014

 POTCAR:    PAW_PBE Rn_d_GW 14Apr2014
   VRHFIN =Rn:

   TITEL  = PAW_PBE Rn_d_GW 14Apr2014
   POMASS =  220.170; ZVAL   =   18.000    mass and valenz
   ENMAX  =  268.495; ENMIN  =  201.371 eV

  PAW_PBE Rn_d_GW 14Apr2014             :

 POSCAR: Rn_FCC
  positions in direct lattice
  velocities in cartesian coordinates
 exchange correlation table for  LEXCH =        8
   RHO(1)=    0.500       N(1)  =     2000
   RHO(2)=  100.500       N(2)  =     4000

 ion  position               nearest neighbor table
   1  0.000  0.000  0.000-

IMPORTANT INFORMATION: All symmetrisations will be switched off!
NOSYMM: (Re-)initialisation of all symmetry stuff for point group C_1.

 KPOINTS: k-points

Automatic generation of k-mesh.
Space group operators:
 irot       det(A)        alpha          n_x          n_y          n_z        tau_x        tau_y        tau_z
    1     1.000000     0.000000     1.000000     0.000000     0.000000     0.000000     0.000000     0.000000

 Subroutine IBZKPT returns following result:

 Found    112 irreducible k-points:

 Following reciprocal coordinates:
            Coordinates               Weight
  0.000000  0.000000  0.000000      1.000000
  0.166667  0.000000  0.000000      2.000000
  0.333333  0.000000  0.000000      2.000000
  0.500000  0.000000  0.000000      1.000000
  0.000000  0.166667  0.000000      2.000000
  0.166667  0.166667  0.000000      2.000000
  0.333333  0.166667  0.000000      2.000000
  0.500000  0.166667  0.000000      2.000000
 -0.333333  0.166667  0.000000      2.000000
 -0.166667  0.166667  0.000000      2.000000
  0.000000  0.333333  0.000000      2.000000
  0.166667  0.333333  0.000000      2.000000
  0.333333  0.333333  0.000000      2.000000
  0.500000  0.333333  0.000000      2.000000
 -0.333333  0.333333 -0.000000      2.000000
 -0.166667  0.333333 -0.000000      2.000000
  0.000000  0.500000  0.000000      1.000000
  0.166667  0.500000  0.000000      2.000000
  0.333333  0.500000  0.000000      2.000000
  0.500000  0.500000 -0.000000      1.000000
 -0.000000 -0.000000  0.166667      2.000000
  0.166667  0.000000  0.166667      2.000000
  0.333333  0.000000  0.166667      2.000000
  0.500000  0.000000  0.166667      2.000000
 -0.333333 -0.000000  0.166667      2.000000
 -0.166667 -0.000000  0.166667      2.000000
  0.000000  0.166667  0.166667      2.000000
  0.166667  0.166667  0.166667      2.000000
  0.333333  0.166667  0.166667      2.000000
  0.500000  0.166667  0.166667      2.000000
 -0.333333  0.166667  0.166667      2.000000
 -0.166667  0.166667  0.166667      2.000000
  0.000000  0.333333  0.166667      2.000000
  0.166667  0.333333  0.166667      2.000000
  0.333333  0.333333  0.166667      2.000000
  0.500000  0.333333  0.166667      2.000000
 -0.333333  0.333333  0.166667      2.000000
 -0.166667  0.333333  0.166667      2.000000
  0.000000  0.500000  0.166667      2.000000
  0.166667  0.500000  0.166667      2.000000
  0.333333  0.500000  0.166667      2.000000
  0.500000  0.500000  0.166667      2.000000
 -0.333333  0.500000  0.166667      2.000000
 -0.166667  0.500000  0.166667      2.000000
 -0.000000 -0.333333  0.166667      2.000000
  0.166667 -0.333333  0.166667      2.000000
  0.333333 -0.333333  0.166667      2.000000
  0.500000 -0.333333  0.166667      2.000000
 -0.333333 -0.333333  0.166667      2.000000
 -0.166667 -0.333333  0.166667      2.000000
 -0.000000 -0.166667  0.166667      2.000000
  0.166667 -0.166667  0.166667      2.000000
  0.333333 -0.166667  0.166667      2.000000
  0.500000 -0.166667  0.166667      2.000000
 -0.333333 -0.166667  0.166667      2.000000
 -0.166667 -0.166667  0.166667      2.000000
  0.000000 -0.000000  0.333333      2.000000
  0.166667  0.000000  0.333333      2.000000
  0.333333  0.000000  0.333333      2.000000
  0.500000  0.000000  0.333333      2.000000
[...]
  0.166667  0.166667  0.500000      2.000000
  0.333333  0.166667  0.500000      2.000000
  0.500000  0.166667  0.500000      2.000000
 -0.333333  0.166667  0.500000      2.000000
 -0.166667  0.166667  0.500000      2.000000
 -0.000000  0.333333  0.500000      2.000000
  0.166667  0.333333  0.500000      2.000000
  0.333333  0.333333  0.500000      2.000000
  0.500000  0.333333  0.500000      2.000000
 -0.333333  0.333333  0.500000      2.000000
 -0.166667  0.333333  0.500000      2.000000
  0.000000  0.500000  0.500000      1.000000
  0.166667  0.500000  0.500000      2.000000
  0.333333  0.500000  0.500000      2.000000
  0.500000  0.500000  0.500000      1.000000

 Following cartesian coordinates:
            Coordinates               Weight
  0.000000  0.000000  0.000000      1.000000
  0.036869 -0.021286 -0.015052      2.000000
  0.073737 -0.042572 -0.030103      2.000000
  0.110606 -0.063858 -0.045155      1.000000
  0.000000  0.042572 -0.015052      2.000000
  0.036869  0.021286 -0.030103      2.000000
  0.073737  0.000000 -0.045155      2.000000
  0.110606 -0.021286 -0.060206      2.000000
 -0.073737  0.085144  0.015052      2.000000
 -0.036869  0.063858  0.000000      2.000000
  0.000000  0.085144 -0.030103      2.000000
  0.036869  0.063858 -0.045155      2.000000
  0.073737  0.042572 -0.060206      2.000000
  0.110606  0.021286 -0.075258      2.000000
 -0.073737  0.127716  0.000000      2.000000
 -0.036869  0.106430 -0.015052      2.000000
  0.000000  0.127716 -0.045155      1.000000
  0.036869  0.106430 -0.060206      2.000000
  0.073737  0.085144 -0.075258      2.000000
  0.110606  0.063858 -0.090309      1.000000
 -0.000000  0.000000  0.045155      2.000000
  0.036869 -0.021286  0.030103      2.000000
  0.073737 -0.042572  0.015052      2.000000
  0.110606 -0.063858 -0.000000      2.000000
 -0.073737  0.042572  0.075258      2.000000
 -0.036869  0.021286  0.060206      2.000000
 -0.000000  0.042572  0.030103      2.000000
  0.036869  0.021286  0.015052      2.000000
  0.073737  0.000000  0.000000      2.000000
  0.110606 -0.021286 -0.015052      2.000000
 -0.073737  0.085144  0.060206      2.000000
 -0.036869  0.063858  0.045155      2.000000
 -0.000000  0.085144  0.015052      2.000000
  0.036869  0.063858  0.000000      2.000000
  0.073737  0.042572 -0.015052      2.000000
  0.110606  0.021286 -0.030103      2.000000
 -0.073737  0.127716  0.045155      2.000000
 -0.036869  0.106430  0.030103      2.000000
 -0.000000  0.127716  0.000000      2.000000
  0.036869  0.106430 -0.015052      2.000000
  0.073737  0.085144 -0.030103      2.000000
  0.110606  0.063858 -0.045155      2.000000
 -0.073737  0.170289  0.030103      2.000000
 -0.036869  0.149002  0.015052      2.000000
 -0.000000 -0.085144  0.075258      2.000000
  0.036869 -0.106430  0.060206      2.000000
  0.073737 -0.127716  0.045155      2.000000
  0.110606 -0.149002  0.030103      2.000000
 -0.073737 -0.042572  0.105361      2.000000
 -0.036869 -0.063858  0.090309      2.000000
 -0.000000 -0.042572  0.060206      2.000000
  0.036869 -0.063858  0.045155      2.000000
  0.073737 -0.085144  0.030103      2.000000
  0.110606 -0.106430  0.015052      2.000000
 -0.073737  0.000000  0.090309      2.000000
 -0.036869 -0.021286  0.075258      2.000000
 -0.000000  0.000000  0.090309      2.000000
  0.036869 -0.021286  0.075258      2.000000
  0.073737 -0.042572  0.060206      2.000000
  0.110606 -0.063858  0.045155      2.000000
[...]
  0.036869  0.021286  0.105361      2.000000
  0.073737  0.000000  0.090309      2.000000
  0.110606 -0.021286  0.075258      2.000000
 -0.073737  0.085144  0.150515      2.000000
 -0.036869  0.063858  0.135464      2.000000
 -0.000000  0.085144  0.105361      2.000000
  0.036869  0.063858  0.090309      2.000000
  0.073737  0.042572  0.075258      2.000000
  0.110606  0.021286  0.060206      2.000000
 -0.073737  0.127716  0.135464      2.000000
 -0.036869  0.106430  0.120412      2.000000
 -0.000000  0.127716  0.090309      1.000000
  0.036869  0.106430  0.075258      2.000000
  0.073737  0.085144  0.060206      2.000000
  0.110606  0.063858  0.045155      1.000000

 SYSTEM =  Og_FCC
 POSCAR =  Rn_FCC

 Startparameter for this run:
   NWRITE =      2    write-flag & timer
   PREC   = accura    normal or accurate (medium, high low for compatibility)
   ISTART =      1    job   : 0-new  1-cont  2-samecut
   ICHARG =      0    charge: 1-file 2-atom 10-const
   ISPIN  =      1    spin polarized calculation?
   LNONCOLLINEAR =      F non collinear calculations
   LSORBIT =      F    spin-orbit coupling
   INIWAV =      1    electr: 0-lowe 1-rand  2-diag
   LASPH  =      F    aspherical Exc in radial PAW
   METAGGA=      F    non-selfconsistent MetaGGA calc.

 Electronic Relaxation 1
   ENCUT  =  300.0 eV  22.05 Ry    4.70 a.u.   6.38  6.38  6.38*2*pi/ulx,y,z
   ENINI  =  300.0     initial cutoff
   ENAUG  =  715.6 eV  augmentation charge cutoff
   NELM   =     50;   NELMIN=  2; NELMDL= -5     # of ELM steps
   EDIFF  = 0.1E-07   stopping-criterion for ELM
   LREAL  =      F    real-space projection
   NLSPLINE    = F    spline interpolate recip. space projectors
   LCOMPAT=      F    compatible to vasp.4.4
   GGA_COMPAT  = F    GGA compatible to vasp.4.4-vasp.4.6
   LMAXPAW     = -100 max onsite density
   LMAXMIX     =    2 max onsite mixed and CHGCAR
   VOSKOWN=      0    Vosko Wilk Nusair interpolation
   ROPT   =    0.00000
 Ionic relaxation
   EDIFFG = 0.1E-04   stopping-criterion for IOM
   NSW    =      1    number of steps for IOM
   NBLOCK =      1;   KBLOCK =      1    inner block; outer block
   IBRION =     -1    ionic relax: 0-MD 1-quasi-New 2-CG
   NFREE  =      5    steps in history (QN), initial steepest desc. (CG)
   ISIF   =      3    stress and relaxation
   IWAVPR =     10    prediction:  0-non 1-charg 2-wave 3-comb
   ISYM   =      0    0-nonsym 1-usesym 2-fastsym
   LCORR  =      T    Harris-Foulkes like correction to forces

   POTIM  = 0.1000    time-step for ionic-motion
   TEIN   =    0.0    initial temperature
   TEBEG  =    0.0;   TEEND  =   0.0 temperature during run
   SMASS  =  -3.00    Nose mass-parameter (am)
   estimated Nose-frequenzy (Omega)   =  0.10E-29 period in steps =****** mass=  -0.467E-27a.u.
   SCALEE = 1.0000    scale energy and forces
   NPACO  =    256;   APACO  = 16.0  distance and # of slots for P.C.
   PSTRESS=    0.0 pullay stress

  Mass of Ions in am
   POMASS = 220.17
  Ionic Valenz
   ZVAL   =  18.00
  Atomic Wigner-Seitz radii
  virtual crystal weights
   VCA    =   1.00
   NELECT =      18.0000    total number of electrons
   NUPDOWN=      -1.0000    fix difference up-down

 DOS related values:
   EMIN   =  10.00;   EMAX   =-10.00  energy-range for DOS
   EFERMI =   0.00
   ISMEAR =     0;   SIGMA  =   0.00  broadening in eV -4-tet -1-fermi 0-gaus

 Electronic relaxation 2 (details)
   IALGO  =     90    algorithm
   LDIAG  =      T    sub-space diagonalisation (order eigenvalues)
   LSUBROT=      F    optimize rotation matrix (better conditioning)
   TURBO    =      0    0=normal 1=particle mesh
   IRESTART =      0    0=no restart 2=restart with 2 vectors
   NREBOOT  =      0    no. of reboots
[...]
   51.233059    1.117132    1.117132    1.117132   -0.000000   -0.000000   -0.000000
   52.739914    1.185450    1.185450    1.185451   -0.000001   -0.000000   -0.000000
   54.246769    1.221273    1.221272    1.221272    0.000000    0.000000    0.000000
   55.753623    1.211756    1.211756    1.211756   -0.000000   -0.000000   -0.000000
   57.260478    1.259956    1.259956    1.259956   -0.000000    0.000000    0.000000
   58.767333    1.007254    1.007254    1.007254   -0.000000   -0.000000   -0.000000
   60.274187    0.842373    0.842372    0.842372   -0.000000    0.000000    0.000000
   61.781042    1.064347    1.064347    1.064347    0.000000    0.000000    0.000000
   63.287897    0.913869    0.913868    0.913868    0.000000    0.000000    0.000001
   64.794751    0.921615    0.921615    0.921615   -0.000000   -0.000000   -0.000000
   66.301606    0.960695    0.960695    0.960695   -0.000000   -0.000000   -0.000000
   67.808461    0.869606    0.869606    0.869606   -0.000000   -0.000000   -0.000000
   69.315316    0.764837    0.764837    0.764837   -0.000000   -0.000000   -0.000000
   70.822170    0.920082    0.920082    0.920082   -0.000000   -0.000000   -0.000000
   72.329025    0.816751    0.816751    0.816751   -0.000000   -0.000000   -0.000000
   73.835880    0.845982    0.845982    0.845982   -0.000001   -0.000000   -0.000000
   75.342734    0.842753    0.842753    0.842753   -0.000000   -0.000000   -0.000000
   76.849589    0.891746    0.891746    0.891746   -0.000000   -0.000000   -0.000000
   78.356444    0.843722    0.843722    0.843722   -0.000000   -0.000000   -0.000000
   79.863298    0.908075    0.908075    0.908075   -0.000001   -0.000000   -0.000000
   81.370153    0.834841    0.834842    0.834842   -0.000001   -0.000000   -0.000000
   82.877008    0.862736    0.862736    0.862736   -0.000001   -0.000000   -0.000000
   84.383862    0.861100    0.861100    0.861100   -0.000001    0.000000   -0.000001
   85.890717    0.897112    0.897112    0.897112    0.000000   -0.000000    0.000001
   87.397572    0.917570    0.917570    0.917570   -0.000000   -0.000000    0.000000
   88.904426    0.903243    0.903243    0.903243   -0.000000   -0.000000    0.000000
[...]
  128.082648    0.957347    0.957348    0.957348    0.000002    0.000000    0.000000
  129.589503    0.959182    0.959182    0.959182    0.000002    0.000000    0.000000
  131.096358    0.960786    0.960786    0.960786    0.000001    0.000000    0.000000
  132.603212    0.962225    0.962225    0.962225    0.000001    0.000000    0.000000
  134.110067    0.963539    0.963539    0.963539    0.000001    0.000000    0.000000
  135.616922    0.964750    0.964750    0.964750    0.000001    0.000000    0.000000
  137.123776    0.965876    0.965876    0.965876    0.000001    0.000000    0.000000
  138.630631    0.966929    0.966929    0.966929    0.000001    0.000000    0.000000
  140.137486    0.967918    0.967918    0.967918    0.000001    0.000000    0.000000
  141.644340    0.968850    0.968850    0.968850    0.000001    0.000000    0.000000
  143.151195    0.969732    0.969732    0.969732    0.000001    0.000000    0.000000
  144.658050    0.970568    0.970568    0.970568    0.000001    0.000000    0.000000
  146.164904    0.971362    0.971362    0.971362    0.000000    0.000000    0.000000
  147.671759    0.972118    0.972118    0.972118    0.000000    0.000000    0.000000
  149.178614    0.972839    0.972839    0.972839    0.000000    0.000000    0.000000

  frequency dependent IMAGINARY DIELECTRIC FUNCTION (independent particle, no local field effects) current-current (2nd set in vasprun.xml)
     E(ev)      X         Y         Z        XY        YZ        ZX
    0.000000    0.000000    0.000000    0.000000    0.000000    0.000000    0.000000
    1.506855    0.000000    0.000000    0.000000    0.000000    0.000000    0.000000
    3.013709    0.000000    0.000000    0.000000    0.000000    0.000000    0.000000
    4.520564    0.000000    0.000000    0.000000    0.000000    0.000000    0.000000
    6.027419    0.000000    0.000000    0.000000    0.000000    0.000000    0.000000
    7.534273    9.180611    9.180606    9.180594    0.000008    0.000001    0.000008
    9.041128    8.168351    8.168349    8.168348    0.000001    0.000001    0.000001
   10.547983    3.848385    3.848385    3.848385    0.000000    0.000000    0.000001
   12.054837    1.007638    1.007638    1.007638    0.000000    0.000000    0.000000
   13.561692    1.408089    1.408089    1.408089   -0.000000    0.000000   -0.000000
   15.068547    0.107338    0.107338    0.107338   -0.000000   -0.000000   -0.000000
   16.575402    1.187620    1.187621    1.187620   -0.000000   -0.000000    0.000000
   18.082256    0.340035    0.340035    0.340035    0.000000    0.000000    0.000000
   19.589111    0.225064    0.225064    0.225064   -0.000000   -0.000000   -0.000000
   21.095966    0.022984    0.022984    0.022984    0.000000    0.000000    0.000000
   22.602820    0.055591    0.055591    0.055591    0.000000   -0.000000    0.000000
   24.109675    0.136050    0.136050    0.136050   -0.000000   -0.000000   -0.000000
   25.616530    0.030577    0.030577    0.030577   -0.000000    0.000000    0.000000
   27.123384    0.048838    0.048838    0.048838    0.000000    0.000000    0.000000
   28.630239    0.079322    0.079322    0.079322   -0.000000   -0.000000    0.000000
   30.137094    0.093210    0.093210    0.093210   -0.000000    0.000000   -0.000000
   31.643948    0.021292    0.021292    0.021292    0.000000    0.000000    0.000000
   33.150803    0.042204    0.042204    0.042204    0.000000    0.000000   -0.000000
   34.657658    0.018595    0.018595    0.018595   -0.000000    0.000000   -0.000000
   36.164512    0.001974    0.001974    0.001974   -0.000000   -0.000000   -0.000000
   37.671367    0.019846    0.019846    0.019846    0.000000    0.000000    0.000000
   39.178222    0.015771    0.015771    0.015771    0.000000    0.000000   -0.000000
   40.685076    0.004001    0.004001    0.004001   -0.000000   -0.000000   -0.000000
   42.191931    0.009329    0.009329    0.009329   -0.000000   -0.000000   -0.000000
   43.698786    0.007688    0.007688    0.007688   -0.000000   -0.000000   -0.000000
   45.205641    0.018196    0.018196    0.018196    0.000000    0.000000   -0.000000
   46.712495    0.008724    0.008724    0.008724    0.000000    0.000000   -0.000000
   48.219350    0.019741    0.019741    0.019741   -0.000000   -0.000000   -0.000000
   49.726205    0.008330    0.008330    0.008330   -0.000000   -0.000000    0.000000
   51.233059    0.023313    0.023313    0.023313    0.000000   -0.000000    0.000000
   52.739914    0.031868    0.031870    0.031870   -0.000002   -0.000001   -0.000001
   54.246769    0.025517    0.025518    0.025518   -0.000001   -0.000000   -0.000001
   55.753623    0.067047    0.067047    0.067047    0.000000   -0.000000    0.000000
   57.260478    0.483153    0.483152    0.483152    0.000001    0.000000    0.000001
   58.767333    0.077363    0.077363    0.077363    0.000000    0.000000    0.000000
   60.274187    0.257076    0.257076    0.257076    0.000000   -0.000000    0.000000
   61.781042    0.513433    0.513433    0.513433    0.000000   -0.000000    0.000000
   63.287897    0.029398    0.029398    0.029397    0.000000    0.000000    0.000000
   64.794751    0.407124    0.407124    0.407124   -0.000000   -0.000000   -0.000000
   66.301606    0.058178    0.058178    0.058178   -0.000000   -0.000000    0.000000
   67.808461    0.002816    0.002816    0.002816   -0.000000   -0.000000   -0.000000
   69.315316    0.122001    0.122001    0.122001   -0.000000   -0.000000   -0.000000
   70.822170    0.175105    0.175105    0.175105    0.000000    0.000000   -0.000000
   72.329025    0.001636    0.001636    0.001636    0.000000    0.000000    0.000000
   73.835880    0.018246    0.018246    0.018247   -0.000001   -0.000000   -0.000000
   75.342734    0.050784    0.050784    0.050784    0.000000    0.000000    0.000000
   76.849589    0.093022    0.093022    0.093022    0.000000    0.000000   -0.000000
   78.356444    0.073143    0.073143    0.073143   -0.000000   -0.000000   -0.000000
   79.863298    0.374514    0.374514    0.374514   -0.000000   -0.000000    0.000000
   81.370153    0.133549    0.133549    0.133549    0.000000    0.000000    0.000000
   82.877008    0.001039    0.001039    0.001039   -0.000000    0.000000   -0.000000
   84.383862    0.021964    0.021964    0.021964   -0.000000   -0.000000    0.000000
   85.890717    0.011572    0.011572    0.011572    0.000000    0.000000   -0.000000
   87.397572    0.031171    0.031171    0.031171   -0.000000    0.000000    0.000000
   88.904426    0.034833    0.034833    0.034833    0.000000   -0.000000    0.000000
[...]
  128.082648    0.000000    0.000000    0.000000    0.000000    0.000000    0.000000
  129.589503    0.000000    0.000000    0.000000    0.000000    0.000000    0.000000
  131.096358    0.000000    0.000000    0.000000    0.000000    0.000000    0.000000
  132.603212    0.000000    0.000000    0.000000    0.000000    0.000000    0.000000
  134.110067    0.000000    0.000000    0.000000    0.000000    0.000000    0.000000
  135.616922    0.000000    0.000000    0.000000    0.000000    0.000000    0.000000
  137.123776    0.000000    0.000000    0.000000    0.000000    0.000000    0.000000
  138.630631    0.000000    0.000000    0.000000    0.000000    0.000000    0.000000
  140.137486    0.000000    0.000000    0.000000    0.000000    0.000000    0.000000
  141.644340    0.000000    0.000000    0.000000    0.000000    0.000000    0.000000
  143.151195    0.000000    0.000000    0.000000    0.000000    0.000000    0.000000
  144.658050    0.000000    0.000000    0.000000    0.000000    0.000000    0.000000
  146.164904    0.000000    0.000000    0.000000    0.000000    0.000000    0.000000
  147.671759    0.000000    0.000000    0.000000    0.000000    0.000000    0.000000
  149.178614    0.000000    0.000000    0.000000    0.000000    0.000000    0.000000

  frequency dependent      REAL DIELECTRIC FUNCTION (independent particle, no local field effects) current-current (2nd set in vasprun.xml)
     E(ev)        X           Y           Z          XY          YZ          ZX
    0.000000    2.881635    2.881635    2.880291   -0.000000   -0.000000    0.000000
    1.506855    2.937372    2.937372    2.937372   -0.000000   -0.000000    0.000000
    3.013709    3.141230    3.141230    3.141230   -0.000000   -0.000000    0.000000
    4.520564    3.741660    3.741660    3.741660   -0.000000   -0.000000    0.000000
    6.027419    4.551805    4.551805    4.551803   -0.000000   -0.000000    0.000000
    7.534273    3.930469    3.930469    3.930472   -0.000002   -0.000000   -0.000001
    9.041128    2.125252    2.125252    2.125252   -0.000000   -0.000000   -0.000000
   10.547983   -0.074231   -0.074232   -0.074232   -0.000000   -0.000000    0.000000
   12.054837   -0.489662   -0.489662   -0.489662   -0.000000    0.000000    0.000000
   13.561692   -0.211215   -0.211215   -0.211215   -0.000000   -0.000000   -0.000000
   15.068547    0.529013    0.529013    0.529012   -0.000000   -0.000000    0.000000
   16.575402    0.199976    0.199976    0.199976   -0.000000   -0.000000   -0.000000
   18.082256    0.565610    0.565610    0.565609   -0.000000   -0.000000    0.000000
   19.589111    0.126784    0.126784    0.126784   -0.000000   -0.000000   -0.000000
   21.095966    0.482056    0.482056    0.482056   -0.000000   -0.000000   -0.000000
   22.602820    0.470435    0.470435    0.470435   -0.000000   -0.000000   -0.000000
   24.109675    0.637765    0.637765    0.637765   -0.000000   -0.000000   -0.000000
   25.616530    0.702118    0.702118    0.702118   -0.000000   -0.000000   -0.000000
   27.123384    0.806926    0.806926    0.806926   -0.000000   -0.000000   -0.000000
   28.630239    0.819279    0.819279    0.819279   -0.000000   -0.000000    0.000000
   30.137094    0.750981    0.750981    0.750981   -0.000000   -0.000000   -0.000000
   31.643948    0.835728    0.835728    0.835728   -0.000000   -0.000000   -0.000000
   33.150803    0.866869    0.866869    0.866869   -0.000000   -0.000000   -0.000000
   34.657658    0.873624    0.873623    0.873623   -0.000000   -0.000000   -0.000000
   36.164512    0.904371    0.904370    0.904371   -0.000000   -0.000000   -0.000000
   37.671367    0.931986    0.931986    0.931986   -0.000000   -0.000000   -0.000000
   39.178222    0.951884    0.951884    0.951884   -0.000000   -0.000000   -0.000000
   40.685076    0.973614    0.973614    0.973614   -0.000000   -0.000000   -0.000000
   42.191931    0.986680    0.986680    0.986680   -0.000000   -0.000000   -0.000000
   43.698786    1.010584    1.010584    1.010584   -0.000000   -0.000000   -0.000000
   45.205641    1.038604    1.038604    1.038604   -0.000000   -0.000000   -0.000000
   46.712495    1.048370    1.048370    1.048370   -0.000000   -0.000000   -0.000000
   48.219350    1.053331    1.053331    1.053331   -0.000000   -0.000000   -0.000000
   49.726205    1.065154    1.065154    1.065154   -0.000000   -0.000000   -0.000000
   51.233059    1.116980    1.116980    1.116980   -0.000000   -0.000000   -0.000000
   52.739914    1.185120    1.185120    1.185121   -0.000001   -0.000000   -0.000000
   54.246769    1.221045    1.221044    1.221044    0.000000    0.000000    0.000000
   55.753623    1.211431    1.211430    1.211430   -0.000000   -0.000000   -0.000000
   57.260478    1.258185    1.258185    1.258185   -0.000000    0.000000    0.000000
   58.767333    1.006688    1.006688    1.006688   -0.000000   -0.000000   -0.000000
   60.274187    0.841227    0.841227    0.841227   -0.000000    0.000000    0.000000
   61.781042    1.062927    1.062926    1.062926    0.000000    0.000000    0.000000
   63.287897    0.912982    0.912981    0.912980    0.000000    0.000000    0.000001
   64.794751    0.920762    0.920762    0.920762   -0.000000   -0.000000   -0.000000
   66.301606    0.960354    0.960354    0.960354   -0.000000   -0.000000   -0.000000
   67.808461    0.869219    0.869219    0.869219   -0.000000   -0.000000   -0.000000
   69.315316    0.764474    0.764474    0.764474   -0.000000   -0.000000   -0.000000
   70.822170    0.919655    0.919655    0.919655   -0.000000   -0.000000   -0.000000
   72.329025    0.816234    0.816233    0.816234   -0.000000   -0.000000   -0.000000
   73.835880    0.845924    0.845924    0.845924   -0.000001   -0.000000   -0.000000
   75.342734    0.842593    0.842593    0.842593   -0.000000   -0.000000   -0.000000
   76.849589    0.891591    0.891591    0.891591   -0.000000   -0.000000   -0.000000
   78.356444    0.843553    0.843553    0.843553   -0.000000   -0.000000   -0.000000
   79.863298    0.907537    0.907537    0.907538   -0.000001   -0.000000   -0.000000
   81.370153    0.834563    0.834563    0.834563   -0.000001   -0.000000   -0.000000
   82.877008    0.862713    0.862713    0.862713   -0.000001   -0.000000   -0.000000
   84.383862    0.861028    0.861028    0.861028   -0.000001    0.000000   -0.000001
   85.890717    0.897069    0.897069    0.897069    0.000000   -0.000000    0.000001
   87.397572    0.917517    0.917517    0.917517   -0.000000   -0.000000    0.000000
   88.904426    0.903177    0.903177    0.903177   -0.000000   -0.000000    0.000000
[...]
  128.082648    0.957357    0.957357    0.957357    0.000002    0.000000    0.000000
  129.589503    0.959191    0.959191    0.959191    0.000002    0.000000    0.000000
  131.096358    0.960794    0.960795    0.960794    0.000001    0.000000    0.000000
  132.603212    0.962234    0.962234    0.962234    0.000001    0.000000    0.000000
  134.110067    0.963547    0.963547    0.963547    0.000001    0.000000    0.000000
  135.616922    0.964758    0.964758    0.964758    0.000001    0.000000    0.000000
  137.123776    0.965884    0.965884    0.965884    0.000001    0.000000    0.000000
  138.630631    0.966937    0.966937    0.966937    0.000001    0.000000    0.000000
  140.137486    0.967926    0.967926    0.967926    0.000001    0.000000    0.000000
  141.644340    0.968858    0.968858    0.968858    0.000001    0.000000    0.000000
  143.151195    0.969739    0.969739    0.969739    0.000001    0.000000    0.000000
  144.658050    0.970575    0.970575    0.970575    0.000001    0.000000    0.000000
  146.164904    0.971369    0.971369    0.971369    0.000000    0.000000    0.000000
  147.671759    0.972125    0.972125    0.972125    0.000000    0.000000    0.000000
  149.178614    0.972845    0.972846    0.972845    0.000000    0.000000    0.000000

 The outermost node in the dielectric function lies at epsilon=  17.3