 vasp.5.4.4.18Apr17-6-g9f103f2a35 (build Nov 03 2018 10:20:46) complex

 executed on             LinuxIFC date 2018.12.06  11:58:11

 INCAR:
 POTCAR:    PAW_PBE Xe_GW 08Jan2009

 POTCAR:    PAW_PBE Xe_GW 08Jan2009
   VRHFIN =Xe: s2p6

   TITEL  = PAW_PBE Xe_GW 08Jan2009
   POMASS =  131.294; ZVAL   =    8.000    mass and valenz
   ENMAX  =  179.547; ENMIN  =  134.660 eV

  PAW_PBE Xe_GW 08Jan2009               :

 POSCAR: Xe_FCC
  positions in direct lattice
  velocities in cartesian coordinates

 METAGGA = SCAN     LMAXTAU =  0    LMIXTAU =  F

 ion  position               nearest neighbor table
   1  0.000  0.000  0.000-

IMPORTANT INFORMATION: All symmetrisations will be switched off!
NOSYMM: (Re-)initialisation of all symmetry stuff for point group C_1.

 KPOINTS: Automatically generated mesh + R-points
  k-points in reciprocal lattice
Space group operators:
 irot       det(A)        alpha          n_x          n_y          n_z        tau_x        tau_y        tau_z
    1     1.000000     0.000001     1.000000     0.000000     0.000000     0.000000     0.000000     0.000000

 SYSTEM =  Xe_FCC
 POSCAR =  Xe_FCC

 Startparameter for this run:
   NWRITE =      2    write-flag & timer
   PREC   = accura    normal or accurate (medium, high low for compatibility)
   ISTART =      1    job   : 0-new  1-cont  2-samecut
   ICHARG =      0    charge: 1-file 2-atom 10-const
   ISPIN  =      1    spin polarized calculation?
   LNONCOLLINEAR =      T non collinear calculations
   LSORBIT =      T    spin-orbit coupling
   INIWAV =      1    electr: 0-lowe 1-rand  2-diag
   LASPH  =      F    aspherical Exc in radial PAW
   METAGGA=      F    non-selfconsistent MetaGGA calc.

 Electronic Relaxation 1
   ENCUT  =  300.0 eV  22.05 Ry    4.70 a.u.   6.26  6.26  6.26*2*pi/ulx,y,z
   ENINI  =  300.0     initial cutoff
   ENAUG  =  605.9 eV  augmentation charge cutoff
   NELM   =     50;   NELMIN=  2; NELMDL= -5     # of ELM steps
   EDIFF  = 0.1E-07   stopping-criterion for ELM
   LREAL  =      F    real-space projection
   NLSPLINE    = F    spline interpolate recip. space projectors
   LCOMPAT=      F    compatible to vasp.4.4
   GGA_COMPAT  = F    GGA compatible to vasp.4.4-vasp.4.6
   LMAXPAW     = -100 max onsite density
   LMAXMIX     =    2 max onsite mixed and CHGCAR
   VOSKOWN=      0    Vosko Wilk Nusair interpolation
   ROPT   =    0.00000
 Ionic relaxation
   EDIFFG = 0.1E-04   stopping-criterion for IOM
   NSW    =      1    number of steps for IOM
   NBLOCK =      1;   KBLOCK =      1    inner block; outer block
   IBRION =     -1    ionic relax: 0-MD 1-quasi-New 2-CG
   NFREE  =      5    steps in history (QN), initial steepest desc. (CG)
   ISIF   =      3    stress and relaxation
   IWAVPR =     10    prediction:  0-non 1-charg 2-wave 3-comb
   ISYM   =      0    0-nonsym 1-usesym 2-fastsym
   LCORR  =      T    Harris-Foulkes like correction to forces

   POTIM  = 0.1000    time-step for ionic-motion
   TEIN   =    0.0    initial temperature
   TEBEG  =    0.0;   TEEND  =   0.0 temperature during run
   SMASS  =  -3.00    Nose mass-parameter (am)
   estimated Nose-frequenzy (Omega)   =  0.10E-29 period in steps =****** mass=  -0.449E-27a.u.
   SCALEE = 1.0000    scale energy and forces
   NPACO  =    256;   APACO  = 16.0  distance and # of slots for P.C.
   PSTRESS=    0.0 pullay stress

  Mass of Ions in am
   POMASS = 131.29
  Ionic Valenz
   ZVAL   =   8.00
  Atomic Wigner-Seitz radii
  virtual crystal weights
   VCA    =   1.00
   NELECT =       8.0000    total number of electrons
   NUPDOWN=      -1.0000    fix difference up-down

 DOS related values:
   EMIN   =  10.00;   EMAX   =-10.00  energy-range for DOS
   EFERMI =   0.00
   ISMEAR =     0;   SIGMA  =   0.05  broadening in eV -4-tet -1-fermi 0-gaus

 Electronic relaxation 2 (details)
   IALGO  =     38    algorithm
   LDIAG  =      T    sub-space diagonalisation (order eigenvalues)
   LSUBROT=      F    optimize rotation matrix (better conditioning)
   TURBO    =      0    0=normal 1=particle mesh
   IRESTART =      0    0=no restart 2=restart with 2 vectors
   NREBOOT  =      0    no. of reboots
   NMIN     =      0    reboot dimension
   EREF     =   0.00    reference energy to select bands
   IMIX   =      4    mixing-type and parameters
     AMIX     =   0.40;   BMIX     =  1.00
     AMIX_MAG =   1.60;   BMIX_MAG =  1.00
     AMIN     =   0.10
     WC   =   100.;   INIMIX=   1;  MIXPRE=   1;  MAXMIX=  50

 Intra band minimization:
   WEIMIN = 0.0000     energy-eigenvalue tresh-hold
   EBREAK =  0.78E-10  absolut break condition
   DEPER  =   0.30     relativ break condition

   TIME   =   0.40     timestep for ELM

  volume/ion in A,a.u.               =      61.57       415.47
  Fermi-wavevector in a.u.,A,eV,Ry     =   0.829196  1.566953  9.354901  0.687566
  Thomas-Fermi vector in A             =   1.941701

 Write flags
   LWAVE        =      T    write WAVECAR
   LDOWNSAMPLE  =      F    k-point downsampling of WAVECAR
   LCHARG       =      T    write CHGCAR
   LVTOT        =      F    write LOCPOT, total local potential
   LVHAR        =      F    write LOCPOT, Hartree potential only
   LELF         =      F    write electronic localiz. function (ELF)
   LORBIT       =      0    0 simple, 1 ext, 2 COOP (PROOUT), +10 PAW based schemes

 Dipole corrections
   LMONO  =      F    monopole corrections only (constant potential shift)
   LDIPOL =      F    correct potential (dipole corrections)
   IDIPOL =      0    1-x, 2-y, 3-z, 4-all directions
   EPSILON=  1.0000000 bulk dielectric constant

 Exchange correlation treatment:
   GGA     =    --    GGA type
   VOSKOWN=      0    Vosko Wilk Nusair interpolation
   LHFCALC =     F    Hartree Fock is set to
   LHFONE  =     F    Hartree Fock one center treatment
   AEXX    =    0.0000 exact exchange contribution

 Linear response parameters
   LEPSILON=     F    determine dielectric tensor
   LRPA    =     F    only Hartree local field effects (RPA)
   LNABLA  =     F    use nabla operator in PAW spheres
   LVEL    =     F    velocity operator in full k-point grid
   LINTERFAST=   F  fast interpolation
   KINTER  =     0    interpolate to denser k-point grid
   CSHIFT  =0.1000    complex shift for real part using Kramers Kronig
   OMEGAMAX=  -1.0    maximum frequency
   DEG_THRESHOLD= 0.2000000E-02 threshold for treating states as degnerate
   RTIME   =   -0.100 relaxation time in fs
  (WPLASMAI=    0.000 imaginary part of plasma frequency in eV, 0.658/RTIME)
   DFIELD  = 0.0000000 0.0000000 0.0000000 field for delta impulse in time

 Orbital magnetization related:
   ORBITALMAG=     F  switch on orbital magnetization
   LCHIMAG   =     F  perturbation theory with respect to B field
   DQ        =  0.001000  dq finite difference perturbation B field
   LLRAUG    =     F  two centre corrections for induced B field

 Static calculation
 charge density and potential will be updated during run
 non collinear spin polarized calculation
 Variant of blocked Davidson
 Davidson routine will perform the subspace rotation
 perform sub-space diagonalisation
    after iterative eigenvector-optimisation
 modified Broyden-mixing scheme, WC =      100.0
 initial mixing is a Kerker type mixing with AMIX =  0.4000 and BMIX =      1.0000
 Hartree-type preconditioning will be used
 using additional bands           28
 reciprocal scheme for non local part
 use partial core corrections
 calculate Harris-corrections to forces
   (improved forces if not selfconsistent)
 use gradient corrections
 use of overlap-Matrix (Vanderbilt PP)
 Gauss-broadening in eV      SIGMA  =   0.05

  energy-cutoff  :      300.00
  volume of cell :       61.57
      direct lattice vectors                 reciprocal lattice vectors
     4.432200126  0.000000000  0.000000000     0.225621581 -0.130262681 -0.092109625
     2.216100063  3.838397904 -0.000000000     0.000000000  0.260525361 -0.092109625
     2.216100063  1.279465968  3.618876249    -0.000000000  0.000000000  0.276328874

  length of vectors
     4.432200126  4.432200126  4.432200126     0.276328874  0.276328874  0.276328874

 old parameters found on file WAVECAR:
  energy-cutoff  :      300.00
  volume of cell :       61.57
      direct lattice vectors                 reciprocal lattice vectors
     4.432200126  0.000000000  0.000000000     0.225621581 -0.130262681 -0.092109625
     2.216100063  3.838397904 -0.000000000     0.000000000  0.260525361 -0.092109625
     2.216100063  1.279465968  3.618876249    -0.000000000  0.000000000  0.276328874

  length of vectors

 k-points in units of 2pi/SCALE and weight: Automatically generated mesh + R-points
   0.11281079  0.06513134  0.04605481       0.000
   0.10717025  0.06187477  0.04375207       0.000
   0.10152971  0.05861821  0.04144933       0.000
   0.09588917  0.05536164  0.03914659       0.000
   0.09024863  0.05210507  0.03684385       0.000
   0.08460809  0.04884851  0.03454111       0.000
   0.07896755  0.04559194  0.03223837       0.000
   0.07332701  0.04233537  0.02993563       0.000
   0.06768647  0.03907880  0.02763289       0.000
   0.06204593  0.03582224  0.02533015       0.000
   0.05640540  0.03256567  0.02302741       0.000
   0.05076486  0.02930910  0.02072467       0.000
   0.04512432  0.02605254  0.01842192       0.000
   0.03948378  0.02279597  0.01611918       0.000
   0.03384324  0.01953940  0.01381644       0.000
   0.02820270  0.01628284  0.01151370       0.000
   0.02256216  0.01302627  0.00921096       0.000
   0.01692162  0.00976970  0.00690822       0.000
   0.01128108  0.00651313  0.00460548       0.000
   0.00564054  0.00325657  0.00230274       0.000
   0.00000000  0.00000000  0.00000000       0.000
  -0.00000000  0.00651313  0.00460548       0.000
  -0.00000000  0.01302627  0.00921096       0.000
  -0.00000000  0.01953940  0.01381644       0.000
  -0.00000000  0.02605254  0.01842192       0.000
  -0.00000000  0.03256567  0.02302741       0.000
  -0.00000000  0.03907880  0.02763289       0.000
  -0.00000000  0.04559194  0.03223837       0.000
  -0.00000000  0.05210507  0.03684385       0.000
  -0.00000000  0.05861821  0.04144933       0.000
  -0.00000000  0.06513134  0.04605481       0.000
  -0.00000000  0.07164447  0.05066029       0.000
  -0.00000000  0.07815761  0.05526577       0.000
  -0.00000000  0.08467074  0.05987126       0.000
  -0.00000000  0.09118388  0.06447674       0.000
  -0.00000000  0.09769701  0.06908222       0.000
  -0.00000000  0.10421014  0.07368770       0.000
  -0.00000000  0.11072328  0.07829318       0.000
  -0.00000000  0.11723641  0.08289866       0.000
  -0.00000000  0.12374955  0.08750414       0.000
  -0.00000000  0.13026268  0.09210962       0.000
   0.00000000  0.00000000  0.00000000       0.005
   0.03760360 -0.02171045 -0.01535160       0.005
   0.07520719 -0.04342089 -0.03070321       0.005
   0.11281079 -0.06513134 -0.04605481       0.005
  -0.07520719  0.04342089  0.03070321       0.005
  -0.03760360  0.02171045  0.01535160       0.005
   0.00000000  0.04342089 -0.01535160       0.005
   0.03760360  0.02171045 -0.03070321       0.005
   0.07520719  0.00000000 -0.04605481       0.005
   0.11281079 -0.02171045 -0.06140642       0.005
[...]
 k-point 43 :   0.1667 0.0000 0.0000  plane waves:    1436
 k-point 44 :   0.3333 0.0000 0.0000  plane waves:    1490
 k-point 45 :   0.5000 0.0000 0.0000  plane waves:    1436
 k-point 46 :  -0.3333 0.0000 0.0000  plane waves:    1490
 k-point 47 :  -0.1667 0.0000 0.0000  plane waves:    1436
 k-point 48 :   0.0000 0.1667 0.0000  plane waves:    1436
 k-point 49 :   0.1667 0.1667 0.0000  plane waves:    1418
 k-point 50 :   0.3333 0.1667 0.0000  plane waves:    1462
 k-point 51 :   0.5000 0.1667 0.0000  plane waves:    1464
 k-point 52 :  -0.3333 0.1667 0.0000  plane waves:    1452
 k-point 53 :  -0.1667 0.1667 0.0000  plane waves:    1464
 k-point 54 :   0.0000 0.3333 0.0000  plane waves:    1490
 k-point 55 :   0.1667 0.3333 0.0000  plane waves:    1462
 k-point 56 :   0.3333 0.3333 0.0000  plane waves:    1434
 k-point 57 :   0.5000 0.3333 0.0000  plane waves:    1458
 k-point 58 :  -0.3333 0.3333 0.0000  plane waves:    1436
 k-point 59 :  -0.1667 0.3333 0.0000  plane waves:    1452
 k-point 60 :   0.0000 0.5000 0.0000  plane waves:    1436
[...]
 k-point 85 :   0.1667 0.1667 0.1667  plane waves:    1436
 k-point 86 :   0.3333 0.1667 0.1667  plane waves:    1464
 k-point 87 :   0.5000 0.1667 0.1667  plane waves:    1452
 k-point 88 :  -0.3333 0.1667 0.1667  plane waves:    1464
 k-point 89 :  -0.1667 0.1667 0.1667  plane waves:    1462
 k-point 90 :   0.0000 0.3333 0.1667  plane waves:    1462
 k-point 91 :   0.1667 0.3333 0.1667  plane waves:    1464
 k-point 92 :   0.3333 0.3333 0.1667  plane waves:    1462
 k-point 93 :   0.5000 0.3333 0.1667  plane waves:    1456
 k-point 94 :  -0.3333 0.3333 0.1667  plane waves:    1460
 k-point 95 :  -0.1667 0.3333 0.1667  plane waves:    1456
 k-point 96 :   0.0000 0.5000 0.1667  plane waves:    1464
 k-point 97 :   0.1667 0.5000 0.1667  plane waves:    1452
 k-point 98 :   0.3333 0.5000 0.1667  plane waves:    1456
 k-point 99 :   0.5000 0.5000 0.1667  plane waves:    1458
 k-point ** :  -0.3333 0.5000 0.1667  plane waves:    1436
 k-point ** :  -0.1667 0.5000 0.1667  plane waves:    1460
 k-point ** :   0.0000-0.3333 0.1667  plane waves:    1452
 k-point ** :   0.1667-0.3333 0.1667  plane waves:    1464
 k-point ** :   0.3333-0.3333 0.1667  plane waves:    1460
 k-point ** :   0.5000-0.3333 0.1667  plane waves:    1436
 k-point ** :  -0.3333-0.3333 0.1667  plane waves:    1458
 k-point ** :  -0.1667-0.3333 0.1667  plane waves:    1456
 k-point ** :   0.0000-0.1667 0.1667  plane waves:    1464
 k-point ** :   0.1667-0.1667 0.1667  plane waves:    1462
 k-point ** :   0.3333-0.1667 0.1667  plane waves:    1456
 k-point ** :   0.5000-0.1667 0.1667  plane waves:    1460
 k-point ** :  -0.3333-0.1667 0.1667  plane waves:    1456
 k-point ** :  -0.1667-0.1667 0.1667  plane waves:    1462
 k-point ** :   0.0000 0.0000 0.3333  plane waves:    1490
 k-point ** :   0.1667 0.0000 0.3333  plane waves:    1462
 k-point ** :   0.3333 0.0000 0.3333  plane waves:    1434
 k-point ** :   0.5000 0.0000 0.3333  plane waves:    1458
 k-point ** :  -0.3333 0.0000 0.3333  plane waves:    1436
 k-point ** :  -0.1667 0.0000 0.3333  plane waves:    1452
 k-point ** :   0.0000 0.1667 0.3333  plane waves:    1462
 k-point ** :   0.1667 0.1667 0.3333  plane waves:    1464
 k-point ** :   0.3333 0.1667 0.3333  plane waves:    1462
 k-point ** :   0.5000 0.1667 0.3333  plane waves:    1456
 k-point ** :  -0.3333 0.1667 0.3333  plane waves:    1460
 k-point ** :  -0.1667 0.1667 0.3333  plane waves:    1456
 k-point ** :   0.0000 0.3333 0.3333  plane waves:    1434
 k-point ** :   0.1667 0.3333 0.3333  plane waves:    1462
 k-point ** :   0.3333 0.3333 0.3333  plane waves:    1490
 k-point ** :   0.5000 0.3333 0.3333  plane waves:    1452
 k-point ** :  -0.3333 0.3333 0.3333  plane waves:    1436
 k-point ** :  -0.1667 0.3333 0.3333  plane waves:    1458
 k-point ** :   0.0000 0.5000 0.3333  plane waves:    1458
 k-point ** :   0.1667 0.5000 0.3333  plane waves:    1456
 k-point ** :   0.3333 0.5000 0.3333  plane waves:    1452
 k-point ** :   0.5000 0.5000 0.3333  plane waves:    1464
 k-point ** :  -0.3333 0.5000 0.3333  plane waves:    1460
 k-point ** :  -0.1667 0.5000 0.3333  plane waves:    1436
 k-point ** :   0.0000-0.3333 0.3333  plane waves:    1436
 k-point ** :   0.1667-0.3333 0.3333  plane waves:    1460
 k-point ** :   0.3333-0.3333 0.3333  plane waves:    1436
 k-point ** :   0.5000-0.3333 0.3333  plane waves:    1460
 k-point ** :  -0.3333-0.3333 0.3333  plane waves:    1436
 k-point ** :  -0.1667-0.3333 0.3333  plane waves:    1460
 k-point ** :   0.0000-0.1667 0.3333  plane waves:    1452
 k-point ** :   0.1667-0.1667 0.3333  plane waves:    1456
 k-point ** :   0.3333-0.1667 0.3333  plane waves:    1458
 k-point ** :   0.5000-0.1667 0.3333  plane waves:    1436
 k-point ** :  -0.3333-0.1667 0.3333  plane waves:    1460
 k-point ** :  -0.1667-0.1667 0.3333  plane waves:    1464
 k-point ** :   0.0000 0.0000 0.5000  plane waves:    1436
 k-point ** :   0.1667 0.0000 0.5000  plane waves:    1464
 k-point ** :   0.3333 0.0000 0.5000  plane waves:    1458
 k-point ** :   0.5000 0.0000 0.5000  plane waves:    1480
 k-point ** :  -0.3333 0.0000 0.5000  plane waves:    1458
 k-point ** :  -0.1667 0.0000 0.5000  plane waves:    1464
 k-point ** :   0.0000 0.1667 0.5000  plane waves:    1464
 k-point ** :   0.1667 0.1667 0.5000  plane waves:    1452
 k-point ** :   0.3333 0.1667 0.5000  plane waves:    1456
 k-point ** :   0.5000 0.1667 0.5000  plane waves:    1458
[...]
 k-point ** :   0.3333 0.5000-0.1667  plane waves:    1436
 k-point ** :   0.5000 0.5000-0.1667  plane waves:    1458
 k-point ** :  -0.3333 0.5000-0.1667  plane waves:    1456
 k-point ** :  -0.1667 0.5000-0.1667  plane waves:    1452
 k-point ** :   0.0000-0.3333-0.1667  plane waves:    1462
 k-point ** :   0.1667-0.3333-0.1667  plane waves:    1456
 k-point ** :   0.3333-0.3333-0.1667  plane waves:    1460
 k-point ** :   0.5000-0.3333-0.1667  plane waves:    1456
 k-point ** :  -0.3333-0.3333-0.1667  plane waves:    1462
 k-point ** :  -0.1667-0.3333-0.1667  plane waves:    1464
 k-point ** :   0.0000-0.1667-0.1667  plane waves:    1418
 k-point ** :   0.1667-0.1667-0.1667  plane waves:    1462
 k-point ** :   0.3333-0.1667-0.1667  plane waves:    1464
 k-point ** :   0.5000-0.1667-0.1667  plane waves:    1452
 k-point ** :  -0.3333-0.1667-0.1667  plane waves:    1464

 maximum and minimum number of plane-waves per node :      1490     1418

 maximum number of plane-waves:      1490
 maximum index in each direction:
   IXMAX=    6   IYMAX=    6   IZMAX=    6
   IXMIN=   -6   IYMIN=   -6   IZMIN=   -6

 serial   3D FFT for wavefunctions
 parallel 3D FFT for charge:
    minimum data exchange during FFTs selected (reduces bandwidth)

 Broyden mixing: mesh for mixing (old mesh)
   NGX = 13   NGY = 13   NGZ = 13
  (NGX  = 56   NGY  = 56   NGZ  = 56)
  gives a total of   2197 points

 charge density for first step will be calculated from the start-wavefunctions

 Maximum index for augmentation-charges       136553 (set IRDMAX)

 initial charge from wavefunction
 First call to EWALD:  gamma=   0.449
 Maximum number of real-space cells 3x 3x 3
 Maximum number of reciprocal cells 3x 3x 3

--------------------------------------- Iteration      1(   1)  ---------------------------------------

 eigenvalue-minimisations  : 18288
 total energy-change (2. order) :-0.3639739E+02  (-0.3030875E-09)
 number of electron       8.0000000 magnetization      -0.0000000     -0.0000000     -0.0000000
 augmentation part       -1.3388835 magnetization      -0.0000011     -0.0000006     -0.0000002

 Free energy of the ion-electron system (eV)
  alpha Z        PSCENC =        21.17661221
  Ewald energy   TEWEN  =      -337.05282163
  -Hartree energ DENC   =       -68.57017929
  -exchange      EXHF   =         0.00000000
  -V(xc)+E(xc)   XCENC  =       -57.20375880
  PAW double counting   =       417.63576275     -377.30350091
  entropy T*S    EENTRO =        -0.00000000
  eigenvalues    EBANDS =       -64.58228255
  atomic energy  EATOM  =       429.50278051
  Solvation  Ediel_sol  =         0.00000000
  free energy    TOTEN  =       -36.39738771 eV

  energy without entropy =      -36.39738771  energy(sigma->0) =      -36.39738771

[...]

 eigenvalue-minimisations  : 12104
 total energy-change (2. order) : 0.1125500E-10  (-0.1556543E-12)
 number of electron       8.0000000 magnetization      -0.0000000     -0.0000000     -0.0000000
 augmentation part       -1.3388835 magnetization      -0.0000002      0.0000001      0.0000003

 Broyden mixing:
  rms(total) = 0.33963E-05    rms(broyden)= 0.33955E-05
  rms(prec ) = 0.37345E-05
  weight for this iteration     100.00

[...]

 Broyden mixing:
  rms(total) = 0.39364E-05    rms(broyden)= 0.39360E-05
  rms(prec ) = 0.40314E-05
  weight for this iteration     100.00

 eigenvalues of (default mixing * dielectric matrix)
  average eigenvalue GAMMA=   0.4378
  0.4378

[...]

--------------------------------------- Iteration      1(   7)  ---------------------------------------

 eigenvalue-minimisations  : 11432
 total energy-change (2. order) :-0.2639069E-08  (-0.2250834E-09)
 number of electron       8.0000000 magnetization      -0.0000000     -0.0000000     -0.0000000
 augmentation part       -1.3388835 magnetization      -0.0000001      0.0000000      0.0000005

 Free energy of the ion-electron system (eV)
  alpha Z        PSCENC =        21.17661221
  Ewald energy   TEWEN  =      -337.05282163
  -Hartree energ DENC   =       -68.57019146
  -exchange      EXHF   =         0.00000000
  -V(xc)+E(xc)   XCENC  =       -57.20375734
  PAW double counting   =       417.63603100     -377.30377061
  entropy T*S    EENTRO =        -0.00000000
  eigenvalues    EBANDS =       -64.58227040
  atomic energy  EATOM  =       429.50278051
  Solvation  Ediel_sol  =         0.00000000
  free energy    TOTEN  =       -36.39738772 eV

  energy without entropy =      -36.39738772  energy(sigma->0) =      -36.39738772

 average (electrostatic) potential at core
  the test charge radii are     1.1266
  (the norm of the test charge is              1.0000)
       1 -63.1464

 E-fermi :  -3.7310     XC(G=0):  -7.0159     alpha+bet : -3.5563

 k-point     1 :       0.5000    0.5000    0.5000
  band No.  band energies     occupation
      1     -16.9657      1.00000
      2     -16.9656      1.00000
      3      -6.2180      1.00000
      4      -6.2180      1.00000
      5      -4.8310      1.00000
      6      -4.8310      1.00000
      7      -4.2096      1.00000
      8      -4.2096      1.00000
      9       3.9767      0.00000
     10       3.9767      0.00000
     11       6.6681      0.00000
     12       6.6681      0.00000
     13       6.7262      0.00000
     14       6.7262      0.00000
     15       7.0221      0.00000
     16       7.0221      0.00000
     17       9.7599      0.00000
     18       9.7599      0.00000
     19      11.0498      0.00000
     20      11.0498      0.00000
     21      11.0982      0.00000
     22      11.0982      0.00000
     23      12.9509      0.00000
     24      12.9509      0.00000
     25      12.9710      0.00000
     26      12.9710      0.00000
     27      13.0485      0.00000
     28      13.0485      0.00000
     29      17.6189      0.00000
     30      17.6190      0.00000
     31      18.2001      0.00000
     32      18.2100      0.00000

[...]

 k-point   256 :      -0.3333   -0.1667   -0.1667
  band No.  band energies     occupation
      1     -17.0525      1.00000
      2     -17.0525      1.00000
      3      -5.7580      1.00000
      4      -5.7580      1.00000
      5      -4.6254      1.00000
      6      -4.6254      1.00000
      7      -4.1956      1.00000
      8      -4.1956      1.00000
      9       3.9775      0.00000
     10       3.9775      0.00000
     11       5.9612      0.00000
     12       5.9612      0.00000
     13       6.7002      0.00000
     14       6.7002      0.00000
     15       7.7110      0.00000
     16       7.7110      0.00000
     17       7.7885      0.00000
     18       7.7885      0.00000
     19       9.9479      0.00000
     20       9.9479      0.00000
     21      11.6078      0.00000
     22      11.6078      0.00000
     23      12.0039      0.00000
     24      12.0039      0.00000
     25      13.9649      0.00000
     26      13.9649      0.00000
     27      14.8713      0.00000
     28      14.8713      0.00000
     29      15.5851      0.00000
     30      15.5851      0.00000
     31      18.0144      0.00000
     32      18.0162      0.00000

 soft charge-density along one line, spin component           1
         0         1         2         3         4         5         6         7         8         9
 total charge-density along one line

[...]

 soft charge-density along one line, spin component           4
         0         1         2         3         4         5         6         7         8         9
 total charge-density along one line

------------------------ aborting loop because EDIFF is reached ----------------------------------------

  FORCE on cell =-STRESS in cart. coord.  units (eV):
  Direction    XX          YY          ZZ          XY          YZ          ZX
  Alpha Z    21.17661    21.17661    21.17661
  Ewald    -112.35094  -112.35094  -112.35094    -0.00000    -0.00000     0.00000
  Hartree    22.85529    22.85722    22.85770    -0.00167    -0.00068    -0.00118
  E(xc)     -39.94598   -39.94533   -39.94517    -0.00056    -0.00023    -0.00040
  Local     -17.10476   -17.10376   -17.10351    -0.00087    -0.00036    -0.00062
  n-local    44.70952    44.70791    44.70750     0.00140     0.00057     0.00099
  augment   -11.71937   -11.71825   -11.71796    -0.00097    -0.00040    -0.00069
  Kinetic    92.35948    92.35040    92.34813     0.00787     0.00321     0.00556
  Fock        0.00000     0.00000     0.00000     0.00000     0.00000     0.00000
  Total      -0.02015    -0.02615    -0.02764     0.00520     0.00212     0.00368
  in kB      -0.52442    -0.68062    -0.71921     0.13525     0.05519     0.09564

 VOLUME and BASIS-vectors are now :
  energy-cutoff  :      300.00
  volume of cell :       61.57
      direct lattice vectors                 reciprocal lattice vectors
     4.432200126  0.000000000  0.000000000     0.225621581 -0.130262681 -0.092109625
     2.216100063  3.838397904 -0.000000000     0.000000000  0.260525361 -0.092109625
     2.216100063  1.279465968  3.618876249    -0.000000000  0.000000000  0.276328874

  length of vectors
     4.432200126  4.432200126  4.432200126     0.276328874  0.276328874  0.276328874

 FORCES acting on ions
    electron-ion (+dipol)            ewald-force                    non-local-force                 convergence-correction
   0.835E-07 -.111E-06 -.603E-07   0.119E-15 -.320E-16 -.288E-15   -.458E-07 0.672E-07 0.523E-08   -.639E-07 0.943E-07 0.384E-07
   0.768E-07 -.996E-07 -.634E-07   0.119E-15 -.320E-16 -.288E-15   -.458E-07 0.672E-07 0.523E-08   -.639E-07 0.943E-07 0.384E-07

 POSITION                                       TOTAL-FORCE (eV/Angst)
      0.00000      0.00000      0.00000        -0.000000      0.000000     -0.000000
    total drift:                               -0.000000      0.000000     -0.000000

  FREE ENERGIE OF THE ION-ELECTRON SYSTEM (eV)
  free  energy   TOTEN  =       -36.39738772 eV

  energy  without entropy=      -36.39738772  energy(sigma->0) =      -36.39738772

 writing wavefunctions

 Spin-Orbit-Coupling matrix elements

 Ion:    1  E_soc:     -0.2840097
 l=   1
     0.0000000    -0.0473349    -0.0473276
    -0.0473349     0.0000000    -0.0473290
    -0.0473276    -0.0473290     0.0000000
 l=   2
     0.0000000    -0.0000009     0.0000000    -0.0000009    -0.0000037
    -0.0000009     0.0000000    -0.0000027    -0.0000008    -0.0000009
     0.0000000    -0.0000027     0.0000000    -0.0000028     0.0000000
    -0.0000009    -0.0000008    -0.0000028     0.0000000    -0.0000009
    -0.0000037    -0.0000009     0.0000000    -0.0000009     0.0000000
 l=   3
     0.0000000     0.0000000     0.0000000     0.0000000     0.0000000     0.0000000    -0.0000000
     0.0000000     0.0000000    -0.0000000     0.0000000    -0.0000000    -0.0000000    -0.0000000
     0.0000000    -0.0000000     0.0000000    -0.0000000    -0.0000000    -0.0000000     0.0000000
     0.0000000     0.0000000    -0.0000000     0.0000000    -0.0000000     0.0000000     0.0000000
     0.0000000    -0.0000000    -0.0000000    -0.0000000     0.0000000    -0.0000000     0.0000000
     0.0000000    -0.0000000    -0.0000000     0.0000000    -0.0000000     0.0000000    -0.0000000
    -0.0000000    -0.0000000     0.0000000     0.0000000     0.0000000    -0.0000000     0.0000000