 vasp.5.4.4.18Apr17-6-g9f103f2a35 (build Nov 03 2018 10:20:46) complex

 executed on             LinuxIFC date 2018.11.30  12:37:41

 INCAR:
 POTCAR:    PAW Og, JanMewes Oct 18

 POTCAR:    PAW Og, JanMewes Oct 18
   VRHFIN =Og : 10d 2s 6p, PE

   TITEL  = PAW Og, JanMewes Oct 18
   POMASS =    0.010; ZVAL   =   18.000    mass and valenz
   ENMAX  =  339.336; ENMIN  =  254.502 eV
   QCUT   =   -4.994; QGAM   =    9.988    optimization parameters

  PAW Og, JanMewes Oct 18               :

 POSCAR: Og_FCC
  positions in direct lattice
  velocities in cartesian coordinates

 METAGGA = SCAN     LMAXTAU =  0    LMIXTAU =  F

 ion  position               nearest neighbor table
   1  0.000  0.000  0.000-

  LATTYP: Found a face centered cubic cell.
 ALAT       =     6.2218752288

  Lattice vectors:

 A1 = (   4.3995301659,   0.0000000000,   0.0000000000)
 A2 = (   2.1997650829,   3.8101048883,  -0.0000000000)
 A3 = (   2.1997650829,   1.2700349628,   3.5922013382)

Analysis of symmetry for initial positions (statically):
 Subroutine PRICEL returns:
 Original cell was already a primitive cell.

 Routine SETGRP: Setting up the symmetry group for a
 face centered cubic supercell.

 Subroutine GETGRP returns: Found 48 space group operations
 (whereof 48 operations were pure point group operations)
 out of a pool of 48 trial point group operations.

The static configuration has the point symmetry O_h .

Analysis of symmetry for dynamics (positions and initial velocities):
 Subroutine PRICEL returns:
 Original cell was already a primitive cell.

[...]

The dynamic configuration has the point symmetry O_h .

Analysis of structural, dynamic, and magnetic symmetry:
 Subroutine PRICEL returns:
 Original cell was already a primitive cell.

 Routine SETGRP: Setting up the symmetry group for a
 face centered cubic supercell.

 Subroutine GETGRP returns: Found  2 space group operations
 (whereof  2 operations were pure point group operations)
 out of a pool of 48 trial point group operations.

The (compounded) configuration has the point symmetry S_2 .

 Subroutine INISYM returns: Found  2 space group operations
 (whereof  2 operations are pure point group operations),
 and found     1 'primitive' translations

Automatic generation of k-mesh.
 generate k-points for:    9    9    9
Space group operators:
 irot       det(A)        alpha          n_x          n_y          n_z        tau_x        tau_y        tau_z
    1     1.000000     0.000001     1.000000     0.000000     0.000000     0.000000     0.000000     0.000000
    2    -1.000000     0.000001     1.000000     0.000000     0.000000     0.000000     0.000000     0.000000

 Subroutine IBZKPT returns following result:

 Found    365 irreducible k-points:

 Following reciprocal coordinates:
            Coordinates               Weight
  0.000000  0.000000  0.000000      1.000000
  0.111111  0.000000 -0.000000      2.000000
  0.222222 -0.000000  0.000000      2.000000
  0.333333  0.000000  0.000000      2.000000
  0.444444 -0.000000  0.000000      2.000000
  0.000000  0.111111  0.000000      2.000000
  0.111111  0.111111  0.000000      2.000000
  0.222222  0.111111  0.000000      2.000000
  0.333333  0.111111  0.000000      2.000000
  0.444444  0.111111  0.000000      2.000000
 -0.444444  0.111111 -0.000000      2.000000
 -0.333333  0.111111  0.000000      2.000000
 -0.222222  0.111111  0.000000      2.000000
 -0.111111  0.111111  0.000000      2.000000
  0.000000  0.222222  0.000000      2.000000
  0.111111  0.222222  0.000000      2.000000
  0.222222  0.222222  0.000000      2.000000
  0.333333  0.222222  0.000000      2.000000
  0.444444  0.222222  0.000000      2.000000
 -0.444444  0.222222  0.000000      2.000000
 -0.333333  0.222222  0.000000      2.000000
 -0.222222  0.222222  0.000000      2.000000
 -0.111111  0.222222  0.000000      2.000000
  0.000000  0.333333  0.000000      2.000000
  0.111111  0.333333  0.000000      2.000000
  0.222222  0.333333  0.000000      2.000000
  0.333333  0.333333  0.000000      2.000000
  0.444444  0.333333  0.000000      2.000000
 -0.444444  0.333333  0.000000      2.000000
 -0.333333  0.333333  0.000000      2.000000
 -0.222222  0.333333  0.000000      2.000000
 -0.111111  0.333333  0.000000      2.000000
  0.000000  0.444444  0.000000      2.000000
  0.111111  0.444444  0.000000      2.000000
  0.222222  0.444444  0.000000      2.000000
  0.333333  0.444444  0.000000      2.000000
  0.444444  0.444444  0.000000      2.000000
 -0.444444  0.444444  0.000000      2.000000
 -0.333333  0.444444  0.000000      2.000000
 -0.222222  0.444444  0.000000      2.000000
 -0.111111  0.444444  0.000000      2.000000
 -0.000000  0.000000  0.111111      2.000000
  0.111111  0.000000  0.111111      2.000000
  0.222222 -0.000000  0.111111      2.000000
  0.333333  0.000000  0.111111      2.000000
  0.444444 -0.000000  0.111111      2.000000
 -0.444444  0.000000  0.111111      2.000000
 -0.333333  0.000000  0.111111      2.000000
 -0.222222  0.000000  0.111111      2.000000
 -0.111111 -0.000000  0.111111      2.000000
 -0.000000  0.111111  0.111111      2.000000
  0.111111  0.111111  0.111111      2.000000
  0.222222  0.111111  0.111111      2.000000
  0.333333  0.111111  0.111111      2.000000
  0.444444  0.111111  0.111111      2.000000
 -0.444444  0.111111  0.111111      2.000000
 -0.333333  0.111111  0.111111      2.000000
 -0.222222  0.111111  0.111111      2.000000
 -0.111111  0.111111  0.111111      2.000000
 -0.000000  0.222222  0.111111      2.000000
[...]
  0.333333 -0.222222  0.444444      2.000000
  0.444444 -0.222222  0.444444      2.000000
 -0.444444 -0.222222  0.444444      2.000000
 -0.333333 -0.222222  0.444444      2.000000
 -0.222222 -0.222222  0.444444      2.000000
 -0.111111 -0.222222  0.444444      2.000000
 -0.000000 -0.111111  0.444444      2.000000
  0.111111 -0.111111  0.444444      2.000000
  0.222222 -0.111111  0.444444      2.000000
  0.333333 -0.111111  0.444444      2.000000
  0.444444 -0.111111  0.444444      2.000000
 -0.444444 -0.111111  0.444444      2.000000
 -0.333333 -0.111111  0.444444      2.000000
 -0.222222 -0.111111  0.444444      2.000000
 -0.111111 -0.111111  0.444444      2.000000

 Following cartesian coordinates:
            Coordinates               Weight
  0.000000  0.000000  0.000000      1.000000
  0.025255 -0.014581 -0.010310      2.000000
  0.050510 -0.029162 -0.020621      2.000000
  0.075766 -0.043743 -0.030931      2.000000
  0.101021 -0.058324 -0.041242      2.000000
  0.000000  0.029162 -0.010310      2.000000
  0.025255  0.014581 -0.020621      2.000000
  0.050510 -0.000000 -0.030931      2.000000
  0.075766 -0.014581 -0.041242      2.000000
  0.101021 -0.029162 -0.051552      2.000000
 -0.101021  0.087487  0.030931      2.000000
 -0.075766  0.072906  0.020621      2.000000
 -0.050510  0.058324  0.010310      2.000000
 -0.025255  0.043743  0.000000      2.000000
  0.000000  0.058324 -0.020621      2.000000
  0.025255  0.043743 -0.030931      2.000000
  0.050510  0.029162 -0.041242      2.000000
  0.075766  0.014581 -0.051552      2.000000
  0.101021  0.000000 -0.061862      2.000000
 -0.101021  0.116649  0.020621      2.000000
 -0.075766  0.102068  0.010310      2.000000
 -0.050510  0.087487  0.000000      2.000000
 -0.025255  0.072906 -0.010310      2.000000
  0.000000  0.087487 -0.030931      2.000000
  0.025255  0.072906 -0.041242      2.000000
  0.050510  0.058324 -0.051552      2.000000
  0.075766  0.043743 -0.061862      2.000000
  0.101021  0.029162 -0.072173      2.000000
 -0.101021  0.145811  0.010310      2.000000
 -0.075766  0.131230  0.000000      2.000000
 -0.050510  0.116649 -0.010310      2.000000
 -0.025255  0.102068 -0.020621      2.000000
  0.000000  0.116649 -0.041242      2.000000
  0.025255  0.102068 -0.051552      2.000000
  0.050510  0.087487 -0.061862      2.000000
  0.075766  0.072906 -0.072173      2.000000
  0.101021  0.058324 -0.082483      2.000000
 -0.101021  0.174973  0.000000      2.000000
 -0.075766  0.160392 -0.010310      2.000000
 -0.050510  0.145811 -0.020621      2.000000
 -0.025255  0.131230 -0.030931      2.000000
 -0.000000  0.000000  0.030931      2.000000
  0.025255 -0.014581  0.020621      2.000000
  0.050510 -0.029162  0.010310      2.000000
  0.075766 -0.043743 -0.000000      2.000000
  0.101021 -0.058324 -0.010310      2.000000
 -0.101021  0.058324  0.072173      2.000000
 -0.075766  0.043743  0.061862      2.000000
 -0.050510  0.029162  0.051552      2.000000
 -0.025255  0.014581  0.041242      2.000000
 -0.000000  0.029162  0.020621      2.000000
  0.025255  0.014581  0.010310      2.000000
  0.050510 -0.000000 -0.000000      2.000000
  0.075766 -0.014581 -0.010310      2.000000
  0.101021 -0.029162 -0.020621      2.000000
 -0.101021  0.087487  0.061862      2.000000
 -0.075766  0.072906  0.051552      2.000000
 -0.050510  0.058324  0.041242      2.000000
 -0.025255  0.043743  0.030931      2.000000
 -0.000000  0.058324  0.010310      2.000000
[...]
  0.075766 -0.102068  0.113414      2.000000
  0.101021 -0.116649  0.103104      2.000000
 -0.101021  0.000000  0.185587      2.000000
 -0.075766 -0.014581  0.175277      2.000000
 -0.050510 -0.029162  0.164966      2.000000
 -0.025255 -0.043743  0.154656      2.000000
 -0.000000 -0.029162  0.134035      2.000000
  0.025255 -0.043743  0.123725      2.000000
  0.050510 -0.058324  0.113414      2.000000
  0.075766 -0.072906  0.103104      2.000000
  0.101021 -0.087487  0.092794      2.000000
 -0.101021  0.029162  0.175277      2.000000
 -0.075766  0.014581  0.164966      2.000000
 -0.050510  0.000000  0.154656      2.000000
 -0.025255 -0.014581  0.144346      2.000000

 SYSTEM =  Og_FCC
 POSCAR =  Og_FCC

 Startparameter for this run:
   NWRITE =      2    write-flag & timer
   PREC   = accura    normal or accurate (medium, high low for compatibility)
   ISTART =      0    job   : 0-new  1-cont  2-samecut
   ICHARG =      2    charge: 1-file 2-atom 10-const
   ISPIN  =      1    spin polarized calculation?
   LNONCOLLINEAR =      T non collinear calculations
   LSORBIT =      T    spin-orbit coupling
   INIWAV =      1    electr: 0-lowe 1-rand  2-diag
   LASPH  =      F    aspherical Exc in radial PAW
   METAGGA=      F    non-selfconsistent MetaGGA calc.

 Electronic Relaxation 1
   ENCUT  =  600.0 eV  44.10 Ry    6.64 a.u.   8.79  8.79  8.79*2*pi/ulx,y,z
   ENINI  =  600.0     initial cutoff
   ENAUG  =  361.0 eV  augmentation charge cutoff
   NELM   =    100;   NELMIN=  5; NELMDL= -5     # of ELM steps
   EDIFF  = 0.1E-06   stopping-criterion for ELM
   LREAL  =      F    real-space projection
   NLSPLINE    = F    spline interpolate recip. space projectors
   LCOMPAT=      F    compatible to vasp.4.4
   GGA_COMPAT  = F    GGA compatible to vasp.4.4-vasp.4.6
   LMAXPAW     = -100 max onsite density
   LMAXMIX     =    2 max onsite mixed and CHGCAR
   VOSKOWN=      0    Vosko Wilk Nusair interpolation
   ROPT   =    0.00000
 Ionic relaxation
   EDIFFG = 0.1E-04   stopping-criterion for IOM
   NSW    =      1    number of steps for IOM
   NBLOCK =      1;   KBLOCK =      1    inner block; outer block
   IBRION =     -1    ionic relax: 0-MD 1-quasi-New 2-CG
[...]
 k-point 51 :  -0.0000 0.1111 0.1111  plane waves:    4034
 k-point 52 :   0.1111 0.1111 0.1111  plane waves:    4032
 k-point 53 :   0.2222 0.1111 0.1111  plane waves:    4030
 k-point 54 :   0.3333 0.1111 0.1111  plane waves:    4004
 k-point 55 :   0.4444 0.1111 0.1111  plane waves:    4018
 k-point 56 :  -0.4444 0.1111 0.1111  plane waves:    3992
 k-point 57 :  -0.3333 0.1111 0.1111  plane waves:    4016
 k-point 58 :  -0.2222 0.1111 0.1111  plane waves:    4000
 k-point 59 :  -0.1111 0.1111 0.1111  plane waves:    4000
 k-point 60 :  -0.0000 0.2222 0.1111  plane waves:    4000
[...]
 k-point 85 :  -0.2222 0.4444 0.1111  plane waves:    4026
 k-point 86 :  -0.1111 0.4444 0.1111  plane waves:    4014
 k-point 87 :   0.0000-0.4444 0.1111  plane waves:    3992
 k-point 88 :   0.1111-0.4444 0.1111  plane waves:    3992
 k-point 89 :   0.2222-0.4444 0.1111  plane waves:    4014
 k-point 90 :   0.3333-0.4444 0.1111  plane waves:    4014
 k-point 91 :   0.4444-0.4444 0.1111  plane waves:    4016
 k-point 92 :  -0.4444-0.4444 0.1111  plane waves:    4028
 k-point 93 :  -0.3333-0.4444 0.1111  plane waves:    4016
 k-point 94 :  -0.2222-0.4444 0.1111  plane waves:    4014
 k-point 95 :  -0.1111-0.4444 0.1111  plane waves:    4014
 k-point 96 :   0.0000-0.3333 0.1111  plane waves:    4018
 k-point 97 :   0.1111-0.3333 0.1111  plane waves:    4016
 k-point 98 :   0.2222-0.3333 0.1111  plane waves:    4014
 k-point 99 :   0.3333-0.3333 0.1111  plane waves:    4026
 k-point ** :   0.4444-0.3333 0.1111  plane waves:    4020
 k-point ** :  -0.4444-0.3333 0.1111  plane waves:    4016
 k-point ** :  -0.3333-0.3333 0.1111  plane waves:    4038
 k-point ** :  -0.2222-0.3333 0.1111  plane waves:    4028
 k-point ** :  -0.1111-0.3333 0.1111  plane waves:    4030
 k-point ** :   0.0000-0.2222 0.1111  plane waves:    4004
 k-point ** :   0.1111-0.2222 0.1111  plane waves:    4000
 k-point ** :   0.2222-0.2222 0.1111  plane waves:    4030
 k-point ** :   0.3333-0.2222 0.1111  plane waves:    4026
 k-point ** :   0.4444-0.2222 0.1111  plane waves:    4026
 k-point ** :  -0.4444-0.2222 0.1111  plane waves:    4014
 k-point ** :  -0.3333-0.2222 0.1111  plane waves:    4028
 k-point ** :  -0.2222-0.2222 0.1111  plane waves:    4016
 k-point ** :  -0.1111-0.2222 0.1111  plane waves:    3996
 k-point ** :   0.0000-0.1111 0.1111  plane waves:    4030
 k-point ** :   0.1111-0.1111 0.1111  plane waves:    4000
 k-point ** :   0.2222-0.1111 0.1111  plane waves:    3996
 k-point ** :   0.3333-0.1111 0.1111  plane waves:    4030
 k-point ** :   0.4444-0.1111 0.1111  plane waves:    4014
 k-point ** :  -0.4444-0.1111 0.1111  plane waves:    4014
 k-point ** :  -0.3333-0.1111 0.1111  plane waves:    4030
 k-point ** :  -0.2222-0.1111 0.1111  plane waves:    3996
 k-point ** :  -0.1111-0.1111 0.1111  plane waves:    4000
 k-point ** :  -0.0000-0.0000 0.2222  plane waves:    4018
 k-point ** :   0.1111-0.0000 0.2222  plane waves:    4000
 k-point ** :   0.2222 0.0000 0.2222  plane waves:    4016
 k-point ** :   0.3333-0.0000 0.2222  plane waves:    4016
 k-point ** :   0.4444-0.0000 0.2222  plane waves:    4032
 k-point ** :  -0.4444 0.0000 0.2222  plane waves:    4020
 k-point ** :  -0.3333 0.0000 0.2222  plane waves:    4004
 k-point ** :  -0.2222 0.0000 0.2222  plane waves:    4006
 k-point ** :  -0.1111-0.0000 0.2222  plane waves:    4004
 k-point ** :   0.0000 0.1111 0.2222  plane waves:    4000
 k-point ** :   0.1111 0.1111 0.2222  plane waves:    4030
 k-point ** :   0.2222 0.1111 0.2222  plane waves:    4000
 k-point ** :   0.3333 0.1111 0.2222  plane waves:    3996
 k-point ** :   0.4444 0.1111 0.2222  plane waves:    4030
 k-point ** :  -0.4444 0.1111 0.2222  plane waves:    4014
 k-point ** :  -0.3333 0.1111 0.2222  plane waves:    4014
 k-point ** :  -0.2222 0.1111 0.2222  plane waves:    4030
 k-point ** :  -0.1111 0.1111 0.2222  plane waves:    3996
 k-point ** :  -0.0000 0.2222 0.2222  plane waves:    4016
 k-point ** :   0.1111 0.2222 0.2222  plane waves:    4000
 k-point ** :   0.2222 0.2222 0.2222  plane waves:    4018
 k-point ** :   0.3333 0.2222 0.2222  plane waves:    4004
 k-point ** :   0.4444 0.2222 0.2222  plane waves:    4006
 k-point ** :  -0.4444 0.2222 0.2222  plane waves:    4004
 k-point ** :  -0.3333 0.2222 0.2222  plane waves:    4020
 k-point ** :  -0.2222 0.2222 0.2222  plane waves:    4032
 k-point ** :  -0.1111 0.2222 0.2222  plane waves:    4016
 k-point ** :   0.0000 0.3333 0.2222  plane waves:    4016
 k-point ** :   0.1111 0.3333 0.2222  plane waves:    3996
 k-point ** :   0.2222 0.3333 0.2222  plane waves:    4004
 k-point ** :   0.3333 0.3333 0.2222  plane waves:    4000
 k-point ** :   0.4444 0.3333 0.2222  plane waves:    4030
 k-point ** :  -0.4444 0.3333 0.2222  plane waves:    4026
 k-point ** :  -0.3333 0.3333 0.2222  plane waves:    4026
 k-point ** :  -0.2222 0.3333 0.2222  plane waves:    4014
 k-point ** :  -0.1111 0.3333 0.2222  plane waves:    4028
 k-point ** :  -0.0000 0.4444 0.2222  plane waves:    4032
[...]
 k-point ** :   0.3333-0.2222 0.4444  plane waves:    4020
 k-point ** :   0.4444-0.2222 0.4444  plane waves:    4040
 k-point ** :  -0.4444-0.2222 0.4444  plane waves:    4014
 k-point ** :  -0.3333-0.2222 0.4444  plane waves:    4026
 k-point ** :  -0.2222-0.2222 0.4444  plane waves:    4004
 k-point ** :  -0.1111-0.2222 0.4444  plane waves:    4014
 k-point ** :  -0.0000-0.1111 0.4444  plane waves:    3992
 k-point ** :   0.1111-0.1111 0.4444  plane waves:    4014
 k-point ** :   0.2222-0.1111 0.4444  plane waves:    4014
 k-point ** :   0.3333-0.1111 0.4444  plane waves:    4016
 k-point ** :   0.4444-0.1111 0.4444  plane waves:    4028
 k-point ** :  -0.4444-0.1111 0.4444  plane waves:    4016
 k-point ** :  -0.3333-0.1111 0.4444  plane waves:    4014
 k-point ** :  -0.2222-0.1111 0.4444  plane waves:    4014
 k-point ** :  -0.1111-0.1111 0.4444  plane waves:    3992

 maximum and minimum number of plane-waves per node :      1056      968

 maximum number of plane-waves:      4040
 maximum index in each direction:
   IXMAX=    9   IYMAX=    9   IZMAX=    8
   IXMIN=   -9   IYMIN=   -9   IZMIN=   -9

 parallel 3D FFT for wavefunctions:
    minimum data exchange during FFTs selected (reduces bandwidth)
 parallel 3D FFT for charge:
    minimum data exchange during FFTs selected (reduces bandwidth)

 Broyden mixing: mesh for mixing (old mesh)
   NGX = 17   NGY = 17   NGZ = 17
  (NGX  = 72   NGY  = 72   NGZ  = 72)
  gives a total of   4913 points

 initial charge density was supplied:
 charge density of overlapping atoms calculated
 number of electron      18.0000000 magnetization       1.0000000      1.0000000      1.0000000
 keeping initial charge density in first step

 Maximum index for augmentation-charges        44927 (set IRDMAX)

 First call to EWALD:  gamma=   0.452
 Maximum number of real-space cells 3x 3x 3
 Maximum number of reciprocal cells 3x 3x 3

--------------------------------------- Iteration      1(   1)  ---------------------------------------

 eigenvalue-minimisations  : 20832
 total energy-change (2. order) : 0.1536065E+03  (-0.9758991E+03)
 number of electron      18.0000000 magnetization       1.0000000      1.0000000      1.0000000
 augmentation part       18.0000000 magnetization       1.0000000      1.0000000      1.0000000

 Free energy of the ion-electron system (eV)
  alpha Z        PSCENC =        63.36068308
  Ewald energy   TEWEN  =     -1719.00074664
  -Hartree energ DENC   =      -674.80543035
  -exchange      EXHF   =         0.00000000
  -V(xc)+E(xc)   XCENC  =       -43.17791975
  PAW double counting   =      2249.54693127    -2316.95582243
  entropy T*S    EENTRO =         0.00013151
  eigenvalues    EBANDS =       -45.89008801
  atomic energy  EATOM  =      2640.52872706
  Solvation  Ediel_sol  =         0.00000000
  free energy    TOTEN  =       153.60646574 eV

  energy without entropy =      153.60633423  energy(sigma->0) =      153.60642190

[...]

 eigenvalue-minimisations  : 25864
 total energy-change (2. order) :-0.2948182E+03  (-0.2870290E+03)
 number of electron      18.0000000 magnetization       1.0000000      1.0000000      1.0000000
 augmentation part       18.0000000 magnetization       1.0000000      1.0000000      1.0000000

[...]

 Broyden mixing:
  rms(total) = 0.64771E+00    rms(broyden)= 0.64765E+00
  rms(prec ) = 0.98126E+00
  weight for this iteration     100.00

[...]

 eigenvalues of (default mixing * dielectric matrix)
  average eigenvalue GAMMA=   0.7507
  0.7507

[...]

 eigenvalue-minimisations  : 30534
 total energy-change (2. order) :-0.2466360E-05  (-0.3999794E-05)
 number of electron      18.0000000 magnetization      -0.0001436      0.0003441      0.0004394
 augmentation part        2.8003374 magnetization      -0.0001410      0.0003075      0.0004213

[...]

 Broyden mixing:
  rms(total) = 0.21937E-03    rms(broyden)= 0.21937E-03
  rms(prec ) = 0.23543E-03
  weight for this iteration     100.00

 eigenvalues of (default mixing * dielectric matrix)
  average eigenvalue GAMMA=   0.9159
  2.7435  2.7435  1.5993  1.5993  1.1105  1.1105  0.9729  0.9729  0.8377  0.5867
  0.5867  0.6123  0.6123  0.6407  0.6407  0.4297  0.4297  0.2504  0.4662  0.4662
  0.3667  0.3716

[...]

--------------------------------------- Iteration      1(  28)  ---------------------------------------

 eigenvalue-minimisations  : 25138
 total energy-change (2. order) : 0.8330562E-07  (-0.4509592E-07)
 number of electron      18.0000000 magnetization       0.0001546      0.0000496      0.0000459
 augmentation part        2.8004223 magnetization       0.0001101      0.0000218      0.0000164

 Free energy of the ion-electron system (eV)
  alpha Z        PSCENC =        63.36068308
  Ewald energy   TEWEN  =     -1719.00074664
  -Hartree energ DENC   =      -686.69861178
  -exchange      EXHF   =         0.00000000
  -V(xc)+E(xc)   XCENC  =       -50.80550061
  PAW double counting   =      2394.02641380    -2470.07364888
  entropy T*S    EENTRO =         0.00011525
  eigenvalues    EBANDS =      -321.25099440
  atomic energy  EATOM  =      2640.52872706
  Solvation  Ediel_sol  =         0.00000000
  free energy    TOTEN  =      -149.91356313 eV

  energy without entropy =     -149.91367838  energy(sigma->0) =     -149.91360155

 average (electrostatic) potential at core
  the test charge radii are     1.2024
  (the norm of the test charge is              1.0000)
       1-112.6649

 E-fermi :   3.1937     XC(G=0):  -8.4425     alpha+bet : -7.2876

 k-point     1 :       0.0000    0.0000    0.0000
  band No.  band energies     occupation
      1     -31.0360      1.00000
      2     -31.0359      1.00000
      3     -31.0359      1.00000
      4     -31.0359      1.00000
      5     -24.3472      1.00000
      6     -24.3472      1.00000
      7     -24.3436      1.00000
      8     -24.3436      1.00000
      9     -24.3435      1.00000
     10     -24.3435      1.00000
     11     -20.7134      1.00000
     12     -20.7128      1.00000
     13      -6.9599      1.00000
     14      -6.9597      1.00000
     15       3.1447      0.86439
     16       3.1448      0.86400
     17       3.1450      0.86276
     18       3.1451      0.86236
     19       3.3820     -0.01144
     20       3.3824     -0.01131
     21      10.5052      0.00000
     22      10.5053      0.00000
     23      10.5056      0.00000
     24      10.5057      0.00000
     25      10.9341      0.00000
     26      10.9342      0.00000
     27      11.0810      0.00000
     28      11.0812      0.00000

[...]

 k-point   365 :      -0.1111   -0.1111    0.4444
  band No.  band energies     occupation
      1     -31.0351      1.00000
      2     -31.0351      1.00000
      3     -31.0332      1.00000
      4     -31.0331      1.00000
      5     -24.3453      1.00000
      6     -24.3453      1.00000
      7     -24.3392      1.00000
      8     -24.3392      1.00000
      9     -24.3366      1.00000
     10     -24.3366      1.00000
     11     -20.6023      1.00000
     12     -20.6016      1.00000
     13      -7.3477      1.00000
     14      -7.3475      1.00000
     15       0.1660      1.00000
     16       0.1662      1.00000
     17       2.2798      1.00000
     18       2.2798      1.00000
     19       6.3948      0.00000
     20       6.3952      0.00000
     21       9.0297      0.00000
     22       9.0299      0.00000
     23      10.3603      0.00000
     24      10.3607      0.00000
     25      11.1937      0.00000
     26      11.1938      0.00000
     27      12.2916      0.00000
     28      12.2918      0.00000

 soft charge-density along one line, spin component           1
         0         1         2         3         4         5         6         7         8         9
 total charge-density along one line

[...]

 soft charge-density along one line, spin component           4
         0         1         2         3         4         5         6         7         8         9
 total charge-density along one line

------------------------ aborting loop because EDIFF is reached ----------------------------------------

  FORCE on cell =-STRESS in cart. coord.  units (eV):
  Direction    XX          YY          ZZ          XY          YZ          ZX
  Alpha Z    63.36068    63.36068    63.36068
  Ewald    -573.00027  -573.00027  -573.00027     0.00000    -0.00000    -0.00000
  Hartree   228.90001   228.90001   228.90001    -0.00001    -0.00000    -0.00001
  E(xc)    -112.61133  -112.61134  -112.61135    -0.00000    -0.00000    -0.00000
  Local    -178.51007  -178.51011  -178.51011     0.00003     0.00001     0.00003
  n-local   103.03431   103.03432   103.03433    -0.00001    -0.00001    -0.00002
  augment    71.63908    71.63908    71.63908    -0.00000     0.00000    -0.00000
  Kinetic   397.19506   397.19505   397.19505     0.00002     0.00001     0.00002
  Fock        0.00000     0.00000     0.00000     0.00000     0.00000     0.00000
  Total       0.00747     0.00743     0.00743     0.00003     0.00001     0.00002
  in kB       0.19864     0.19767     0.19764     0.00082     0.00025     0.00040

 VOLUME and BASIS-vectors are now :
  energy-cutoff  :      600.00
  volume of cell :       60.21
      direct lattice vectors                 reciprocal lattice vectors
     4.399530166  0.000000000  0.000000000     0.227296998 -0.131229983 -0.092793611
     2.199765083  3.810104888 -0.000000000     0.000000000  0.262459966 -0.092793611
     2.199765083  1.270034963  3.592201338    -0.000000000  0.000000000  0.278380833

  length of vectors
     4.399530166  4.399530166  4.399530166     0.278380833  0.278380833  0.278380833

 FORCES acting on ions
    electron-ion (+dipol)            ewald-force                    non-local-force                 convergence-correction
   0.108E-13 0.395E-13 -.574E-14   -.172E-14 0.444E-15 0.238E-14   -.169E-20 -.424E-21 0.000E+00   -.240E-12 0.151E-13 -.129E-12
   0.123E-13 0.371E-13 -.509E-14   -.172E-14 0.444E-15 0.238E-14   -.169E-20 -.424E-21 0.000E+00   -.240E-12 0.151E-13 -.129E-12

 POSITION                                       TOTAL-FORCE (eV/Angst)
      0.00000      0.00000      0.00000        -0.000000      0.000000      0.000000
    total drift:                               -0.000000      0.000000     -0.000000

  FREE ENERGIE OF THE ION-ELECTRON SYSTEM (eV)
  free  energy   TOTEN  =      -149.91356313 eV

  energy  without entropy=     -149.91367838  energy(sigma->0) =     -149.91360155

 Spin-Orbit-Coupling matrix elements

 Ion:    1  E_soc:    -32.4488632
 l=   1
     0.0000000    -4.9821418    -4.9821400
    -4.9821418     0.0000000    -4.9821404
    -4.9821400    -4.9821404     0.0000000
 l=   2
     0.0000000    -0.0852043     0.0000000    -0.0852043    -0.3407927
    -0.0852043     0.0000000    -0.2555947    -0.0852103    -0.0852043
     0.0000000    -0.2555947     0.0000000    -0.2555945     0.0000000
    -0.0852043    -0.0852103    -0.2555945     0.0000000    -0.0852043
    -0.3407927    -0.0852043     0.0000000    -0.0852043     0.0000000
 l=   3
     0.0000000     0.0000000     0.0000000     0.0000000     0.0000000     0.0000000     0.0000000
     0.0000000     0.0000000     0.0000000     0.0000000     0.0000000     0.0000000     0.0000000
     0.0000000     0.0000000     0.0000000     0.0000000     0.0000000     0.0000000     0.0000000
     0.0000000     0.0000000     0.0000000     0.0000000     0.0000000     0.0000000     0.0000000
     0.0000000     0.0000000     0.0000000     0.0000000     0.0000000     0.0000000     0.0000000
     0.0000000     0.0000000     0.0000000     0.0000000     0.0000000     0.0000000     0.0000000
     0.0000000     0.0000000     0.0000000     0.0000000     0.0000000     0.0000000     0.0000000