 vasp.5.4.4.18Apr17-6-g9f103f2a35 (build Nov 03 2018 10:20:46) complex

 executed on             LinuxIFC date 2018.12.06  12:04:34

 INCAR:
 POTCAR:    PAW Og, JanMewes Oct 18

 POTCAR:    PAW Og, JanMewes Oct 18
   VRHFIN =Og : 10d 2s 6p, PE

   TITEL  = PAW Og, JanMewes Oct 18
   POMASS =    0.010; ZVAL   =   18.000    mass and valenz
   ENMAX  =  339.336; ENMIN  =  254.502 eV
   QCUT   =   -4.994; QGAM   =    9.988    optimization parameters

  PAW Og, JanMewes Oct 18               :

 POSCAR: Og_FCC
  positions in direct lattice
  velocities in cartesian coordinates

 METAGGA = SCAN     LMAXTAU =  0    LMIXTAU =  F

 ion  position               nearest neighbor table
   1  0.000  0.000  0.000-

IMPORTANT INFORMATION: All symmetrisations will be switched off!
NOSYMM: (Re-)initialisation of all symmetry stuff for point group C_1.

 KPOINTS: Automatically generated mesh + R-points
  k-points in reciprocal lattice
Space group operators:
 irot       det(A)        alpha          n_x          n_y          n_z        tau_x        tau_y        tau_z
    1     1.000000     0.000000     1.000000     0.000000     0.000000     0.000000     0.000000     0.000000

 SYSTEM =  Og_FCC
 POSCAR =  Og_FCC

 Startparameter for this run:
   NWRITE =      2    write-flag & timer
   PREC   = accura    normal or accurate (medium, high low for compatibility)
   ISTART =      1    job   : 0-new  1-cont  2-samecut
   ICHARG =      0    charge: 1-file 2-atom 10-const
   ISPIN  =      1    spin polarized calculation?
   LNONCOLLINEAR =      F non collinear calculations
   LSORBIT =      F    spin-orbit coupling
   INIWAV =      1    electr: 0-lowe 1-rand  2-diag
   LASPH  =      F    aspherical Exc in radial PAW
   METAGGA=      F    non-selfconsistent MetaGGA calc.

 Electronic Relaxation 1
   ENCUT  =  300.0 eV  22.05 Ry    4.70 a.u.   6.13  6.13  6.13*2*pi/ulx,y,z
   ENINI  =  300.0     initial cutoff
   ENAUG  =  361.0 eV  augmentation charge cutoff
   NELM   =     50;   NELMIN=  2; NELMDL= -5     # of ELM steps
   EDIFF  = 0.1E-07   stopping-criterion for ELM
   LREAL  =      F    real-space projection
   NLSPLINE    = F    spline interpolate recip. space projectors
   LCOMPAT=      F    compatible to vasp.4.4
   GGA_COMPAT  = F    GGA compatible to vasp.4.4-vasp.4.6
   LMAXPAW     = -100 max onsite density
   LMAXMIX     =    2 max onsite mixed and CHGCAR
   VOSKOWN=      0    Vosko Wilk Nusair interpolation
   ROPT   =    0.00000
 Ionic relaxation
   EDIFFG = 0.1E-04   stopping-criterion for IOM
   NSW    =      1    number of steps for IOM
   NBLOCK =      1;   KBLOCK =      1    inner block; outer block
   IBRION =     -1    ionic relax: 0-MD 1-quasi-New 2-CG
   NFREE  =      5    steps in history (QN), initial steepest desc. (CG)
   ISIF   =      3    stress and relaxation
   IWAVPR =     10    prediction:  0-non 1-charg 2-wave 3-comb
   ISYM   =      0    0-nonsym 1-usesym 2-fastsym
   LCORR  =      T    Harris-Foulkes like correction to forces

   POTIM  = 0.1000    time-step for ionic-motion
   TEIN   =    0.0    initial temperature
   TEBEG  =    0.0;   TEEND  =   0.0 temperature during run
   SMASS  =  -3.00    Nose mass-parameter (am)
   estimated Nose-frequenzy (Omega)   =  0.10E-29 period in steps =****** mass=  -0.431E-27a.u.
   SCALEE = 1.0000    scale energy and forces
   NPACO  =    256;   APACO  = 16.0  distance and # of slots for P.C.
   PSTRESS=    0.0 pullay stress

  Mass of Ions in am
   POMASS =   0.01
  Ionic Valenz
   ZVAL   =  18.00
  Atomic Wigner-Seitz radii
  virtual crystal weights
   VCA    =   1.00
   NELECT =      18.0000    total number of electrons
   NUPDOWN=      -1.0000    fix difference up-down

 DOS related values:
   EMIN   =  10.00;   EMAX   =-10.00  energy-range for DOS
   EFERMI =   0.00
   ISMEAR =     0;   SIGMA  =   0.05  broadening in eV -4-tet -1-fermi 0-gaus

 Electronic relaxation 2 (details)
   IALGO  =     38    algorithm
   LDIAG  =      T    sub-space diagonalisation (order eigenvalues)
   LSUBROT=      F    optimize rotation matrix (better conditioning)
   TURBO    =      0    0=normal 1=particle mesh
   IRESTART =      0    0=no restart 2=restart with 2 vectors
   NREBOOT  =      0    no. of reboots
   NMIN     =      0    reboot dimension
   EREF     =   0.00    reference energy to select bands
   IMIX   =      4    mixing-type and parameters
     AMIX     =   0.40;   BMIX     =  1.00
     AMIX_MAG =   1.60;   BMIX_MAG =  1.00
     AMIN     =   0.10
     WC   =   100.;   INIMIX=   1;  MIXPRE=   1;  MAXMIX=  50

 Intra band minimization:
   WEIMIN = 0.0000     energy-eigenvalue tresh-hold
   EBREAK =  0.39E-10  absolut break condition
   DEPER  =   0.30     relativ break condition

   TIME   =   0.40     timestep for ELM

  volume/ion in A,a.u.               =      57.90       390.71
  Fermi-wavevector in a.u.,A,eV,Ry     =   1.109038  2.095777 16.734680  1.229964
  Thomas-Fermi vector in A             =   2.245572

 Write flags
   LWAVE        =      T    write WAVECAR
   LDOWNSAMPLE  =      F    k-point downsampling of WAVECAR
   LCHARG       =      T    write CHGCAR
   LVTOT        =      F    write LOCPOT, total local potential
   LVHAR        =      F    write LOCPOT, Hartree potential only
   LELF         =      F    write electronic localiz. function (ELF)
   LORBIT       =      0    0 simple, 1 ext, 2 COOP (PROOUT), +10 PAW based schemes

 Dipole corrections
   LMONO  =      F    monopole corrections only (constant potential shift)
   LDIPOL =      F    correct potential (dipole corrections)
   IDIPOL =      0    1-x, 2-y, 3-z, 4-all directions
   EPSILON=  1.0000000 bulk dielectric constant

 Exchange correlation treatment:
   GGA     =    --    GGA type
   VOSKOWN=      0    Vosko Wilk Nusair interpolation
   LHFCALC =     F    Hartree Fock is set to
   LHFONE  =     F    Hartree Fock one center treatment
   AEXX    =    0.0000 exact exchange contribution

 Linear response parameters
   LEPSILON=     F    determine dielectric tensor
   LRPA    =     F    only Hartree local field effects (RPA)
   LNABLA  =     F    use nabla operator in PAW spheres
   LVEL    =     F    velocity operator in full k-point grid
   LINTERFAST=   F  fast interpolation
   KINTER  =     0    interpolate to denser k-point grid
   CSHIFT  =0.1000    complex shift for real part using Kramers Kronig
   OMEGAMAX=  -1.0    maximum frequency
   DEG_THRESHOLD= 0.2000000E-02 threshold for treating states as degnerate
   RTIME   =   -0.100 relaxation time in fs
  (WPLASMAI=    0.000 imaginary part of plasma frequency in eV, 0.658/RTIME)
   DFIELD  = 0.0000000 0.0000000 0.0000000 field for delta impulse in time

 Orbital magnetization related:
   ORBITALMAG=     F  switch on orbital magnetization
   LCHIMAG   =     F  perturbation theory with respect to B field
   DQ        =  0.001000  dq finite difference perturbation B field
   LLRAUG    =     F  two centre corrections for induced B field

 Static calculation
 charge density and potential will be updated during run
 non-spin polarized calculation
 Variant of blocked Davidson
 Davidson routine will perform the subspace rotation
 perform sub-space diagonalisation
    after iterative eigenvector-optimisation
 modified Broyden-mixing scheme, WC =      100.0
 initial mixing is a Kerker type mixing with AMIX =  0.4000 and BMIX =      1.0000
 Hartree-type preconditioning will be used
 using additional bands           55
 reciprocal scheme for non local part
 use partial core corrections
 calculate Harris-corrections to forces
   (improved forces if not selfconsistent)
 use gradient corrections
 use of overlap-Matrix (Vanderbilt PP)
 Gauss-broadening in eV      SIGMA  =   0.05

  energy-cutoff  :      300.00
  volume of cell :       57.90
      direct lattice vectors                 reciprocal lattice vectors
     4.342345876  0.000000000  0.000000000     0.230290269 -0.132958149 -0.094015609
     2.171172938  3.760581840 -0.000000000     0.000000000  0.265916298 -0.094015609
     2.171172938  1.253527280  3.545510561    -0.000000000  0.000000000  0.282046826

  length of vectors
     4.342345876  4.342345876  4.342345876     0.282046826  0.282046826  0.282046826

 old parameters found on file WAVECAR:
  energy-cutoff  :      300.00
  volume of cell :       57.90
      direct lattice vectors                 reciprocal lattice vectors
     4.342345876  0.000000000  0.000000000     0.230290269 -0.132958149 -0.094015609
     2.171172938  3.760581840 -0.000000000     0.000000000  0.265916298 -0.094015609
     2.171172938  1.253527280  3.545510561    -0.000000000  0.000000000  0.282046826

  length of vectors

 k-points in units of 2pi/SCALE and weight: Automatically generated mesh + R-points
   0.11514513  0.06647907  0.04700780       0.000
   0.10938788  0.06315512  0.04465741       0.000
   0.10363062  0.05983117  0.04230702       0.000
   0.09787336  0.05650721  0.03995663       0.000
   0.09211611  0.05318326  0.03760624       0.000
   0.08635885  0.04985931  0.03525585       0.000
   0.08060159  0.04653535  0.03290546       0.000
   0.07484434  0.04321140  0.03055507       0.000
   0.06908708  0.03988744  0.02820468       0.000
   0.06332982  0.03656349  0.02585429       0.000
   0.05757257  0.03323954  0.02350390       0.000
   0.05181531  0.02991558  0.02115351       0.000
   0.04605805  0.02659163  0.01880312       0.000
   0.04030080  0.02326768  0.01645273       0.000
   0.03454354  0.01994372  0.01410234       0.000
   0.02878628  0.01661977  0.01175195       0.000
   0.02302903  0.01329581  0.00940156       0.000
   0.01727177  0.00997186  0.00705117       0.000
   0.01151451  0.00664791  0.00470078       0.000
   0.00575726  0.00332395  0.00235039       0.000
   0.00000000  0.00000000  0.00000000       0.000
  -0.00000000  0.00664791  0.00470078       0.000
  -0.00000000  0.01329581  0.00940156       0.000
  -0.00000000  0.01994372  0.01410234       0.000
  -0.00000000  0.02659163  0.01880312       0.000
  -0.00000000  0.03323954  0.02350390       0.000
  -0.00000000  0.03988744  0.02820468       0.000
  -0.00000000  0.04653535  0.03290546       0.000
  -0.00000000  0.05318326  0.03760624       0.000
  -0.00000000  0.05983117  0.04230702       0.000
  -0.00000000  0.06647907  0.04700780       0.000
  -0.00000000  0.07312698  0.05170858       0.000
  -0.00000000  0.07977489  0.05640937       0.000
  -0.00000000  0.08642280  0.06111015       0.000
  -0.00000000  0.09307070  0.06581093       0.000
  -0.00000000  0.09971861  0.07051171       0.000
  -0.00000000  0.10636652  0.07521249       0.000
  -0.00000000  0.11301443  0.07991327       0.000
  -0.00000000  0.11966233  0.08461405       0.000
  -0.00000000  0.12631024  0.08931483       0.000
  -0.00000000  0.13295815  0.09401561       0.000
   0.00000000  0.00000000  0.00000000       0.005
   0.03838171 -0.02215969 -0.01566927       0.009
   0.07676342 -0.04431938 -0.03133854       0.009
   0.11514513 -0.06647907 -0.04700780       0.005
   0.00000000  0.04431938 -0.01566927       0.009
   0.03838171  0.02215969 -0.03133854       0.009
   0.07676342  0.00000000 -0.04700780       0.009
   0.11514513 -0.02215969 -0.06267707       0.009
[...]
 k-point 32 :   0.0000 0.2750 0.2750  plane waves:     681
 k-point 33 :   0.0000 0.3000 0.3000  plane waves:     689
 k-point 34 :   0.0000 0.3250 0.3250  plane waves:     689
 k-point 35 :   0.0000 0.3500 0.3500  plane waves:     684
 k-point 36 :   0.0000 0.3750 0.3750  plane waves:     684
 k-point 37 :   0.0000 0.4000 0.4000  plane waves:     684
 k-point 38 :   0.0000 0.4250 0.4250  plane waves:     676
 k-point 39 :   0.0000 0.4500 0.4500  plane waves:     684
 k-point 40 :   0.0000 0.4750 0.4750  plane waves:     692
 k-point 41 :   0.0000 0.5000 0.5000  plane waves:     692
 k-point 42 :   0.0000 0.0000 0.0000  plane waves:     701
 k-point 43 :   0.1667 0.0000 0.0000  plane waves:     673
 k-point 44 :   0.3333 0.0000 0.0000  plane waves:     685
 k-point 45 :   0.5000 0.0000 0.0000  plane waves:     700
 k-point 46 :   0.0000 0.1667 0.0000  plane waves:     673
 k-point 47 :   0.1667 0.1667 0.0000  plane waves:     681
 k-point 48 :   0.3333 0.1667 0.0000  plane waves:     680
 k-point 49 :   0.5000 0.1667 0.0000  plane waves:     678
 k-point 50 :  -0.3333 0.1667 0.0000  plane waves:     684
 k-point 51 :  -0.1667 0.1667 0.0000  plane waves:     674
 k-point 52 :   0.0000 0.3333 0.0000  plane waves:     685
 k-point 53 :   0.1667 0.3333 0.0000  plane waves:     680
 k-point 54 :   0.3333 0.3333 0.0000  plane waves:     693
 k-point 55 :   0.5000 0.3333 0.0000  plane waves:     686
 k-point 56 :  -0.3333 0.3333 0.0000  plane waves:     680
 k-point 57 :  -0.1667 0.3333 0.0000  plane waves:     684
 k-point 58 :   0.0000 0.5000 0.0000  plane waves:     700
 k-point 59 :   0.1667 0.5000 0.0000  plane waves:     678
 k-point 60 :   0.3333 0.5000 0.0000  plane waves:     686
[...]
 k-point 85 :  -0.1667 0.5000 0.1667  plane waves:     692
 k-point 86 :   0.0000-0.3333 0.1667  plane waves:     684
 k-point 87 :   0.1667-0.3333 0.1667  plane waves:     678
 k-point 88 :   0.3333-0.3333 0.1667  plane waves:     692
 k-point 89 :   0.5000-0.3333 0.1667  plane waves:     690
 k-point 90 :  -0.3333-0.3333 0.1667  plane waves:     686
 k-point 91 :  -0.1667-0.3333 0.1667  plane waves:     676
 k-point 92 :   0.0000-0.1667 0.1667  plane waves:     674
 k-point 93 :   0.1667-0.1667 0.1667  plane waves:     680
 k-point 94 :   0.3333-0.1667 0.1667  plane waves:     676
 k-point 95 :   0.5000-0.1667 0.1667  plane waves:     692
 k-point 96 :  -0.3333-0.1667 0.1667  plane waves:     676
 k-point 97 :  -0.1667-0.1667 0.1667  plane waves:     680
 k-point 98 :   0.0000 0.0000 0.3333  plane waves:     685
 k-point 99 :   0.1667 0.0000 0.3333  plane waves:     680
 k-point ** :   0.3333 0.0000 0.3333  plane waves:     693
 k-point ** :   0.5000 0.0000 0.3333  plane waves:     686
 k-point ** :  -0.3333 0.0000 0.3333  plane waves:     680
 k-point ** :  -0.1667 0.0000 0.3333  plane waves:     684
 k-point ** :   0.0000 0.1667 0.3333  plane waves:     680
 k-point ** :   0.1667 0.1667 0.3333  plane waves:     674
 k-point ** :   0.3333 0.1667 0.3333  plane waves:     680
 k-point ** :   0.5000 0.1667 0.3333  plane waves:     676
 k-point ** :  -0.3333 0.1667 0.3333  plane waves:     692
 k-point ** :  -0.1667 0.1667 0.3333  plane waves:     676
 k-point ** :   0.0000 0.3333 0.3333  plane waves:     693
 k-point ** :   0.1667 0.3333 0.3333  plane waves:     680
 k-point ** :   0.3333 0.3333 0.3333  plane waves:     685
 k-point ** :   0.5000 0.3333 0.3333  plane waves:     684
 k-point ** :  -0.3333 0.3333 0.3333  plane waves:     680
 k-point ** :  -0.1667 0.3333 0.3333  plane waves:     686
 k-point ** :   0.0000 0.5000 0.3333  plane waves:     686
 k-point ** :   0.1667 0.5000 0.3333  plane waves:     676
 k-point ** :   0.3333 0.5000 0.3333  plane waves:     684
 k-point ** :   0.5000 0.5000 0.3333  plane waves:     678
 k-point ** :  -0.3333 0.5000 0.3333  plane waves:     692
 k-point ** :  -0.1667 0.5000 0.3333  plane waves:     690
 k-point ** :   0.0000-0.3333 0.3333  plane waves:     680
 k-point ** :   0.1667-0.3333 0.3333  plane waves:     692
 k-point ** :   0.3333-0.3333 0.3333  plane waves:     680
 k-point ** :   0.5000-0.3333 0.3333  plane waves:     692
 k-point ** :  -0.3333-0.3333 0.3333  plane waves:     680
 k-point ** :  -0.1667-0.3333 0.3333  plane waves:     692
 k-point ** :   0.0000-0.1667 0.3333  plane waves:     684
 k-point ** :   0.1667-0.1667 0.3333  plane waves:     676
 k-point ** :   0.3333-0.1667 0.3333  plane waves:     686
 k-point ** :   0.5000-0.1667 0.3333  plane waves:     690
 k-point ** :  -0.3333-0.1667 0.3333  plane waves:     692
 k-point ** :  -0.1667-0.1667 0.3333  plane waves:     678
 k-point ** :   0.0000 0.0000 0.5000  plane waves:     700
 k-point ** :   0.1667 0.0000 0.5000  plane waves:     678
 k-point ** :   0.3333 0.0000 0.5000  plane waves:     686
 k-point ** :   0.5000 0.0000 0.5000  plane waves:     692
 k-point ** :   0.0000 0.1667 0.5000  plane waves:     678
 k-point ** :   0.1667 0.1667 0.5000  plane waves:     684
 k-point ** :   0.3333 0.1667 0.5000  plane waves:     676
 k-point ** :   0.5000 0.1667 0.5000  plane waves:     686
 k-point ** :  -0.3333 0.1667 0.5000  plane waves:     690
 k-point ** :  -0.1667 0.1667 0.5000  plane waves:     692
 k-point ** :   0.0000 0.3333 0.5000  plane waves:     686
 k-point ** :   0.1667 0.3333 0.5000  plane waves:     676
 k-point ** :   0.3333 0.3333 0.5000  plane waves:     684
 k-point ** :   0.5000 0.3333 0.5000  plane waves:     678
 k-point ** :  -0.3333 0.3333 0.5000  plane waves:     692
 k-point ** :  -0.1667 0.3333 0.5000  plane waves:     690
 k-point ** :   0.0000 0.5000 0.5000  plane waves:     692
 k-point ** :   0.1667 0.5000 0.5000  plane waves:     686
 k-point ** :   0.3333 0.5000 0.5000  plane waves:     678

 maximum and minimum number of plane-waves per node :       359      331

 maximum number of plane-waves:       701
 maximum index in each direction:
   IXMAX=    6   IYMAX=    6   IZMAX=    6
   IXMIN=   -6   IYMIN=   -6   IZMIN=   -6

 parallel 3D FFT for wavefunctions:
    minimum data exchange during FFTs selected (reduces bandwidth)
 parallel 3D FFT for charge:
    minimum data exchange during FFTs selected (reduces bandwidth)

 Broyden mixing: mesh for mixing (old mesh)
   NGX = 13   NGY = 13   NGZ = 13
  (NGX  = 56   NGY  = 56   NGZ  = 56)
  gives a total of   2197 points

 charge density for first step will be calculated from the start-wavefunctions

 Maximum index for augmentation-charges        88213 (set IRDMAX)

 initial charge from wavefunction
 First call to EWALD:  gamma=   0.458
 Maximum number of real-space cells 3x 3x 3
 Maximum number of reciprocal cells 3x 3x 3

--------------------------------------- Iteration      1(   1)  ---------------------------------------

 eigenvalue-minimisations  : 17392
 total energy-change (2. order) :-0.1367979E+03  (-0.2149709E-12)
 number of electron      18.0000000 magnetization
 augmentation part        2.9717455 magnetization

 Free energy of the ion-electron system (eV)
  alpha Z        PSCENC =        65.89697999
  Ewald energy   TEWEN  =     -1741.63824267
  -Hartree energ DENC   =      -657.52375576
  -exchange      EXHF   =         0.00000000
  -V(xc)+E(xc)   XCENC  =       -51.25219817
  PAW double counting   =      2316.21025370    -2382.77994781
  entropy T*S    EENTRO =        -0.00000000
  eigenvalues    EBANDS =      -325.61593012
  atomic energy  EATOM  =      2639.90492407
  Solvation  Ediel_sol  =         0.00000000
  free energy    TOTEN  =      -136.79791677 eV

  energy without entropy =     -136.79791677  energy(sigma->0) =     -136.79791677

[...]

 eigenvalue-minimisations  : 14880
 total energy-change (2. order) : 0.5911716E-11  ( 0.7580228E-13)
 number of electron      18.0000000 magnetization
 augmentation part        2.9717455 magnetization

[...]

 eigenvalue-minimisations  : 16416
 total energy-change (2. order) :-0.1818989E-11  ( 0.1250852E-12)
 number of electron      18.0000000 magnetization
 augmentation part        2.9717455 magnetization

[...]

 eigenvalue-minimisations  : 16584
 total energy-change (2. order) : 0.1637090E-10  ( 0.2869604E-13)
 number of electron      18.0000000 magnetization
 augmentation part        2.9717455 magnetization

 Broyden mixing:
  rms(total) = 0.16305E-07    rms(broyden)= 0.16256E-07
  rms(prec ) = 0.61662E-07
  weight for this iteration     100.00

[...]

--------------------------------------- Iteration      1(   6)  ---------------------------------------

 eigenvalue-minimisations  : 14544
 total energy-change (2. order) :-0.9731593E-10  ( 0.2746718E-13)
 number of electron      18.0000000 magnetization
 augmentation part        2.9717455 magnetization

 Free energy of the ion-electron system (eV)
  alpha Z        PSCENC =        65.89697999
  Ewald energy   TEWEN  =     -1741.63824267
  -Hartree energ DENC   =      -657.52375690
  -exchange      EXHF   =         0.00000000
  -V(xc)+E(xc)   XCENC  =       -51.25219808
  PAW double counting   =      2316.21026052    -2382.77995488
  entropy T*S    EENTRO =        -0.00000000
  eigenvalues    EBANDS =      -325.61592881
  atomic energy  EATOM  =      2639.90492407
  Solvation  Ediel_sol  =         0.00000000
  free energy    TOTEN  =      -136.79791677 eV

  energy without entropy =     -136.79791677  energy(sigma->0) =     -136.79791677

 average (electrostatic) potential at core
  the test charge radii are     1.2024
  (the norm of the test charge is              1.0000)
       1-115.0471

 E-fermi :   1.9906     XC(G=0):  -8.6459     alpha+bet : -7.5793

 k-point     1 :       0.5000    0.5000    0.5000
  band No.  band energies     occupation
      1     -28.4132      2.00000
      2     -28.4132      2.00000
      3     -28.4103      2.00000
      4     -28.3995      2.00000
      5     -28.3995      2.00000
      6     -21.1259      2.00000
      7      -1.6110      2.00000
      8       1.1612      2.00000
      9       1.1612      2.00000
     10       6.3636      0.00000
     11      10.6354      0.00000
     12      10.6354      0.00000
     13      10.9834      0.00000
     14      13.6384      0.00000
     15      15.0031      0.00000
     16      15.0031      0.00000
     17      16.3186      0.00000
     18      17.1035      0.00000
     19      17.1035      0.00000
     20      19.3680      0.00000
     21      19.3693      0.00000
     22      19.3693      0.00000
     23      21.0793      0.00000
     24      24.4787      0.00000
     25      24.5804      0.00000
     26      26.1221      0.00000
     27      26.1221      0.00000
     28      27.4025      0.00000
     29      27.4025      0.00000
     30      27.8599      0.00000
     31      29.3247      0.00000
     32      31.1709      0.00000
     33      31.1709      0.00000
     34      31.8268      0.00000
     35      32.9279      0.00000
     36      32.9279      0.00000
     37      33.3594      0.00000
     38      34.2362      0.00000
     39      34.9314      0.00000
     40      34.9314      0.00000
     41      37.6477      0.00000
     42      37.6477      0.00000
     43      40.8576      0.00000
     44      40.8576      0.00000
     45      41.0943      0.00000
     46      41.0943      0.00000
     47      41.6002      0.00000
     48      43.2977      0.00000
     49      45.4195      0.00000
     50      45.4195      0.00000
     51      47.6432      0.00000
     52      47.6432      0.00000
     53      47.7948      0.00000
     54      47.9693      0.00000
     55      49.1384      0.00000
     56      51.7443      0.00000
     57      51.7443      0.00000
     58      52.1044      0.00000
     59      52.4932      0.00000
     60      52.4950      0.00000
     61      52.7599      0.00000
     62      53.2774      0.00000
     63      54.7111      0.00000
     64      54.8127      0.00000

[...]

 k-point   152 :       0.3333    0.5000    0.5000
  band No.  band energies     occupation
      1     -28.4027      2.00000
      2     -28.3926      2.00000
      3     -28.3902      2.00000
      4     -28.3875      2.00000
      5     -28.3840      2.00000
      6     -21.1161      2.00000
      7      -1.3640      2.00000
      8       0.4991      2.00000
      9       0.9389      2.00000
     10       7.3701      0.00000
     11       9.3245      0.00000
     12      11.4145      0.00000
     13      11.5129      0.00000
     14      13.3763      0.00000
     15      14.4334      0.00000
     16      15.1378      0.00000
     17      16.8754      0.00000
     18      17.3045      0.00000
     19      18.8202      0.00000
     20      18.9913      0.00000
     21      19.1928      0.00000
     22      20.0154      0.00000
     23      20.7972      0.00000
     24      23.4457      0.00000
     25      24.5928      0.00000
     26      25.9331      0.00000
     27      25.9535      0.00000
     28      26.2078      0.00000
     29      26.3727      0.00000
     30      28.2879      0.00000
     31      29.1817      0.00000
     32      30.1470      0.00000
     33      30.1827      0.00000
     34      31.7163      0.00000
     35      32.8684      0.00000
     36      33.3427      0.00000
     37      33.8629      0.00000
     38      34.9628      0.00000
     39      35.9029      0.00000
     40      35.9932      0.00000
     41      37.8267      0.00000
     42      38.3263      0.00000
     43      40.0441      0.00000
     44      40.3208      0.00000
     45      40.9467      0.00000
     46      41.8062      0.00000
     47      42.4646      0.00000
     48      42.9245      0.00000
     49      46.0143      0.00000
     50      46.3801      0.00000
     51      46.4810      0.00000
     52      46.8167      0.00000
     53      47.6929      0.00000
     54      48.8360      0.00000
     55      49.5754      0.00000
     56      49.5825      0.00000
     57      50.1977      0.00000
     58      50.9032      0.00000
     59      52.1803      0.00000
     60      52.4312      0.00000
     61      53.2011      0.00000
     62      53.7388      0.00000
     63      54.1129      0.00000
     64      55.7877      0.00000

 soft charge-density along one line, spin component           1
         0         1         2         3         4         5         6         7         8         9
 total charge-density along one line

------------------------ aborting loop because EDIFF is reached ----------------------------------------

  FORCE on cell =-STRESS in cart. coord.  units (eV):
  Direction    XX          YY          ZZ          XY          YZ          ZX
  Alpha Z    65.89698    65.89698    65.89698
  Ewald    -580.54610  -580.54610  -580.54610     0.00000    -0.00000    -0.00000
  Hartree   219.15963   219.17957   219.18456    -0.01726    -0.00705    -0.01221
  E(xc)    -111.03439  -111.03618  -111.03663     0.00155     0.00063     0.00110
  Local    -162.25629  -162.24967  -162.24803    -0.00573    -0.00234    -0.00405
  n-local    98.48140    98.44623    98.43744     0.03046     0.01244     0.02154
  augment    76.74013    76.74880    76.75096    -0.00751    -0.00307    -0.00531
  Kinetic   388.23013   388.19205   388.18253     0.03298     0.01346     0.02332
  Fock        0.00000     0.00000     0.00000     0.00000     0.00000     0.00000
  Total      -5.32850    -5.36832    -5.37828     0.03448     0.01408     0.02438
  in kB    -147.45423  -148.55611  -148.83187     0.95429     0.38961     0.67478

 VOLUME and BASIS-vectors are now :
  energy-cutoff  :      300.00
  volume of cell :       57.90
      direct lattice vectors                 reciprocal lattice vectors
     4.342345876  0.000000000  0.000000000     0.230290269 -0.132958149 -0.094015609
     2.171172938  3.760581840 -0.000000000     0.000000000  0.265916298 -0.094015609
     2.171172938  1.253527280  3.545510561    -0.000000000  0.000000000  0.282046826

  length of vectors
     4.342345876  4.342345876  4.342345876     0.282046826  0.282046826  0.282046826

 FORCES acting on ions
    electron-ion (+dipol)            ewald-force                    non-local-force                 convergence-correction
   0.235E-07 -.214E-07 -.418E-07   0.498E-15 0.105E-14 0.672E-15   0.795E-10 0.252E-08 -.589E-08   -.230E-07 0.223E-07 0.419E-07
   0.238E-07 -.216E-07 -.423E-07   0.498E-15 0.105E-14 0.672E-15   0.795E-10 0.252E-08 -.589E-08   -.230E-07 0.223E-07 0.419E-07

 POSITION                                       TOTAL-FORCE (eV/Angst)
      0.00000      0.00000      0.00000         0.000000      0.000000     -0.000000
    total drift:                                0.000000      0.000000     -0.000000

  FREE ENERGIE OF THE ION-ELECTRON SYSTEM (eV)
  free  energy   TOTEN  =      -136.79791677 eV

  energy  without entropy=     -136.79791677  energy(sigma->0) =     -136.79791677

 writing wavefunctions