 vasp.5.4.4.18Apr17-6-g9f103f2a35 (build Nov 03 2018 10:20:46) complex

 executed on             LinuxIFC date 2018.12.20  14:34:36

 INCAR:
 POTCAR:    PAW_PBE Ne_GW 22Sep2014

 POTCAR:    PAW_PBE Ne_GW 22Sep2014
   VRHFIN =Ne: s2p6

   TITEL  = PAW_PBE Ne_GW 22Sep2014
   POMASS =   20.180; ZVAL   =    8.000    mass and valenz
   ENMAX  =  432.275; ENMIN  =  324.206 eV

  PAW_PBE Ne_GW 22Sep2014               :

 POSCAR: Ne_FCC
  positions in direct lattice
  velocities in cartesian coordinates
 exchange correlation table for  LEXCH =        8
   RHO(1)=    0.500       N(1)  =     2000
   RHO(2)=  100.500       N(2)  =     4000

 ion  position               nearest neighbor table
   1  0.000  0.000  0.000-

IMPORTANT INFORMATION: All symmetrisations will be switched off!
NOSYMM: (Re-)initialisation of all symmetry stuff for point group C_1.

 KPOINTS: k-points

Automatic generation of k-mesh.
Space group operators:
 irot       det(A)        alpha          n_x          n_y          n_z        tau_x        tau_y        tau_z
    1     1.000000     0.000000     1.000000     0.000000     0.000000     0.000000     0.000000     0.000000

 Subroutine IBZKPT returns following result:

 Found    216 irreducible k-points:

 Following reciprocal coordinates:
            Coordinates               Weight
  0.000000  0.000000  0.000000      1.000000
  0.166667 -0.000000 -0.000000      1.000000
  0.333333  0.000000 -0.000000      1.000000
  0.500000  0.000000 -0.000000      1.000000
 -0.333333  0.000000  0.000000      1.000000
 -0.166667  0.000000  0.000000      1.000000
  0.000000  0.166667  0.000000      1.000000
  0.166667  0.166667 -0.000000      1.000000
  0.333333  0.166667 -0.000000      1.000000
  0.500000  0.166667  0.000000      1.000000
 -0.333333  0.166667  0.000000      1.000000
 -0.166667  0.166667  0.000000      1.000000
  0.000000  0.333333 -0.000000      1.000000
  0.166667  0.333333  0.000000      1.000000
  0.333333  0.333333  0.000000      1.000000
  0.500000  0.333333  0.000000      1.000000
 -0.333333  0.333333  0.000000      1.000000
 -0.166667  0.333333 -0.000000      1.000000
  0.000000  0.500000 -0.000000      1.000000
  0.166667  0.500000 -0.000000      1.000000
  0.333333  0.500000 -0.000000      1.000000
  0.500000  0.500000 -0.000000      1.000000
 -0.333333  0.500000 -0.000000      1.000000
 -0.166667  0.500000  0.000000      1.000000
  0.000000 -0.333333  0.000000      1.000000
  0.166667 -0.333333  0.000000      1.000000
  0.333333 -0.333333 -0.000000      1.000000
  0.500000 -0.333333 -0.000000      1.000000
 -0.333333 -0.333333  0.000000      1.000000
 -0.166667 -0.333333 -0.000000      1.000000
  0.000000 -0.166667 -0.000000      1.000000
  0.166667 -0.166667 -0.000000      1.000000
  0.333333 -0.166667 -0.000000      1.000000
  0.500000 -0.166667  0.000000      1.000000
 -0.333333 -0.166667  0.000000      1.000000
 -0.166667 -0.166667  0.000000      1.000000
  0.000000  0.000000  0.166667      1.000000
  0.166667 -0.000000  0.166667      1.000000
  0.333333  0.000000  0.166667      1.000000
  0.500000  0.000000  0.166667      1.000000
 -0.333333  0.000000  0.166667      1.000000
 -0.166667  0.000000  0.166667      1.000000
  0.000000  0.166667  0.166667      1.000000
  0.166667  0.166667  0.166667      1.000000
  0.333333  0.166667  0.166667      1.000000
  0.500000  0.166667  0.166667      1.000000
 -0.333333  0.166667  0.166667      1.000000
 -0.166667  0.166667  0.166667      1.000000
  0.000000  0.333333  0.166667      1.000000
  0.166667  0.333333  0.166667      1.000000
  0.333333  0.333333  0.166667      1.000000
  0.500000  0.333333  0.166667      1.000000
 -0.333333  0.333333  0.166667      1.000000
 -0.166667  0.333333  0.166667      1.000000
  0.000000  0.500000  0.166667      1.000000
  0.166667  0.500000  0.166667      1.000000
  0.333333  0.500000  0.166667      1.000000
  0.500000  0.500000  0.166667      1.000000
 -0.333333  0.500000  0.166667      1.000000
 -0.166667  0.500000  0.166667      1.000000
[...]
  0.500000  0.500000 -0.166667      1.000000
 -0.333333  0.500000 -0.166667      1.000000
 -0.166667  0.500000 -0.166667      1.000000
  0.000000 -0.333333 -0.166667      1.000000
  0.166667 -0.333333 -0.166667      1.000000
  0.333333 -0.333333 -0.166667      1.000000
  0.500000 -0.333333 -0.166667      1.000000
 -0.333333 -0.333333 -0.166667      1.000000
 -0.166667 -0.333333 -0.166667      1.000000
  0.000000 -0.166667 -0.166667      1.000000
  0.166667 -0.166667 -0.166667      1.000000
  0.333333 -0.166667 -0.166667      1.000000
  0.500000 -0.166667 -0.166667      1.000000
 -0.333333 -0.166667 -0.166667      1.000000
 -0.166667 -0.166667 -0.166667      1.000000

 Following cartesian coordinates:
            Coordinates               Weight
  0.000000  0.000000  0.000000      1.000000
  0.056037 -0.032353 -0.022877      1.000000
  0.112074 -0.064706 -0.045754      1.000000
  0.168111 -0.097059 -0.068631      1.000000
 -0.112074  0.064706  0.045754      1.000000
 -0.056037  0.032353  0.022877      1.000000
  0.000000  0.064706 -0.022877      1.000000
  0.056037  0.032353 -0.045754      1.000000
  0.112074  0.000000 -0.068631      1.000000
  0.168111 -0.032353 -0.091508      1.000000
 -0.112074  0.129412  0.022877      1.000000
 -0.056037  0.097059  0.000000      1.000000
  0.000000  0.129412 -0.045754      1.000000
  0.056037  0.097059 -0.068631      1.000000
  0.112074  0.064706 -0.091508      1.000000
  0.168111  0.032353 -0.114385      1.000000
 -0.112074  0.194118  0.000000      1.000000
 -0.056037  0.161765 -0.022877      1.000000
  0.000000  0.194118 -0.068631      1.000000
  0.056037  0.161765 -0.091508      1.000000
  0.112074  0.129412 -0.114385      1.000000
  0.168111  0.097059 -0.137262      1.000000
 -0.112074  0.258824 -0.022877      1.000000
 -0.056037  0.226471 -0.045754      1.000000
  0.000000 -0.129412  0.045754      1.000000
  0.056037 -0.161765  0.022877      1.000000
  0.112074 -0.194118 -0.000000      1.000000
  0.168111 -0.226471 -0.022877      1.000000
 -0.112074 -0.064706  0.091508      1.000000
 -0.056037 -0.097059  0.068631      1.000000
  0.000000 -0.064706  0.022877      1.000000
  0.056037 -0.097059 -0.000000      1.000000
  0.112074 -0.129412 -0.022877      1.000000
  0.168111 -0.161765 -0.045754      1.000000
 -0.112074 -0.000000  0.068631      1.000000
 -0.056037 -0.032353  0.045754      1.000000
  0.000000  0.000000  0.068631      1.000000
  0.056037 -0.032353  0.045754      1.000000
  0.112074 -0.064706  0.022877      1.000000
  0.168111 -0.097059 -0.000000      1.000000
 -0.112074  0.064706  0.114385      1.000000
 -0.056037  0.032353  0.091508      1.000000
  0.000000  0.064706  0.045754      1.000000
  0.056037  0.032353  0.022877      1.000000
  0.112074  0.000000  0.000000      1.000000
  0.168111 -0.032353 -0.022877      1.000000
 -0.112074  0.129412  0.091508      1.000000
 -0.056037  0.097059  0.068631      1.000000
  0.000000  0.129412  0.022877      1.000000
  0.056037  0.097059  0.000000      1.000000
  0.112074  0.064706 -0.022877      1.000000
  0.168111  0.032353 -0.045754      1.000000
 -0.112074  0.194118  0.068631      1.000000
 -0.056037  0.161765  0.045754      1.000000
  0.000000  0.194118  0.000000      1.000000
  0.056037  0.161765 -0.022877      1.000000
  0.112074  0.129412 -0.045754      1.000000
  0.168111  0.097059 -0.068631      1.000000
 -0.112074  0.258824  0.045754      1.000000
 -0.056037  0.226471  0.022877      1.000000
[...]
  0.168111  0.097059 -0.205893      1.000000
 -0.112074  0.258824 -0.091508      1.000000
 -0.056037  0.226471 -0.114385      1.000000
  0.000000 -0.129412 -0.022877      1.000000
  0.056037 -0.161765 -0.045754      1.000000
  0.112074 -0.194118 -0.068631      1.000000
  0.168111 -0.226471 -0.091508      1.000000
 -0.112074 -0.064706  0.022877      1.000000
 -0.056037 -0.097059 -0.000000      1.000000
  0.000000 -0.064706 -0.045754      1.000000
  0.056037 -0.097059 -0.068631      1.000000
  0.112074 -0.129412 -0.091508      1.000000
  0.168111 -0.161765 -0.114385      1.000000
 -0.112074 -0.000000  0.000000      1.000000
 -0.056037 -0.032353 -0.022877      1.000000

 Subroutine IBZKPT_HF returns following result:

 Found    216 k-points in 1st BZ
 the following    216 k-points will be used (e.g. in the exchange kernel)
 Following reciprocal coordinates:   # in IRBZ
  0.000000  0.000000  0.000000    0.00462963   1 t-inv F
  0.166667 -0.000000 -0.000000    0.00462963   2 t-inv F
  0.333333  0.000000 -0.000000    0.00462963   3 t-inv F
  0.500000  0.000000 -0.000000    0.00462963   4 t-inv F
 -0.333333  0.000000  0.000000    0.00462963   5 t-inv F
 -0.166667  0.000000  0.000000    0.00462963   6 t-inv F
  0.000000  0.166667  0.000000    0.00462963   7 t-inv F
  0.166667  0.166667 -0.000000    0.00462963   8 t-inv F
  0.333333  0.166667 -0.000000    0.00462963   9 t-inv F
  0.500000  0.166667  0.000000    0.00462963  10 t-inv F
 -0.333333  0.166667  0.000000    0.00462963  11 t-inv F
 -0.166667  0.166667  0.000000    0.00462963  12 t-inv F
  0.000000  0.333333 -0.000000    0.00462963  13 t-inv F
  0.166667  0.333333  0.000000    0.00462963  14 t-inv F
  0.333333  0.333333  0.000000    0.00462963  15 t-inv F
  0.500000  0.333333  0.000000    0.00462963  16 t-inv F
 -0.333333  0.333333  0.000000    0.00462963  17 t-inv F
 -0.166667  0.333333 -0.000000    0.00462963  18 t-inv F
  0.000000  0.500000 -0.000000    0.00462963  19 t-inv F
  0.166667  0.500000 -0.000000    0.00462963  20 t-inv F
  0.333333  0.500000 -0.000000    0.00462963  21 t-inv F
  0.500000  0.500000 -0.000000    0.00462963  22 t-inv F
 -0.333333  0.500000 -0.000000    0.00462963  23 t-inv F
 -0.166667  0.500000  0.000000    0.00462963  24 t-inv F
  0.000000 -0.333333  0.000000    0.00462963  25 t-inv F
  0.166667 -0.333333  0.000000    0.00462963  26 t-inv F
  0.333333 -0.333333 -0.000000    0.00462963  27 t-inv F
  0.500000 -0.333333 -0.000000    0.00462963  28 t-inv F
 -0.333333 -0.333333  0.000000    0.00462963  29 t-inv F
 -0.166667 -0.333333 -0.000000    0.00462963  30 t-inv F
  0.000000 -0.166667 -0.000000    0.00462963  31 t-inv F
  0.166667 -0.166667 -0.000000    0.00462963  32 t-inv F
  0.333333 -0.166667 -0.000000    0.00462963  33 t-inv F
  0.500000 -0.166667  0.000000    0.00462963  34 t-inv F
 -0.333333 -0.166667  0.000000    0.00462963  35 t-inv F
 -0.166667 -0.166667  0.000000    0.00462963  36 t-inv F
  0.000000  0.000000  0.166667    0.00462963  37 t-inv F
  0.166667 -0.000000  0.166667    0.00462963  38 t-inv F
  0.333333  0.000000  0.166667    0.00462963  39 t-inv F
  0.500000  0.000000  0.166667    0.00462963  40 t-inv F
 -0.333333  0.000000  0.166667    0.00462963  41 t-inv F
 -0.166667  0.000000  0.166667    0.00462963  42 t-inv F
  0.000000  0.166667  0.166667    0.00462963  43 t-inv F
  0.166667  0.166667  0.166667    0.00462963  44 t-inv F
  0.333333  0.166667  0.166667    0.00462963  45 t-inv F
  0.500000  0.166667  0.166667    0.00462963  46 t-inv F
 -0.333333  0.166667  0.166667    0.00462963  47 t-inv F
 -0.166667  0.166667  0.166667    0.00462963  48 t-inv F
  0.000000  0.333333  0.166667    0.00462963  49 t-inv F
[...]
 k-point 30 :  -0.1667-0.3333-0.0000  plane waves:     540
 k-point 31 :   0.0000-0.1667-0.0000  plane waves:     548
 k-point 32 :   0.1667-0.1667-0.0000  plane waves:     538
 k-point 33 :   0.3333-0.1667-0.0000  plane waves:     516
 k-point 34 :   0.5000-0.1667 0.0000  plane waves:     526
 k-point 35 :  -0.3333-0.1667 0.0000  plane waves:     540
 k-point 36 :  -0.1667-0.1667 0.0000  plane waves:     532
 k-point 37 :   0.0000 0.0000 0.1667  plane waves:     548
 k-point 38 :   0.1667-0.0000 0.1667  plane waves:     532
 k-point 39 :   0.3333 0.0000 0.1667  plane waves:     540
 k-point 40 :   0.5000 0.0000 0.1667  plane waves:     526
 k-point 41 :  -0.3333 0.0000 0.1667  plane waves:     516
 k-point 42 :  -0.1667 0.0000 0.1667  plane waves:     538
 k-point 43 :   0.0000 0.1667 0.1667  plane waves:     532
 k-point 44 :   0.1667 0.1667 0.1667  plane waves:     548
 k-point 45 :   0.3333 0.1667 0.1667  plane waves:     538
 k-point 46 :   0.5000 0.1667 0.1667  plane waves:     516
 k-point 47 :  -0.3333 0.1667 0.1667  plane waves:     526
 k-point 48 :  -0.1667 0.1667 0.1667  plane waves:     540
 k-point 49 :   0.0000 0.3333 0.1667  plane waves:     540
 k-point 50 :   0.1667 0.3333 0.1667  plane waves:     538
 k-point 51 :   0.3333 0.3333 0.1667  plane waves:     540
 k-point 52 :   0.5000 0.3333 0.1667  plane waves:     520
 k-point 53 :  -0.3333 0.3333 0.1667  plane waves:     524
 k-point 54 :  -0.1667 0.3333 0.1667  plane waves:     520
 k-point 55 :   0.0000 0.5000 0.1667  plane waves:     526
 k-point 56 :   0.1667 0.5000 0.1667  plane waves:     516
 k-point 57 :   0.3333 0.5000 0.1667  plane waves:     520
 k-point 58 :   0.5000 0.5000 0.1667  plane waves:     522
 k-point 59 :  -0.3333 0.5000 0.1667  plane waves:     516
 k-point 60 :  -0.1667 0.5000 0.1667  plane waves:     524
[...]
 k-point 85 :   0.0000 0.3333 0.3333  plane waves:     532
 k-point 86 :   0.1667 0.3333 0.3333  plane waves:     540
 k-point 87 :   0.3333 0.3333 0.3333  plane waves:     512
 k-point 88 :   0.5000 0.3333 0.3333  plane waves:     516
 k-point 89 :  -0.3333 0.3333 0.3333  plane waves:     536
 k-point 90 :  -0.1667 0.3333 0.3333  plane waves:     522
 k-point 91 :   0.0000 0.5000 0.3333  plane waves:     522
 k-point 92 :   0.1667 0.5000 0.3333  plane waves:     520
 k-point 93 :   0.3333 0.5000 0.3333  plane waves:     516
 k-point 94 :   0.5000 0.5000 0.3333  plane waves:     526
 k-point 95 :  -0.3333 0.5000 0.3333  plane waves:     524
 k-point 96 :  -0.1667 0.5000 0.3333  plane waves:     516
 k-point 97 :   0.0000-0.3333 0.3333  plane waves:     536
 k-point 98 :   0.1667-0.3333 0.3333  plane waves:     524
 k-point 99 :   0.3333-0.3333 0.3333  plane waves:     536
 k-point ** :   0.5000-0.3333 0.3333  plane waves:     524
 k-point ** :  -0.3333-0.3333 0.3333  plane waves:     536
 k-point ** :  -0.1667-0.3333 0.3333  plane waves:     524
 k-point ** :   0.0000-0.1667 0.3333  plane waves:     516
 k-point ** :   0.1667-0.1667 0.3333  plane waves:     520
 k-point ** :   0.3333-0.1667 0.3333  plane waves:     522
 k-point ** :   0.5000-0.1667 0.3333  plane waves:     516
 k-point ** :  -0.3333-0.1667 0.3333  plane waves:     524
 k-point ** :  -0.1667-0.1667 0.3333  plane waves:     526
 k-point ** :   0.0000 0.0000 0.5000  plane waves:     532
 k-point ** :   0.1667-0.0000 0.5000  plane waves:     526
 k-point ** :   0.3333 0.0000 0.5000  plane waves:     522
 k-point ** :   0.5000 0.0000 0.5000  plane waves:     508
 k-point ** :  -0.3333 0.0000 0.5000  plane waves:     522
 k-point ** :  -0.1667 0.0000 0.5000  plane waves:     526
 k-point ** :   0.0000 0.1667 0.5000  plane waves:     526
 k-point ** :   0.1667 0.1667 0.5000  plane waves:     516
 k-point ** :   0.3333 0.1667 0.5000  plane waves:     520
 k-point ** :   0.5000 0.1667 0.5000  plane waves:     522
 k-point ** :  -0.3333 0.1667 0.5000  plane waves:     516
 k-point ** :  -0.1667 0.1667 0.5000  plane waves:     524
 k-point ** :   0.0000 0.3333 0.5000  plane waves:     522
 k-point ** :   0.1667 0.3333 0.5000  plane waves:     520
 k-point ** :   0.3333 0.3333 0.5000  plane waves:     516
 k-point ** :   0.5000 0.3333 0.5000  plane waves:     526
 k-point ** :  -0.3333 0.3333 0.5000  plane waves:     524
 k-point ** :  -0.1667 0.3333 0.5000  plane waves:     516
 k-point ** :   0.0000 0.5000 0.5000  plane waves:     508
 k-point ** :   0.1667 0.5000 0.5000  plane waves:     522
 k-point ** :   0.3333 0.5000 0.5000  plane waves:     526
 k-point ** :   0.5000 0.5000 0.5000  plane waves:     532
 k-point ** :  -0.3333 0.5000 0.5000  plane waves:     526
 k-point ** :  -0.1667 0.5000 0.5000  plane waves:     522
 k-point ** :   0.0000-0.3333 0.5000  plane waves:     522
 k-point ** :   0.1667-0.3333 0.5000  plane waves:     516
 k-point ** :   0.3333-0.3333 0.5000  plane waves:     524
 k-point ** :   0.5000-0.3333 0.5000  plane waves:     526
 k-point ** :  -0.3333-0.3333 0.5000  plane waves:     516
 k-point ** :  -0.1667-0.3333 0.5000  plane waves:     520
 k-point ** :   0.0000-0.1667 0.5000  plane waves:     526
 k-point ** :   0.1667-0.1667 0.5000  plane waves:     524
 k-point ** :   0.3333-0.1667 0.5000  plane waves:     516
 k-point ** :   0.5000-0.1667 0.5000  plane waves:     522
 k-point ** :  -0.3333-0.1667 0.5000  plane waves:     520
 k-point ** :  -0.1667-0.1667 0.5000  plane waves:     516
 k-point ** :   0.0000 0.0000-0.3333  plane waves:     512
 k-point ** :   0.1667-0.0000-0.3333  plane waves:     516
 k-point ** :   0.3333 0.0000-0.3333  plane waves:     536
 k-point ** :   0.5000 0.0000-0.3333  plane waves:     522
 k-point ** :  -0.3333 0.0000-0.3333  plane waves:     532
 k-point ** :  -0.1667 0.0000-0.3333  plane waves:     540
 k-point ** :   0.0000 0.1667-0.3333  plane waves:     516
 k-point ** :   0.1667 0.1667-0.3333  plane waves:     526
 k-point ** :   0.3333 0.1667-0.3333  plane waves:     524
 k-point ** :   0.5000 0.1667-0.3333  plane waves:     516
 k-point ** :  -0.3333 0.1667-0.3333  plane waves:     522
 k-point ** :  -0.1667 0.1667-0.3333  plane waves:     520
 k-point ** :   0.0000 0.3333-0.3333  plane waves:     536
 k-point ** :   0.1667 0.3333-0.3333  plane waves:     524
 k-point ** :   0.3333 0.3333-0.3333  plane waves:     536
[...]
 k-point ** :   0.5000 0.5000-0.1667  plane waves:     522
 k-point ** :  -0.3333 0.5000-0.1667  plane waves:     520
 k-point ** :  -0.1667 0.5000-0.1667  plane waves:     516
 k-point ** :   0.0000-0.3333-0.1667  plane waves:     540
 k-point ** :   0.1667-0.3333-0.1667  plane waves:     520
 k-point ** :   0.3333-0.3333-0.1667  plane waves:     524
 k-point ** :   0.5000-0.3333-0.1667  plane waves:     520
 k-point ** :  -0.3333-0.3333-0.1667  plane waves:     540
 k-point ** :  -0.1667-0.3333-0.1667  plane waves:     538
 k-point ** :   0.0000-0.1667-0.1667  plane waves:     532
 k-point ** :   0.1667-0.1667-0.1667  plane waves:     540
 k-point ** :   0.3333-0.1667-0.1667  plane waves:     526
 k-point ** :   0.5000-0.1667-0.1667  plane waves:     516
 k-point ** :  -0.3333-0.1667-0.1667  plane waves:     538
 k-point ** :  -0.1667-0.1667-0.1667  plane waves:     548

 maximum and minimum number of plane-waves per node :       156      110

 maximum number of plane-waves:       548
 maximum index in each direction:
   IXMAX=    4   IYMAX=    4   IZMAX=    4
   IXMIN=   -4   IYMIN=   -4   IZMIN=   -4

 parallel 3D FFT for wavefunctions:
    minimum data exchange during FFTs selected (reduces bandwidth)
 parallel 3D FFT for charge:
    minimum data exchange during FFTs selected (reduces bandwidth)

 FFT grid for exact exchange (Hartree Fock)
  NGX = 14; NGY = 14; NGZ = 14

 Radii for the augmentation spheres in the non-local exchange
 for species   1 augmentation radius   1.039 (default was   0.831)
       energy cutoff for augmentation   1200.0

 real space projection operators:
  max/ min on nodes  :         38.28         21.48

 Maximum index for augmentation-charges in exchange          196
  SETUP_FOCK is finished

 Broyden mixing: mesh for mixing (old mesh)
   NGX =  9   NGY =  9   NGZ =  9
  (NGX  = 36   NGY  = 36   NGZ  = 36)
  gives a total of    729 points

 initial charge density was supplied:
 charge density of overlapping atoms calculated
 number of electron       8.0000000 magnetization       1.0000000      1.0000000      1.0000000
 keeping initial charge density in first step

 Maximum index for augmentation-charges         4969 (set IRDMAX)

 First call to EWALD:  gamma=   0.630
 Maximum number of real-space cells 3x 3x 3
 Maximum number of reciprocal cells 3x 3x 3

--------------------------------------- Iteration      1(   1)  ---------------------------------------

 eigenvalue-minimisations  : 11594
 total energy-change (2. order) : 0.9644596E+02  (-0.3186693E+03)
 number of electron       8.0000000 magnetization       1.0000000      1.0000000      1.0000000
 augmentation part        8.0000000 magnetization       1.0000000      1.0000000      1.0000000

 Free energy of the ion-electron system (eV)
  alpha Z        PSCENC =        13.95530511
  Ewald energy   TEWEN  =      -473.25263642
  -Hartree energ DENC   =      -357.10447897
  -exchange      EXHF   =         0.00000000
  -V(xc)+E(xc)   XCENC  =        35.07969339
  PAW double counting   =       764.07239718     -808.35511184
  entropy T*S    EENTRO =        -0.00045852
  eigenvalues    EBANDS =       -29.92581559
  atomic energy  EATOM  =       951.97706656
  free energy    TOTEN  =        96.44596089 eV

  energy without entropy =       96.44641942  energy(sigma->0) =       96.44619015
  exchange ACFDT corr.  =         0.00000000  see jH, gK, PRB 81, 115126

[...]

 eigenvalue-minimisations  : 11776
 total energy-change (2. order) :-0.5855786E+02  (-0.4798898E+02)
 number of electron       8.0000000 magnetization       1.0000000      1.0000000      1.0000000
 augmentation part        8.0000000 magnetization       1.0000000      1.0000000      1.0000000

[...]

--------------------------------------- Iteration      1(  22)  ---------------------------------------

 eigenvalue-minimisations  :     0
 total energy-change (2. order) :-0.8196753E-07  (-0.5454447E-07)
 number of electron       8.0000001 magnetization      -0.0000000     -0.0000000     -0.0000000
 augmentation part        2.1005180 magnetization       0.0000075      0.0000074      0.0000075

 Free energy of the ion-electron system (eV)
  alpha Z        PSCENC =        13.95530511
  Ewald energy   TEWEN  =      -473.25263642
  -Hartree energ DENC   =      -356.74084175
  -exchange      EXHF   =        31.08761839
  -V(xc)+E(xc)   XCENC  =        34.84347798
  PAW double counting   =       753.23834368     -790.62144442
  entropy T*S    EENTRO =        -0.00000000
  eigenvalues    EBANDS =      -161.62605478
  atomic energy  EATOM  =       951.97706656
  free energy    TOTEN  =         2.86078158 eV

  energy without entropy =        2.86078158  energy(sigma->0) =        2.86078158
  exchange ACFDT corr.  =         0.00000000  see jH, gK, PRB 81, 115126

  average scaling for gradient   0.7534

 average (electrostatic) potential at core
  the test charge radii are     0.8311
  (the norm of the test charge is              1.0000)
       1 -65.3693

 E-fermi : -13.1142     XC(G=0):  -5.4693     alpha+bet : -2.1415

 k-point     1 :       0.0000    0.0000    0.0000
  band No.  band energies     occupation
      1     -39.4870      1.00000
      2     -39.4869      1.00000
      3     -13.4975      1.00000
      4     -13.4975      1.00000
      5     -13.3990      1.00000
      6     -13.3989      1.00000
      7     -13.3989      1.00000
      8     -13.3989      1.00000
      9       0.9130      0.00000
     10       0.9130      0.00000
     11      19.1382      0.00000
     12      19.1382      0.00000
     13      19.1384      0.00000
     14      19.1384      0.00000
     15      19.1384      0.00000
     16      19.1384      0.00000
     17      20.8507      0.00000
     18      20.8507      0.00000

[...]

 k-point   216 :      -0.1667   -0.1667   -0.1667
  band No.  band energies     occupation
      1     -39.4926      1.00000
      2     -39.4925      1.00000
      3     -13.9681      1.00000
      4     -13.9680      1.00000
      5     -13.7229      1.00000
      6     -13.7228      1.00000
      7     -13.6649      1.00000
      8     -13.6648      1.00000
      9       1.6782      0.00000
     10       1.6782      0.00000
     11      14.9799      0.00000
     12      14.9799      0.00000
     13      18.8875      0.00000
     14      18.8878      0.00000
     15      18.8892      0.00000
     16      18.8894      0.00000
     17      21.5551      0.00000
     18      22.4809      0.00000

 soft charge-density along one line, spin component           1
         0         1         2         3         4         5         6         7         8         9
 total charge-density along one line

[...]

 soft charge-density along one line, spin component           4
         0         1         2         3         4         5         6         7         8         9
 total charge-density along one line

------------------------ aborting loop because EDIFF is reached ----------------------------------------

  FORCE on cell =-STRESS in cart. coord.  units (eV):
  Direction    XX          YY          ZZ          XY          YZ          ZX
  Alpha Z    13.95531    13.95531    13.95531
  Ewald    -157.75088  -157.75088  -157.75088    -0.00000    -0.00000     0.00000
  Hartree   118.91407   118.91398   118.91395     0.00008     0.00003     0.00006
  E(xc)     -37.12560   -37.12560   -37.12560     0.00000    -0.00000     0.00000
  Local     -94.65974   -94.65957   -94.65953    -0.00015    -0.00006    -0.00011
  n-local   -63.62928   -63.62895   -63.62888    -0.00029    -0.00012    -0.00020
  augment    42.87645    42.87649    42.87652    -0.00003    -0.00001    -0.00002
  Kinetic   194.46615   194.46632   194.46637    -0.00015    -0.00006    -0.00011
  Fock      -47.48628   -47.48591   -47.48582    -0.00032    -0.00013    -0.00022
  Total     -30.43980   -30.43883   -30.43855    -0.00086    -0.00035    -0.00061
  in kB   -2192.77720 -2192.70706 -2192.68746    -0.06165    -0.02546    -0.04389

 VOLUME and BASIS-vectors are now :
  energy-cutoff  :      300.00
  volume of cell :       22.24
      direct lattice vectors                 reciprocal lattice vectors
     3.156634414  0.000000000  0.000000000     0.316793100 -0.182900581 -0.129330241
     1.578317207  2.733725593  0.000000000     0.000000000  0.365801163 -0.129330241
     1.578317207  0.911241864  2.577381206     0.000000000  0.000000000  0.387990724

  length of vectors
     3.156634414  3.156634414  3.156634414     0.387990724  0.387990724  0.387990724

 FORCES acting on ions:
    Electron-Ion                     Ewald-Force                    Non-Local-Force
   0.175E-05 -.179E-05 0.528E-07   0.179E-14 -.890E-16 -.589E-15   0.313E-05 0.364E-05 0.427E-06
   0.175E-05 -.179E-05 0.521E-07   0.179E-14 -.890E-16 -.589E-15   0.313E-05 0.364E-05 0.427E-06

 POSITION                                       TOTAL-FORCE (eV/Angst)
      0.00000      0.00000      0.00000         0.000005      0.000002      0.000001
    total drift:                                0.000005      0.000002      0.000001

  FREE ENERGIE OF THE ION-ELECTRON SYSTEM (eV)
  free  energy   TOTEN  =         2.86078158 eV

  energy  without entropy=        2.86078158  energy(sigma->0) =        2.86078158

 writing wavefunctions

 Spin-Orbit-Coupling matrix elements

 Ion:    1  E_soc:     -0.0005609
 l=   1
     0.0000000    -0.0000935    -0.0000935
    -0.0000935     0.0000000    -0.0000935
    -0.0000935    -0.0000935     0.0000000
 l=   2
     0.0000000    -0.0000000     0.0000000    -0.0000000    -0.0000000
    -0.0000000     0.0000000    -0.0000000    -0.0000000    -0.0000000
     0.0000000    -0.0000000     0.0000000    -0.0000000     0.0000000
    -0.0000000    -0.0000000    -0.0000000     0.0000000    -0.0000000
    -0.0000000    -0.0000000     0.0000000    -0.0000000     0.0000000
 l=   3
     0.0000000     0.0000000     0.0000000     0.0000000     0.0000000     0.0000000     0.0000000
     0.0000000     0.0000000     0.0000000     0.0000000     0.0000000     0.0000000     0.0000000
     0.0000000     0.0000000     0.0000000     0.0000000     0.0000000     0.0000000     0.0000000
     0.0000000     0.0000000     0.0000000     0.0000000     0.0000000     0.0000000     0.0000000
     0.0000000     0.0000000     0.0000000     0.0000000     0.0000000     0.0000000     0.0000000
     0.0000000     0.0000000     0.0000000     0.0000000     0.0000000     0.0000000     0.0000000
     0.0000000     0.0000000     0.0000000     0.0000000     0.0000000     0.0000000     0.0000000