 vasp.5.4.4.18Apr17-6-g9f103f2a35 (build Jul 09 2018 16:43:14) complex

 executed on             LinuxIFC date 2018.11.22  03:13:14

 INCAR:
 POTCAR:    PAW_PBE Ne_GW 22Sep2014

 POTCAR:    PAW_PBE Ne_GW 22Sep2014
   VRHFIN =Ne: s2p6

   TITEL  = PAW_PBE Ne_GW 22Sep2014
   POMASS =   20.180; ZVAL   =    8.000    mass and valenz
   ENMAX  =  432.275; ENMIN  =  324.206 eV

  PAW_PBE Ne_GW 22Sep2014               :

 POSCAR: Ne_FCC
  positions in direct lattice
  velocities in cartesian coordinates
 exchange correlation table for  LEXCH =        8
   RHO(1)=    0.500       N(1)  =     2000
   RHO(2)=  100.500       N(2)  =     4000

 ion  position               nearest neighbor table
   1  0.000  0.000  0.000-

IMPORTANT INFORMATION: All symmetrisations will be switched off!
NOSYMM: (Re-)initialisation of all symmetry stuff for point group C_1.

 KPOINTS: k-points

Automatic generation of k-mesh.
Space group operators:
 irot       det(A)        alpha          n_x          n_y          n_z        tau_x        tau_y        tau_z
    1     1.000000     0.000000     1.000000     0.000000     0.000000     0.000000     0.000000     0.000000

 Subroutine IBZKPT returns following result:

 Found    216 irreducible k-points:

 Following reciprocal coordinates:
            Coordinates               Weight
  0.000000  0.000000  0.000000      1.000000
  0.166667  0.000000  0.000000      1.000000
  0.333333 -0.000000  0.000000      1.000000
  0.500000  0.000000 -0.000000      1.000000
 -0.333333  0.000000  0.000000      1.000000
 -0.166667  0.000000 -0.000000      1.000000
  0.000000  0.166667  0.000000      1.000000
  0.166667  0.166667  0.000000      1.000000
  0.333333  0.166667  0.000000      1.000000
  0.500000  0.166667  0.000000      1.000000
 -0.333333  0.166667 -0.000000      1.000000
 -0.166667  0.166667 -0.000000      1.000000
  0.000000  0.333333  0.000000      1.000000
  0.166667  0.333333  0.000000      1.000000
  0.333333  0.333333  0.000000      1.000000
  0.500000  0.333333  0.000000      1.000000
 -0.333333  0.333333 -0.000000      1.000000
 -0.166667  0.333333  0.000000      1.000000
  0.000000  0.500000  0.000000      1.000000
  0.166667  0.500000  0.000000      1.000000
  0.333333  0.500000  0.000000      1.000000
  0.500000  0.500000  0.000000      1.000000
 -0.333333  0.500000  0.000000      1.000000
 -0.166667  0.500000  0.000000      1.000000
  0.000000 -0.333333 -0.000000      1.000000
  0.166667 -0.333333 -0.000000      1.000000
  0.333333 -0.333333  0.000000      1.000000
  0.500000 -0.333333  0.000000      1.000000
 -0.333333 -0.333333 -0.000000      1.000000
 -0.166667 -0.333333 -0.000000      1.000000
  0.000000 -0.166667 -0.000000      1.000000
  0.166667 -0.166667  0.000000      1.000000
  0.333333 -0.166667  0.000000      1.000000
  0.500000 -0.166667  0.000000      1.000000
 -0.333333 -0.166667 -0.000000      1.000000
 -0.166667 -0.166667 -0.000000      1.000000
  0.000000  0.000000  0.166667      1.000000
  0.166667  0.000000  0.166667      1.000000
  0.333333 -0.000000  0.166667      1.000000
  0.500000  0.000000  0.166667      1.000000
 -0.333333  0.000000  0.166667      1.000000
 -0.166667  0.000000  0.166667      1.000000
  0.000000  0.166667  0.166667      1.000000
  0.166667  0.166667  0.166667      1.000000
  0.333333  0.166667  0.166667      1.000000
  0.500000  0.166667  0.166667      1.000000
 -0.333333  0.166667  0.166667      1.000000
 -0.166667  0.166667  0.166667      1.000000
  0.000000  0.333333  0.166667      1.000000
  0.166667  0.333333  0.166667      1.000000
  0.333333  0.333333  0.166667      1.000000
  0.500000  0.333333  0.166667      1.000000
 -0.333333  0.333333  0.166667      1.000000
 -0.166667  0.333333  0.166667      1.000000
  0.000000  0.500000  0.166667      1.000000
  0.166667  0.500000  0.166667      1.000000
  0.333333  0.500000  0.166667      1.000000
  0.500000  0.500000  0.166667      1.000000
 -0.333333  0.500000  0.166667      1.000000
 -0.166667  0.500000  0.166667      1.000000
[...]
  0.500000  0.500000 -0.166667      1.000000
 -0.333333  0.500000 -0.166667      1.000000
 -0.166667  0.500000 -0.166667      1.000000
  0.000000 -0.333333 -0.166667      1.000000
  0.166667 -0.333333 -0.166667      1.000000
  0.333333 -0.333333 -0.166667      1.000000
  0.500000 -0.333333 -0.166667      1.000000
 -0.333333 -0.333333 -0.166667      1.000000
 -0.166667 -0.333333 -0.166667      1.000000
  0.000000 -0.166667 -0.166667      1.000000
  0.166667 -0.166667 -0.166667      1.000000
  0.333333 -0.166667 -0.166667      1.000000
  0.500000 -0.166667 -0.166667      1.000000
 -0.333333 -0.166667 -0.166667      1.000000
 -0.166667 -0.166667 -0.166667      1.000000

 Following cartesian coordinates:
            Coordinates               Weight
  0.000000  0.000000  0.000000      1.000000
  0.056037 -0.032353 -0.022877      1.000000
  0.112074 -0.064706 -0.045754      1.000000
  0.168111 -0.097059 -0.068631      1.000000
 -0.112074  0.064706  0.045754      1.000000
 -0.056037  0.032353  0.022877      1.000000
  0.000000  0.064706 -0.022877      1.000000
  0.056037  0.032353 -0.045754      1.000000
  0.112074  0.000000 -0.068631      1.000000
  0.168111 -0.032353 -0.091508      1.000000
 -0.112074  0.129412  0.022877      1.000000
 -0.056037  0.097059  0.000000      1.000000
  0.000000  0.129412 -0.045754      1.000000
  0.056037  0.097059 -0.068631      1.000000
  0.112074  0.064706 -0.091508      1.000000
  0.168111  0.032353 -0.114385      1.000000
 -0.112074  0.194118  0.000000      1.000000
 -0.056037  0.161765 -0.022877      1.000000
  0.000000  0.194118 -0.068631      1.000000
  0.056037  0.161765 -0.091508      1.000000
  0.112074  0.129412 -0.114385      1.000000
  0.168111  0.097059 -0.137262      1.000000
 -0.112074  0.258824 -0.022877      1.000000
 -0.056037  0.226471 -0.045754      1.000000
  0.000000 -0.129412  0.045754      1.000000
  0.056037 -0.161765  0.022877      1.000000
  0.112074 -0.194118 -0.000000      1.000000
  0.168111 -0.226471 -0.022877      1.000000
 -0.112074 -0.064706  0.091508      1.000000
 -0.056037 -0.097059  0.068631      1.000000
  0.000000 -0.064706  0.022877      1.000000
  0.056037 -0.097059 -0.000000      1.000000
  0.112074 -0.129412 -0.022877      1.000000
  0.168111 -0.161765 -0.045754      1.000000
 -0.112074 -0.000000  0.068631      1.000000
 -0.056037 -0.032353  0.045754      1.000000
  0.000000  0.000000  0.068631      1.000000
  0.056037 -0.032353  0.045754      1.000000
  0.112074 -0.064706  0.022877      1.000000
  0.168111 -0.097059 -0.000000      1.000000
 -0.112074  0.064706  0.114385      1.000000
 -0.056037  0.032353  0.091508      1.000000
  0.000000  0.064706  0.045754      1.000000
  0.056037  0.032353  0.022877      1.000000
  0.112074  0.000000  0.000000      1.000000
  0.168111 -0.032353 -0.022877      1.000000
 -0.112074  0.129412  0.091508      1.000000
 -0.056037  0.097059  0.068631      1.000000
  0.000000  0.129412  0.022877      1.000000
  0.056037  0.097059  0.000000      1.000000
  0.112074  0.064706 -0.022877      1.000000
  0.168111  0.032353 -0.045754      1.000000
 -0.112074  0.194118  0.068631      1.000000
 -0.056037  0.161765  0.045754      1.000000
  0.000000  0.194118  0.000000      1.000000
  0.056037  0.161765 -0.022877      1.000000
  0.112074  0.129412 -0.045754      1.000000
  0.168111  0.097059 -0.068631      1.000000
 -0.112074  0.258824  0.045754      1.000000
 -0.056037  0.226471  0.022877      1.000000
[...]
  0.168111  0.097059 -0.205893      1.000000
 -0.112074  0.258824 -0.091508      1.000000
 -0.056037  0.226471 -0.114385      1.000000
  0.000000 -0.129412 -0.022877      1.000000
  0.056037 -0.161765 -0.045754      1.000000
  0.112074 -0.194118 -0.068631      1.000000
  0.168111 -0.226471 -0.091508      1.000000
 -0.112074 -0.064706  0.022877      1.000000
 -0.056037 -0.097059 -0.000000      1.000000
  0.000000 -0.064706 -0.045754      1.000000
  0.056037 -0.097059 -0.068631      1.000000
  0.112074 -0.129412 -0.091508      1.000000
  0.168111 -0.161765 -0.114385      1.000000
 -0.112074 -0.000000  0.000000      1.000000
 -0.056037 -0.032353 -0.022877      1.000000

 Subroutine IBZKPT_HF returns following result:

 Found    216 k-points in 1st BZ
 the following    216 k-points will be used (e.g. in the exchange kernel)
 Following reciprocal coordinates:   # in IRBZ
  0.000000  0.000000  0.000000    0.00462963   1 t-inv F
  0.166667  0.000000  0.000000    0.00462963   2 t-inv F
  0.333333 -0.000000  0.000000    0.00462963   3 t-inv F
  0.500000  0.000000 -0.000000    0.00462963   4 t-inv F
 -0.333333  0.000000  0.000000    0.00462963   5 t-inv F
 -0.166667  0.000000 -0.000000    0.00462963   6 t-inv F
  0.000000  0.166667  0.000000    0.00462963   7 t-inv F
  0.166667  0.166667  0.000000    0.00462963   8 t-inv F
  0.333333  0.166667  0.000000    0.00462963   9 t-inv F
  0.500000  0.166667  0.000000    0.00462963  10 t-inv F
 -0.333333  0.166667 -0.000000    0.00462963  11 t-inv F
 -0.166667  0.166667 -0.000000    0.00462963  12 t-inv F
  0.000000  0.333333  0.000000    0.00462963  13 t-inv F
  0.166667  0.333333  0.000000    0.00462963  14 t-inv F
  0.333333  0.333333  0.000000    0.00462963  15 t-inv F
  0.500000  0.333333  0.000000    0.00462963  16 t-inv F
 -0.333333  0.333333 -0.000000    0.00462963  17 t-inv F
 -0.166667  0.333333  0.000000    0.00462963  18 t-inv F
  0.000000  0.500000  0.000000    0.00462963  19 t-inv F
  0.166667  0.500000  0.000000    0.00462963  20 t-inv F
  0.333333  0.500000  0.000000    0.00462963  21 t-inv F
  0.500000  0.500000  0.000000    0.00462963  22 t-inv F
 -0.333333  0.500000  0.000000    0.00462963  23 t-inv F
 -0.166667  0.500000  0.000000    0.00462963  24 t-inv F
  0.000000 -0.333333 -0.000000    0.00462963  25 t-inv F
  0.166667 -0.333333 -0.000000    0.00462963  26 t-inv F
  0.333333 -0.333333  0.000000    0.00462963  27 t-inv F
  0.500000 -0.333333  0.000000    0.00462963  28 t-inv F
 -0.333333 -0.333333 -0.000000    0.00462963  29 t-inv F
 -0.166667 -0.333333 -0.000000    0.00462963  30 t-inv F
  0.000000 -0.166667 -0.000000    0.00462963  31 t-inv F
  0.166667 -0.166667  0.000000    0.00462963  32 t-inv F
  0.333333 -0.166667  0.000000    0.00462963  33 t-inv F
  0.500000 -0.166667  0.000000    0.00462963  34 t-inv F
 -0.333333 -0.166667 -0.000000    0.00462963  35 t-inv F
 -0.166667 -0.166667 -0.000000    0.00462963  36 t-inv F
  0.000000  0.000000  0.166667    0.00462963  37 t-inv F
  0.166667  0.000000  0.166667    0.00462963  38 t-inv F
  0.333333 -0.000000  0.166667    0.00462963  39 t-inv F
  0.500000  0.000000  0.166667    0.00462963  40 t-inv F
 -0.333333  0.000000  0.166667    0.00462963  41 t-inv F
 -0.166667  0.000000  0.166667    0.00462963  42 t-inv F
  0.000000  0.166667  0.166667    0.00462963  43 t-inv F
  0.166667  0.166667  0.166667    0.00462963  44 t-inv F
  0.333333  0.166667  0.166667    0.00462963  45 t-inv F
  0.500000  0.166667  0.166667    0.00462963  46 t-inv F
 -0.333333  0.166667  0.166667    0.00462963  47 t-inv F
 -0.166667  0.166667  0.166667    0.00462963  48 t-inv F
  0.000000  0.333333  0.166667    0.00462963  49 t-inv F
[...]
 k-point 28 :   0.5000-0.3333 0.0000  plane waves:     436
 k-point 29 :  -0.3333-0.3333-0.0000  plane waves:     436
 k-point 30 :  -0.1667-0.3333-0.0000  plane waves:     442
 k-point 31 :   0.0000-0.1667-0.0000  plane waves:     428
 k-point 32 :   0.1667-0.1667 0.0000  plane waves:     436
 k-point 33 :   0.3333-0.1667 0.0000  plane waves:     442
 k-point 34 :   0.5000-0.1667 0.0000  plane waves:     434
 k-point 35 :  -0.3333-0.1667-0.0000  plane waves:     442
 k-point 36 :  -0.1667-0.1667-0.0000  plane waves:     436
 k-point 37 :   0.0000 0.0000 0.1667  plane waves:     428
 k-point 38 :   0.1667 0.0000 0.1667  plane waves:     436
 k-point 39 :   0.3333-0.0000 0.1667  plane waves:     442
 k-point 40 :   0.5000 0.0000 0.1667  plane waves:     434
 k-point 41 :  -0.3333 0.0000 0.1667  plane waves:     442
 k-point 42 :  -0.1667 0.0000 0.1667  plane waves:     436
 k-point 43 :   0.0000 0.1667 0.1667  plane waves:     436
 k-point 44 :   0.1667 0.1667 0.1667  plane waves:     428
 k-point 45 :   0.3333 0.1667 0.1667  plane waves:     436
 k-point 46 :   0.5000 0.1667 0.1667  plane waves:     442
 k-point 47 :  -0.3333 0.1667 0.1667  plane waves:     434
 k-point 48 :  -0.1667 0.1667 0.1667  plane waves:     442
 k-point 49 :   0.0000 0.3333 0.1667  plane waves:     442
 k-point 50 :   0.1667 0.3333 0.1667  plane waves:     436
 k-point 51 :   0.3333 0.3333 0.1667  plane waves:     442
 k-point 52 :   0.5000 0.3333 0.1667  plane waves:     446
 k-point 53 :  -0.3333 0.3333 0.1667  plane waves:     440
 k-point 54 :  -0.1667 0.3333 0.1667  plane waves:     446
 k-point 55 :   0.0000 0.5000 0.1667  plane waves:     434
 k-point 56 :   0.1667 0.5000 0.1667  plane waves:     442
 k-point 57 :   0.3333 0.5000 0.1667  plane waves:     446
 k-point 58 :   0.5000 0.5000 0.1667  plane waves:     436
 k-point 59 :  -0.3333 0.5000 0.1667  plane waves:     432
 k-point 60 :  -0.1667 0.5000 0.1667  plane waves:     440
[...]
 k-point 85 :   0.0000 0.3333 0.3333  plane waves:     436
 k-point 86 :   0.1667 0.3333 0.3333  plane waves:     442
 k-point 87 :   0.3333 0.3333 0.3333  plane waves:     446
 k-point 88 :   0.5000 0.3333 0.3333  plane waves:     442
 k-point 89 :  -0.3333 0.3333 0.3333  plane waves:     440
 k-point 90 :  -0.1667 0.3333 0.3333  plane waves:     436
 k-point 91 :   0.0000 0.5000 0.3333  plane waves:     436
 k-point 92 :   0.1667 0.5000 0.3333  plane waves:     446
 k-point 93 :   0.3333 0.5000 0.3333  plane waves:     442
 k-point 94 :   0.5000 0.5000 0.3333  plane waves:     434
 k-point 95 :  -0.3333 0.5000 0.3333  plane waves:     440
 k-point 96 :  -0.1667 0.5000 0.3333  plane waves:     432
 k-point 97 :   0.0000-0.3333 0.3333  plane waves:     440
 k-point 98 :   0.1667-0.3333 0.3333  plane waves:     440
 k-point 99 :   0.3333-0.3333 0.3333  plane waves:     440
 k-point ** :   0.5000-0.3333 0.3333  plane waves:     440
 k-point ** :  -0.3333-0.3333 0.3333  plane waves:     440
 k-point ** :  -0.1667-0.3333 0.3333  plane waves:     440
 k-point ** :   0.0000-0.1667 0.3333  plane waves:     442
 k-point ** :   0.1667-0.1667 0.3333  plane waves:     446
 k-point ** :   0.3333-0.1667 0.3333  plane waves:     436
 k-point ** :   0.5000-0.1667 0.3333  plane waves:     432
 k-point ** :  -0.3333-0.1667 0.3333  plane waves:     440
 k-point ** :  -0.1667-0.1667 0.3333  plane waves:     434
 k-point ** :   0.0000 0.0000 0.5000  plane waves:     456
 k-point ** :   0.1667 0.0000 0.5000  plane waves:     434
 k-point ** :   0.3333-0.0000 0.5000  plane waves:     436
 k-point ** :   0.5000 0.0000 0.5000  plane waves:     444
 k-point ** :  -0.3333 0.0000 0.5000  plane waves:     436
 k-point ** :  -0.1667 0.0000 0.5000  plane waves:     434
 k-point ** :   0.0000 0.1667 0.5000  plane waves:     434
 k-point ** :   0.1667 0.1667 0.5000  plane waves:     442
 k-point ** :   0.3333 0.1667 0.5000  plane waves:     446
 k-point ** :   0.5000 0.1667 0.5000  plane waves:     436
 k-point ** :  -0.3333 0.1667 0.5000  plane waves:     432
 k-point ** :  -0.1667 0.1667 0.5000  plane waves:     440
 k-point ** :   0.0000 0.3333 0.5000  plane waves:     436
 k-point ** :   0.1667 0.3333 0.5000  plane waves:     446
 k-point ** :   0.3333 0.3333 0.5000  plane waves:     442
 k-point ** :   0.5000 0.3333 0.5000  plane waves:     434
 k-point ** :  -0.3333 0.3333 0.5000  plane waves:     440
 k-point ** :  -0.1667 0.3333 0.5000  plane waves:     432
 k-point ** :   0.0000 0.5000 0.5000  plane waves:     444
 k-point ** :   0.1667 0.5000 0.5000  plane waves:     436
 k-point ** :   0.3333 0.5000 0.5000  plane waves:     434
 k-point ** :   0.5000 0.5000 0.5000  plane waves:     456
 k-point ** :  -0.3333 0.5000 0.5000  plane waves:     434
 k-point ** :  -0.1667 0.5000 0.5000  plane waves:     436
 k-point ** :   0.0000-0.3333 0.5000  plane waves:     436
 k-point ** :   0.1667-0.3333 0.5000  plane waves:     432
 k-point ** :   0.3333-0.3333 0.5000  plane waves:     440
 k-point ** :   0.5000-0.3333 0.5000  plane waves:     434
 k-point ** :  -0.3333-0.3333 0.5000  plane waves:     442
 k-point ** :  -0.1667-0.3333 0.5000  plane waves:     446
 k-point ** :   0.0000-0.1667 0.5000  plane waves:     434
 k-point ** :   0.1667-0.1667 0.5000  plane waves:     440
 k-point ** :   0.3333-0.1667 0.5000  plane waves:     432
 k-point ** :   0.5000-0.1667 0.5000  plane waves:     436
 k-point ** :  -0.3333-0.1667 0.5000  plane waves:     446
 k-point ** :  -0.1667-0.1667 0.5000  plane waves:     442
 k-point ** :   0.0000 0.0000-0.3333  plane waves:     446
 k-point ** :   0.1667 0.0000-0.3333  plane waves:     442
 k-point ** :   0.3333-0.0000-0.3333  plane waves:     440
 k-point ** :   0.5000 0.0000-0.3333  plane waves:     436
 k-point ** :  -0.3333 0.0000-0.3333  plane waves:     436
 k-point ** :  -0.1667 0.0000-0.3333  plane waves:     442
 k-point ** :   0.0000 0.1667-0.3333  plane waves:     442
 k-point ** :   0.1667 0.1667-0.3333  plane waves:     434
 k-point ** :   0.3333 0.1667-0.3333  plane waves:     440
 k-point ** :   0.5000 0.1667-0.3333  plane waves:     432
 k-point ** :  -0.3333 0.1667-0.3333  plane waves:     436
 k-point ** :  -0.1667 0.1667-0.3333  plane waves:     446
 k-point ** :   0.0000 0.3333-0.3333  plane waves:     440
 k-point ** :   0.1667 0.3333-0.3333  plane waves:     440
 k-point ** :   0.3333 0.3333-0.3333  plane waves:     440
[...]
 k-point ** :   0.5000 0.5000-0.1667  plane waves:     436
 k-point ** :  -0.3333 0.5000-0.1667  plane waves:     446
 k-point ** :  -0.1667 0.5000-0.1667  plane waves:     442
 k-point ** :   0.0000-0.3333-0.1667  plane waves:     442
 k-point ** :   0.1667-0.3333-0.1667  plane waves:     446
 k-point ** :   0.3333-0.3333-0.1667  plane waves:     440
 k-point ** :   0.5000-0.3333-0.1667  plane waves:     446
 k-point ** :  -0.3333-0.3333-0.1667  plane waves:     442
 k-point ** :  -0.1667-0.3333-0.1667  plane waves:     436
 k-point ** :   0.0000-0.1667-0.1667  plane waves:     436
 k-point ** :   0.1667-0.1667-0.1667  plane waves:     442
 k-point ** :   0.3333-0.1667-0.1667  plane waves:     434
 k-point ** :   0.5000-0.1667-0.1667  plane waves:     442
 k-point ** :  -0.3333-0.1667-0.1667  plane waves:     436
 k-point ** :  -0.1667-0.1667-0.1667  plane waves:     428

 maximum and minimum number of plane-waves per node :       140       80

 maximum number of plane-waves:       458
 maximum index in each direction:
   IXMAX=    4   IYMAX=    4   IZMAX=    4
   IXMIN=   -4   IYMIN=   -4   IZMIN=   -4

 parallel 3D FFT for wavefunctions:
    minimum data exchange during FFTs selected (reduces bandwidth)
 parallel 3D FFT for charge:
    minimum data exchange during FFTs selected (reduces bandwidth)

 FFT grid for exact exchange (Hartree Fock)
  NGX = 14; NGY = 14; NGZ = 14

 Radii for the augmentation spheres in the non-local exchange
 for species   1 augmentation radius   1.039 (default was   0.831)
       energy cutoff for augmentation   1200.0

 real space projection operators:
  max/ min on nodes  :         43.36         23.83

 Maximum index for augmentation-charges in exchange          208
  SETUP_FOCK is finished

 Broyden mixing: mesh for mixing (old mesh)
   NGX =  9   NGY =  9   NGZ =  9
  (NGX  = 36   NGY  = 36   NGZ  = 36)
  gives a total of    729 points

 charge density for first step will be calculated from the start-wavefunctions

 Maximum index for augmentation-charges         5949 (set IRDMAX)

 initial charge from wavefunction
 First call to EWALD:  gamma=   0.669
 Maximum number of real-space cells 3x 3x 3
 Maximum number of reciprocal cells 3x 3x 3

--------------------------------------- Iteration      1(   1)  ---------------------------------------

 eigenvalue-minimisations  : 12864
 total energy-change (2. order) : 0.3332695E+02  (-0.1990024E+00)
 number of electron       8.0000000 magnetization      -0.0000000      0.0000000      0.0000000
 augmentation part        2.1002893 magnetization      -0.0000000     -0.0000000     -0.0000000

 Free energy of the ion-electron system (eV)
  alpha Z        PSCENC =        16.68370675
  Ewald energy   TEWEN  =      -502.27794943
  -Hartree energ DENC   =      -331.90264988
  -exchange      EXHF   =         0.00000000
  -V(xc)+E(xc)   XCENC  =        34.75324098
  PAW double counting   =       748.30591642     -785.70298302
  entropy T*S    EENTRO =        -0.00000000
  eigenvalues    EBANDS =       -98.50939793
  atomic energy  EATOM  =       951.97706656
  free energy    TOTEN  =        33.32695045 eV

  energy without entropy =       33.32695045  energy(sigma->0) =       33.32695045
  exchange ACFDT corr.  =         0.00000000  see jH, gK, PRB 81, 115126

[...]

 eigenvalue-minimisations  : 13014
 total energy-change (2. order) :-0.4872996E-02  (-0.4872900E-02)
 number of electron       8.0000000 magnetization      -0.0000000      0.0000000      0.0000000
 augmentation part        2.1002893 magnetization      -0.0000000     -0.0000000     -0.0000000

[...]

--------------------------------------- Iteration      1(  21)  ---------------------------------------

 eigenvalue-minimisations  :     0
 total energy-change (2. order) :-0.2630202E-07  (-0.1282264E-07)
 number of electron       8.0000000 magnetization      -0.0000000      0.0000000     -0.0000000
 augmentation part        2.0996375 magnetization      -0.0000000      0.0000000     -0.0000000

 Free energy of the ion-electron system (eV)
  alpha Z        PSCENC =        16.68370675
  Ewald energy   TEWEN  =      -502.27794943
  -Hartree energ DENC   =      -333.98862705
  -exchange      EXHF   =        31.11160927
  -V(xc)+E(xc)   XCENC  =        34.86222575
  PAW double counting   =       753.98370842     -791.32665881
  entropy T*S    EENTRO =        -0.00000000
  eigenvalues    EBANDS =      -158.08849933
  atomic energy  EATOM  =       951.97706656
  free energy    TOTEN  =         2.93650840 eV

  energy without entropy =        2.93650840  energy(sigma->0) =        2.93650840
  exchange ACFDT corr.  =         0.00000000  see jH, gK, PRB 81, 115126

  average scaling for gradient   0.9218

 average (electrostatic) potential at core
  the test charge radii are     0.8311
  (the norm of the test charge is              1.0000)
       1 -64.9292

 E-fermi : -12.3050     XC(G=0):  -5.9679     alpha+bet : -2.5602

 k-point     1 :       0.0000    0.0000    0.0000
  band No.  band energies     occupation
      1     -39.1172      1.00000
      2     -39.1172      1.00000
      3     -13.1132      1.00000
      4     -13.1132      1.00000
      5     -13.0107      1.00000
      6     -13.0107      1.00000
      7     -13.0107      1.00000
      8     -13.0107      1.00000
      9       1.7540      0.00000
     10       1.7540      0.00000
     11      21.6344      0.00000
     12      21.6344      0.00000
     13      21.6346      0.00000
     14      21.6346      0.00000
     15      21.6347      0.00000
     16      21.6347      0.00000
     17      23.6731      0.00000
     18      23.6731      0.00000

[...]

 k-point   216 :      -0.1667   -0.1667   -0.1667
  band No.  band energies     occupation
      1     -39.0670      1.00000
      2     -39.0670      1.00000
      3     -13.1846      1.00000
      4     -13.1846      1.00000
      5     -12.7308      1.00000
      6     -12.7308      1.00000
      7     -12.6704      1.00000
      8     -12.6704      1.00000
      9       2.6947      0.00000
     10       2.6947      0.00000
     11      17.1867      0.00000
     12      17.1867      0.00000
     13      21.4633      0.00000
     14      21.4633      0.00000
     15      21.4650      0.00000
     16      21.4650      0.00000
     17      23.9139      0.00000
     18      23.9139      0.00000

 soft charge-density along one line, spin component           1
         0         1         2         3         4         5         6         7         8         9
 total charge-density along one line

[...]

 soft charge-density along one line, spin component           4
         0         1         2         3         4         5         6         7         8         9
 total charge-density along one line

------------------------ aborting loop because EDIFF is reached ----------------------------------------

  FORCE on cell =-STRESS in cart. coord.  units (eV):
  Direction    XX          YY          ZZ          XY          YZ          ZX
  Alpha Z    16.68371    16.68371    16.68371
  Ewald    -167.42599  -167.42599  -167.42599    -0.00000    -0.00000    -0.00000
  Hartree   111.33018   111.33015   111.33014     0.00003     0.00001     0.00002
  E(xc)     -37.14609   -37.14610   -37.14610     0.00000     0.00000     0.00000
  Local     -80.13171   -80.13167   -80.13166    -0.00003    -0.00001    -0.00002
  n-local   -64.01545   -64.01533   -64.01530    -0.00010    -0.00004    -0.00007
  augment    42.84830    42.84832    42.84829    -0.00002     0.00000    -0.00002
  Kinetic   194.72370   194.72375   194.72377    -0.00005    -0.00002    -0.00003
  Fock      -47.50082   -47.50071   -47.50068    -0.00010    -0.00004    -0.00007
  Total     -30.63417   -30.63387   -30.63383    -0.00027    -0.00010    -0.00020
  in kB   -2638.22639 -2638.20069 -2638.19672    -0.02299    -0.00853    -0.01707

 VOLUME and BASIS-vectors are now :
  energy-cutoff  :      300.00
  volume of cell :       18.60
      direct lattice vectors                 reciprocal lattice vectors
     2.974220868  0.000000000  0.000000000     0.336222508 -0.194118156 -0.137262264
     1.487110434  2.575750828  0.000000000     0.000000000  0.388236311 -0.137262264
     1.487110434  0.858583609  2.428441169     0.000000000  0.000000000  0.411786793

  length of vectors
     2.974220868  2.974220868  2.974220868     0.411786793  0.411786793  0.411786793

 FORCES acting on ions:
    Electron-Ion                     Ewald-Force                    Non-Local-Force
   -.595E-06 -.177E-07 0.428E-06   0.132E-14 -.413E-16 -.172E-15   -.367E-06 -.330E-07 0.265E-06
   0.676E-05 0.886E-05 0.908E-06   0.132E-14 -.413E-16 -.172E-15   -.367E-06 -.330E-07 0.265E-06

 POSITION                                       TOTAL-FORCE (eV/Angst)
      0.00000      0.00000      0.00000         0.000006      0.000009      0.000001
    total drift:                                0.000006      0.000009      0.000001

  FREE ENERGIE OF THE ION-ELECTRON SYSTEM (eV)
  free  energy   TOTEN  =         2.93650840 eV

  energy  without entropy=        2.93650840  energy(sigma->0) =        2.93650840

 writing wavefunctions

 Spin-Orbit-Coupling matrix elements

 Ion:    1  E_soc:     -0.0005596
 l=   1
     0.0000000    -0.0000933    -0.0000933
    -0.0000933     0.0000000    -0.0000933
    -0.0000933    -0.0000933     0.0000000
 l=   2
     0.0000000    -0.0000000     0.0000000    -0.0000000    -0.0000000
    -0.0000000     0.0000000    -0.0000000    -0.0000000    -0.0000000
     0.0000000    -0.0000000     0.0000000    -0.0000000     0.0000000
    -0.0000000    -0.0000000    -0.0000000     0.0000000    -0.0000000
    -0.0000000    -0.0000000     0.0000000    -0.0000000     0.0000000
 l=   3
     0.0000000     0.0000000     0.0000000     0.0000000     0.0000000     0.0000000     0.0000000
     0.0000000     0.0000000     0.0000000     0.0000000     0.0000000     0.0000000     0.0000000
     0.0000000     0.0000000     0.0000000     0.0000000     0.0000000     0.0000000     0.0000000
     0.0000000     0.0000000     0.0000000     0.0000000     0.0000000     0.0000000     0.0000000
     0.0000000     0.0000000     0.0000000     0.0000000     0.0000000     0.0000000     0.0000000
     0.0000000     0.0000000     0.0000000     0.0000000     0.0000000     0.0000000     0.0000000
     0.0000000     0.0000000     0.0000000     0.0000000     0.0000000     0.0000000     0.0000000