 vasp.5.4.4.18Apr17-6-g9f103f2a35 (build Nov 03 2018 10:20:46) complex

 executed on             LinuxIFC date 2018.11.09  12:58:37

 INCAR:
 POTCAR:    PAW Og, JanMewes Oct 18

 POTCAR:    PAW Og, JanMewes Oct 18
   VRHFIN =Og : 10d 2s 6p, PE

   TITEL  = PAW Og, JanMewes Oct 18
   POMASS =    0.010; ZVAL   =   18.000    mass and valenz
   ENMAX  =  339.336; ENMIN  =  254.502 eV
   QCUT   =   -4.994; QGAM   =    9.988    optimization parameters

  PAW Og, JanMewes Oct 18               :

 POSCAR: Og
  positions in direct lattice
  velocities in cartesian coordinates
 exchange correlation table for  LEXCH =        8
   RHO(1)=    0.500       N(1)  =     2000
   RHO(2)=  100.500       N(2)  =     4000

 ion  position               nearest neighbor table
   1  0.000  0.000  0.000-

IMPORTANT INFORMATION: All symmetrisations will be switched off!
NOSYMM: (Re-)initialisation of all symmetry stuff for point group C_1.

 KPOINTS: k-points

Automatic generation of k-mesh.
Space group operators:
 irot       det(A)        alpha          n_x          n_y          n_z        tau_x        tau_y        tau_z
    1     1.000000     0.000000     1.000000     0.000000     0.000000     0.000000     0.000000     0.000000

 Subroutine IBZKPT returns following result:

 Found     64 irreducible k-points:

 Following reciprocal coordinates:
            Coordinates               Weight
  0.000000  0.000000  0.000000      1.000000
  0.250000 -0.000000  0.000000      1.000000
  0.500000 -0.000000  0.000000      1.000000
 -0.250000  0.000000 -0.000000      1.000000
  0.000000  0.250000  0.000000      1.000000
  0.250000  0.250000  0.000000      1.000000
  0.500000  0.250000  0.000000      1.000000
 -0.250000  0.250000 -0.000000      1.000000
  0.000000  0.500000  0.000000      1.000000
  0.250000  0.500000  0.000000      1.000000
  0.500000  0.500000  0.000000      1.000000
 -0.250000  0.500000 -0.000000      1.000000
 -0.000000 -0.250000  0.000000      1.000000
  0.250000 -0.250000  0.000000      1.000000
  0.500000 -0.250000  0.000000      1.000000
 -0.250000 -0.250000 -0.000000      1.000000
  0.000000  0.000000  0.250000      1.000000
  0.250000 -0.000000  0.250000      1.000000
  0.500000 -0.000000  0.250000      1.000000
 -0.250000  0.000000  0.250000      1.000000
  0.000000  0.250000  0.250000      1.000000
  0.250000  0.250000  0.250000      1.000000
  0.500000  0.250000  0.250000      1.000000
 -0.250000  0.250000  0.250000      1.000000
 -0.000000  0.500000  0.250000      1.000000
  0.250000  0.500000  0.250000      1.000000
  0.500000  0.500000  0.250000      1.000000
 -0.250000  0.500000  0.250000      1.000000
 -0.000000 -0.250000  0.250000      1.000000
  0.250000 -0.250000  0.250000      1.000000
  0.500000 -0.250000  0.250000      1.000000
 -0.250000 -0.250000  0.250000      1.000000
  0.000000  0.000000  0.500000      1.000000
  0.250000 -0.000000  0.500000      1.000000
  0.500000 -0.000000  0.500000      1.000000
 -0.250000  0.000000  0.500000      1.000000
  0.000000  0.250000  0.500000      1.000000
  0.250000  0.250000  0.500000      1.000000
  0.500000  0.250000  0.500000      1.000000
 -0.250000  0.250000  0.500000      1.000000
  0.000000  0.500000  0.500000      1.000000
  0.250000  0.500000  0.500000      1.000000
  0.500000  0.500000  0.500000      1.000000
 -0.250000  0.500000  0.500000      1.000000
  0.000000 -0.250000  0.500000      1.000000
  0.250000 -0.250000  0.500000      1.000000
  0.500000 -0.250000  0.500000      1.000000
 -0.250000 -0.250000  0.500000      1.000000
  0.000000  0.000000 -0.250000      1.000000
  0.250000 -0.000000 -0.250000      1.000000
  0.500000 -0.000000 -0.250000      1.000000
 -0.250000  0.000000 -0.250000      1.000000
  0.000000  0.250000 -0.250000      1.000000
  0.250000  0.250000 -0.250000      1.000000
  0.500000  0.250000 -0.250000      1.000000
 -0.250000  0.250000 -0.250000      1.000000
  0.000000  0.500000 -0.250000      1.000000
  0.250000  0.500000 -0.250000      1.000000
  0.500000  0.500000 -0.250000      1.000000
 -0.250000  0.500000 -0.250000      1.000000
  0.000000 -0.250000 -0.250000      1.000000
  0.250000 -0.250000 -0.250000      1.000000
  0.500000 -0.250000 -0.250000      1.000000
 -0.250000 -0.250000 -0.250000      1.000000

 Following cartesian coordinates:
            Coordinates               Weight
  0.000000  0.000000  0.000000      1.000000
  0.057530 -0.033215 -0.023486      1.000000
  0.115060 -0.066430 -0.046973      1.000000
 -0.057530  0.033215  0.023486      1.000000
 -0.000000  0.066430 -0.023486      1.000000
  0.057530  0.033215 -0.046973      1.000000
  0.115060 -0.000000 -0.070459      1.000000
 -0.057530  0.099644  0.000000      1.000000
 -0.000000  0.132859 -0.046973      1.000000
  0.057530  0.099644 -0.070459      1.000000
  0.115060  0.066430 -0.093946      1.000000
 -0.057530  0.166074 -0.023486      1.000000
  0.000000 -0.066430  0.023486      1.000000
  0.057530 -0.099644 -0.000000      1.000000
  0.115060 -0.132859 -0.023486      1.000000
 -0.057530 -0.033215  0.046973      1.000000
  0.000000  0.000000  0.070459      1.000000
  0.057530 -0.033215  0.046973      1.000000
  0.115060 -0.066430  0.023486      1.000000
 -0.057530  0.033215  0.093946      1.000000
 -0.000000  0.066430  0.046973      1.000000
  0.057530  0.033215  0.023486      1.000000
  0.115060  0.000000 -0.000000      1.000000
 -0.057530  0.099645  0.070459      1.000000
 -0.000000  0.132859  0.023486      1.000000
  0.057530  0.099644  0.000000      1.000000
  0.115060  0.066430 -0.023486      1.000000
 -0.057530  0.166074  0.046973      1.000000
  0.000000 -0.066430  0.093946      1.000000
  0.057530 -0.099644  0.070459      1.000000
  0.115060 -0.132859  0.046973      1.000000
 -0.057530 -0.033215  0.117432      1.000000
  0.000000  0.000000  0.140919      1.000000
  0.057530 -0.033215  0.117432      1.000000
  0.115060 -0.066430  0.093946      1.000000
 -0.057530  0.033215  0.164405      1.000000
 -0.000000  0.066430  0.117432      1.000000
  0.057530  0.033215  0.093946      1.000000
  0.115060  0.000000  0.070459      1.000000
 -0.057530  0.099645  0.140919      1.000000
 -0.000000  0.132859  0.093946      1.000000
  0.057530  0.099645  0.070459      1.000000
  0.115060  0.066430  0.046973      1.000000
 -0.057530  0.166074  0.117432      1.000000
  0.000000 -0.066430  0.164405      1.000000
  0.057530 -0.099644  0.140919      1.000000
  0.115060 -0.132859  0.117432      1.000000
 -0.057530 -0.033215  0.187892      1.000000
 -0.000000 -0.000000 -0.070459      1.000000
  0.057530 -0.033215 -0.093946      1.000000
  0.115060 -0.066430 -0.117432      1.000000
 -0.057530  0.033215 -0.046973      1.000000
 -0.000000  0.066430 -0.093946      1.000000
  0.057530  0.033215 -0.117432      1.000000
  0.115060 -0.000000 -0.140919      1.000000
 -0.057530  0.099644 -0.070459      1.000000
 -0.000000  0.132859 -0.117432      1.000000
  0.057530  0.099644 -0.140919      1.000000
  0.115060  0.066430 -0.164405      1.000000
 -0.057530  0.166074 -0.093946      1.000000
  0.000000 -0.066430 -0.046973      1.000000
  0.057530 -0.099645 -0.070459      1.000000
  0.115060 -0.132859 -0.093946      1.000000
 -0.057530 -0.033215 -0.023486      1.000000

 SYSTEM =  Og_FCC
 POSCAR =  Og

 Startparameter for this run:
   NWRITE =      2    write-flag & timer
   PREC   = accura    normal or accurate (medium, high low for compatibility)
   ISTART =      1    job   : 0-new  1-cont  2-samecut
   ICHARG =      0    charge: 1-file 2-atom 10-const
   ISPIN  =      1    spin polarized calculation?
   LNONCOLLINEAR =      T non collinear calculations
   LSORBIT =      T    spin-orbit coupling
   INIWAV =      1    electr: 0-lowe 1-rand  2-diag
   LASPH  =      F    aspherical Exc in radial PAW
   METAGGA=      F    non-selfconsistent MetaGGA calc.

 Electronic Relaxation 1
   ENCUT  =  400.0 eV  29.40 Ry    5.42 a.u.   7.09  7.09  7.09*2*pi/ulx,y,z
   ENINI  =  400.0     initial cutoff
   ENAUG  =  361.0 eV  augmentation charge cutoff
   NELM   =     50;   NELMIN=  2; NELMDL= -5     # of ELM steps
   EDIFF  = 0.1E-07   stopping-criterion for ELM
   LREAL  =      F    real-space projection
   NLSPLINE    = F    spline interpolate recip. space projectors
   LCOMPAT=      F    compatible to vasp.4.4
   GGA_COMPAT  = F    GGA compatible to vasp.4.4-vasp.4.6
   LMAXPAW     = -100 max onsite density
   LMAXMIX     =    2 max onsite mixed and CHGCAR
   VOSKOWN=      0    Vosko Wilk Nusair interpolation
   ROPT   =    0.00000
 Ionic relaxation
   EDIFFG = 0.1E-04   stopping-criterion for IOM
   NSW    =      1    number of steps for IOM
   NBLOCK =      1;   KBLOCK =      1    inner block; outer block
   IBRION =     -1    ionic relax: 0-MD 1-quasi-New 2-CG
   NFREE  =      5    steps in history (QN), initial steepest desc. (CG)
   ISIF   =      3    stress and relaxation
   IWAVPR =     10    prediction:  0-non 1-charg 2-wave 3-comb
   ISYM   =      0    0-nonsym 1-usesym 2-fastsym
   LCORR  =      T    Harris-Foulkes like correction to forces

   POTIM  = 0.1000    time-step for ionic-motion
   TEIN   =    0.0    initial temperature
   TEBEG  =    0.0;   TEEND  =   0.0 temperature during run
   SMASS  =  -3.00    Nose mass-parameter (am)
   estimated Nose-frequenzy (Omega)   =  0.10E-29 period in steps =****** mass=  -0.432E-27a.u.
   SCALEE = 1.0000    scale energy and forces
   NPACO  =    256;   APACO  = 16.0  distance and # of slots for P.C.
   PSTRESS=    0.0 pullay stress

  Mass of Ions in am
   POMASS =   0.01
  Ionic Valenz
   ZVAL   =  18.00
  Atomic Wigner-Seitz radii
  virtual crystal weights
   VCA    =   1.00
   NELECT =      18.0000    total number of electrons
   NUPDOWN=      -1.0000    fix difference up-down

 DOS related values:
   EMIN   =  10.00;   EMAX   =-10.00  energy-range for DOS
   EFERMI =   0.00
   ISMEAR =     0;   SIGMA  =   0.00  broadening in eV -4-tet -1-fermi 0-gaus

 Electronic relaxation 2 (details)
   IALGO  =     90    algorithm
   LDIAG  =      T    sub-space diagonalisation (order eigenvalues)
   LSUBROT=      F    optimize rotation matrix (better conditioning)
   TURBO    =      0    0=normal 1=particle mesh
   IRESTART =      0    0=no restart 2=restart with 2 vectors
   NREBOOT  =      0    no. of reboots
   NMIN     =      0    reboot dimension
   EREF     =   0.00    reference energy to select bands
   IMIX   =      4    mixing-type and parameters
     AMIX     =   0.40;   BMIX     =  1.00
     AMIX_MAG =   1.60;   BMIX_MAG =  1.00
     AMIN     =   0.10
     WC   =   100.;   INIMIX=   1;  MIXPRE=   1;  MAXMIX=  50

 Intra band minimization:
   WEIMIN = 0.0000     energy-eigenvalue tresh-hold
   EBREAK =  0.39E-10  absolut break condition
   DEPER  =   0.30     relativ break condition

   TIME   =   0.40     timestep for ELM

  volume/ion in A,a.u.               =      58.03       391.58
  Fermi-wavevector in a.u.,A,eV,Ry     =   1.108214  2.094220 16.709821  1.228137
  Thomas-Fermi vector in A             =   2.244738

 Write flags
   LWAVE        =      T    write WAVECAR
   LDOWNSAMPLE  =      F    k-point downsampling of WAVECAR
   LCHARG       =      F    write CHGCAR
[...]
   35.974241    0.960545    0.960233    0.960294    0.000076   -0.001503    0.000082
   36.708409    1.070692    1.071294    1.071517    0.000027   -0.000177    0.000009
   37.442577    1.089634    1.089572    1.089598   -0.000045    0.000393   -0.000057
   38.176745    1.264593    1.264199    1.264261   -0.000059    0.000295   -0.000059
   38.910913    0.731934    0.731918    0.730917    0.000103   -0.001843    0.000064
   39.645082    0.957529    0.957556    0.957579   -0.000010   -0.000022   -0.000000
   40.379250    1.266028    1.266048    1.266175   -0.000015    0.000323   -0.000032
   41.113418    1.540819    1.540969    1.541001    0.000008    0.000011    0.000009
   41.847586    1.455808    1.454705    1.455226   -0.000504    0.007924   -0.000620
   42.581754    0.873457    0.875816    0.876045   -0.000015    0.001318   -0.000047
   43.315923    0.685202    0.687475    0.688004   -0.000111   -0.000411   -0.000110
[...]
   62.404295    0.788659    0.788680    0.788698    0.000004   -0.000027    0.000002
   63.138463    0.801240    0.801261    0.801279    0.000003   -0.000026    0.000002
   63.872632    0.811752    0.811772    0.811789    0.000003   -0.000026    0.000002
   64.606800    0.820880    0.820900    0.820916    0.000003   -0.000025    0.000002
   65.340968    0.828979    0.828998    0.829015    0.000003   -0.000025    0.000002
   66.075136    0.836267    0.836285    0.836301    0.000003   -0.000024    0.000002
   66.809304    0.842891    0.842909    0.842925    0.000003   -0.000024    0.000002
   67.543472    0.848960    0.848978    0.848993    0.000003   -0.000023    0.000002
   68.277641    0.854554    0.854572    0.854587    0.000003   -0.000023    0.000001
   69.011809    0.859738    0.859755    0.859769    0.000003   -0.000022    0.000001
   69.745977    0.864561    0.864578    0.864593    0.000003   -0.000022    0.000001
   70.480145    0.869067    0.869084    0.869098    0.000003   -0.000021    0.000001
   71.214313    0.873290    0.873306    0.873320    0.000003   -0.000021    0.000001
   71.948482    0.877258    0.877274    0.877288    0.000003   -0.000020    0.000001
   72.682650    0.880997    0.881013    0.881026    0.000003   -0.000020    0.000001

  frequency dependent IMAGINARY DIELECTRIC FUNCTION (independent particle, no local field effects) current-current (2nd set in vasprun.xml)
     E(ev)      X         Y         Z        XY        YZ        ZX
    0.000000  743.752736  743.817884  743.918305   -9.112917  188.324428   -9.108299
    0.734168    2.803058    2.814059    2.818240    0.170285   -3.547019    0.169699
    1.468336    1.506678    1.524461    1.530720    0.022848   -0.498342    0.021880
    2.202505    7.034591    7.626371    7.813576    0.062994   -0.670924    0.036671
    2.936673    8.278352    8.081162    7.914509   -0.008840    0.116566   -0.000555
    3.670841    2.165555    2.164264    2.163307    0.008354   -0.136741    0.009439
    4.405009    3.734844    3.734504    3.734369    0.002567   -0.045953    0.002798
    5.139177   11.629911   11.630160   11.630227    0.002288   -0.037001    0.002549
    5.873345    1.904078    1.903706    1.905173    0.005956   -0.065229    0.007128
    6.607514    4.044301    4.052236    4.056099    0.007874   -0.073679    0.009131
    7.341682    4.354415    4.355775    4.355334   -0.006613    0.083742   -0.008075
    8.075850    3.039664    3.039528    3.039417    0.001116   -0.009202    0.001527
    8.810018    1.083281    1.084519    1.082471    0.000428    0.000205    0.000576
    9.544186    2.517792    2.431982    2.399036   -0.011427    0.061930   -0.007327
   10.278355    0.463615    0.465251    0.465086    0.002288   -0.035184    0.002603
   11.012523    0.941834    0.941982    0.942045   -0.000698    0.013088   -0.000795
   11.746691    0.366008    0.366165    0.366167   -0.000443    0.007701   -0.000480
   12.480859    0.363296    0.362182    0.362191   -0.000229    0.002644   -0.000210
   13.215027    0.649971    0.643961    0.641010   -0.002887    0.010152   -0.002032
   13.949195    0.461655    0.461727    0.461487   -0.000006    0.001077    0.000046
   14.683364    0.932322    0.929557    0.930300   -0.000263    0.000071   -0.000279
   15.417532    0.360487    0.360254    0.360282   -0.000095   -0.002200   -0.000089
   16.151700    1.297824    1.297153    1.294207   -0.002308    0.033665   -0.002069
   16.885868    0.604372    0.602906    0.603529    0.000030   -0.001577    0.000107
   17.620036    1.915251    1.900763    1.900270   -0.001773    0.002929   -0.001476
   18.354204    0.282632    0.282150    0.282849    0.000057   -0.000579   -0.000002
   19.088373    0.576654    0.576655    0.576618   -0.000003    0.000694    0.000003
   19.822541    0.391479    0.391084    0.391224   -0.000031   -0.000282   -0.000009
   20.556709    0.081352    0.081233    0.081149   -0.000080    0.001269   -0.000064
   21.290877    0.126888    0.126864    0.126882   -0.000064    0.001495   -0.000077
   22.025045    0.337908    0.338426    0.338150   -0.000192    0.002909   -0.000255
   22.759214    0.261254    0.261307    0.261317   -0.000125    0.002418   -0.000129
   23.493382    0.161249    0.161146    0.161115    0.000331   -0.004699    0.000439
   24.227550    0.852174    0.851679    0.851515    0.000543   -0.013026    0.000582
   24.961718    0.430865    0.429094    0.429864    0.000282   -0.004106    0.000143
   25.695886    0.241584    0.240856    0.241343    0.000120   -0.002830    0.000124
   26.430054    0.189240    0.185459    0.185349   -0.000266   -0.003384   -0.000076
   27.164223    0.248694    0.250954    0.251363    0.000519   -0.003415    0.000389
   27.898391    0.093604    0.093535    0.093531   -0.000182    0.003609   -0.000169
   28.632559    0.048934    0.048930    0.048931   -0.000018    0.000480   -0.000018
   29.366727    0.104335    0.104088    0.104129   -0.000014    0.000165    0.000011
   30.100895    0.183275    0.183334    0.183468    0.000037   -0.000215    0.000024
   30.835064    0.092861    0.093032    0.093038    0.000020   -0.000254    0.000025
   31.569232    0.136478    0.136259    0.136177    0.000014   -0.000261    0.000023
   32.303400    0.175824    0.175562    0.175407   -0.000004   -0.000388    0.000034
   33.037568    0.083772    0.083767    0.083775    0.000032   -0.000461    0.000047
   33.771736    0.214147    0.215148    0.214947    0.000141   -0.000870    0.000185
   34.505904    0.115111    0.115101    0.115096    0.000035   -0.000495    0.000042
   35.240073    0.196151    0.196386    0.196426    0.000057   -0.000370    0.000059
   35.974241    0.080174    0.079634    0.079649   -0.000017   -0.000226   -0.000002
   36.708409    0.114781    0.115364    0.115448    0.000070   -0.000642    0.000062
   37.442577    0.200840    0.200840    0.200855   -0.000059    0.000507   -0.000078
   38.176745    0.105472    0.104963    0.105006   -0.000003   -0.000264   -0.000023
   38.910913    0.585174    0.585265    0.584695   -0.000115    0.003472    0.000074
   39.645082    0.065130    0.065313    0.065339   -0.000018    0.000356   -0.000027
   40.379250    0.105988    0.106015    0.105946   -0.000013   -0.000133   -0.000004
   41.113418    0.450350    0.450376    0.450375    0.000010   -0.000315    0.000004
   41.847586    0.773708    0.774728    0.774349   -0.000646    0.011825   -0.000757
   42.581754    0.464580    0.468096    0.468880    0.000288   -0.003741    0.000263
   43.315923    0.441600    0.440387    0.440081    0.000063   -0.000284   -0.000008
[...]
   62.404295    0.001238    0.001238    0.001238   -0.000000    0.000005   -0.000001
   63.138463    0.000922    0.000922    0.000922   -0.000000    0.000003   -0.000000
   63.872632    0.000738    0.000738    0.000738   -0.000000    0.000002   -0.000000
   64.606800    0.000613    0.000613    0.000613   -0.000000    0.000002   -0.000000
   65.340968    0.000521    0.000521    0.000521   -0.000000    0.000001   -0.000000
   66.075136    0.000449    0.000449    0.000449   -0.000000    0.000001   -0.000000
   66.809304    0.000392    0.000392    0.000392   -0.000000    0.000000   -0.000000
   67.543472    0.000345    0.000345    0.000345   -0.000000    0.000000   -0.000000
   68.277641    0.000307    0.000307    0.000307   -0.000000   -0.000000   -0.000000
   69.011809    0.000274    0.000274    0.000274   -0.000000   -0.000000   -0.000000
   69.745977    0.000246    0.000246    0.000246   -0.000000   -0.000000   -0.000000
   70.480145    0.000222    0.000222    0.000222   -0.000000   -0.000001   -0.000000
   71.214313    0.000201    0.000201    0.000201   -0.000000   -0.000001   -0.000000
   71.948482    0.000183    0.000183    0.000183   -0.000000   -0.000001   -0.000000
   72.682650    0.000167    0.000167    0.000167   -0.000000   -0.000001   -0.000000

  frequency dependent      REAL DIELECTRIC FUNCTION (independent particle, no local field effects) current-current (2nd set in vasprun.xml)
     E(ev)        X           Y           Z          XY          YZ          ZX
    0.000000   67.148665   67.176535   67.193314    4.513654  -93.247873    4.509365
    0.734168  -20.851651  -20.816964  -20.806932   -0.164913    3.458006   -0.166177
    1.468336    2.534521    2.597296    2.619383   -0.041170    0.957271   -0.043552
    2.202505   14.489747   14.852865   14.974565    0.022338    0.694724    0.013818
    2.936673   -5.997607   -5.947696   -5.929062    0.016015    0.116759    0.023499
    3.670841    4.887683    4.893565    4.897055   -0.016653    0.302257   -0.018145
    4.405009    6.390054    6.389583    6.389770   -0.005173    0.107424   -0.005175
    5.139177   -8.106211   -8.107677   -8.107704   -0.003712    0.078628   -0.003714
    5.873345   -1.314815   -1.316499   -1.314460   -0.007953    0.118356   -0.010014
    6.607514   -2.520651   -2.520514   -2.517872   -0.001693    0.057987   -0.003006
    7.341682    0.490019    0.490458    0.490614    0.022480   -0.211396    0.029241
    8.075850   -4.093889   -4.095649   -4.096310   -0.001619    0.033182   -0.001478
    8.810018    0.478698    0.475966    0.473497   -0.001584    0.028049   -0.001311
    9.544186   -0.671147   -0.556755   -0.510940    0.014878   -0.019147    0.008816
   10.278355   -0.832686   -0.837560   -0.838207   -0.002769    0.043692   -0.002833
   11.012523    0.366071    0.364102    0.363755    0.000710   -0.009329    0.000863
   11.746691   -0.294734   -0.296190   -0.296430   -0.001015    0.018074   -0.001013
   12.480859    0.256417    0.253622    0.253416   -0.000979    0.014897   -0.000981
   13.215027    0.402248    0.410000    0.414079    0.002848    0.011257    0.001170
   13.949195    0.463026    0.462423    0.462434   -0.000686    0.011718   -0.000666
   14.683364    0.332494    0.332172    0.332082   -0.000171    0.006161   -0.000031
   15.417532    0.626019    0.626234    0.626282   -0.000744    0.011713   -0.000878
   16.151700    0.247908    0.247006    0.242943    0.000396   -0.006872    0.000889
   16.885868    1.057484    1.060817    1.060725    0.000160    0.005409    0.000245
   17.620036   -0.093206   -0.092990   -0.092930   -0.000322    0.006293   -0.000607
   18.354204    0.090062    0.090736    0.089708   -0.000397    0.007685   -0.000324
   19.088373    0.558463    0.558463    0.558373   -0.000293    0.006373   -0.000300
   19.822541    0.130502    0.130668    0.130490   -0.000133    0.004994   -0.000110
   20.556709    0.562810    0.562427    0.562403   -0.000265    0.004998   -0.000263
   21.290877    0.639658    0.639322    0.639314   -0.000240    0.004665   -0.000226
   22.025045    0.763234    0.762683    0.762803   -0.000223    0.005597   -0.000284
   22.759214    0.760700    0.760380    0.760333   -0.000177    0.003600   -0.000158
   23.493382    0.824374    0.824114    0.824037    0.000257   -0.003213    0.000333
   24.227550    0.817461    0.817144    0.817001    0.000625   -0.013854    0.000640
   24.961718    0.656662    0.656029    0.655754   -0.000308    0.006872   -0.000155
   25.695886    0.851191    0.849830    0.849398   -0.000303    0.003202   -0.000252
   26.430054    0.705680    0.708087    0.707787   -0.000024    0.005636   -0.000042
   27.164223    0.895684    0.896278    0.896183   -0.000610    0.006207   -0.000842
   27.898391    0.645834    0.646183    0.646147   -0.000248    0.005777   -0.000254
   28.632559    0.905094    0.905260    0.905225   -0.000123    0.002794   -0.000124
   29.366727    0.831612    0.832072    0.831995   -0.000091    0.002938   -0.000073
   30.100895    0.987560    0.987691    0.987752   -0.000104    0.002554   -0.000116
   30.835064    0.859274    0.859559    0.859625   -0.000084    0.002090   -0.000087
   31.569232    0.889878    0.890191    0.890247   -0.000078    0.001895   -0.000083
   32.303400    1.008250    1.008260    1.008214   -0.000174    0.003248   -0.000195
   33.037568    0.994720    0.994679    0.994654   -0.000075    0.001658   -0.000066
   33.771736    1.008022    1.009390    1.009092   -0.000080    0.002903   -0.000090
   34.505904    0.961515    0.961437    0.961420   -0.000060    0.001371   -0.000056
   35.240073    1.003120    1.002929    1.002902   -0.000148    0.002287   -0.000165
   35.974241    0.961094    0.960695    0.960682   -0.000018    0.000288   -0.000006
   36.708409    1.071014    1.071541    1.071691   -0.000064    0.001541   -0.000075
   37.442577    1.089466    1.089330    1.089287   -0.000131    0.002036   -0.000137
   38.176745    1.264988    1.264515    1.264512   -0.000143    0.001881   -0.000138
   38.910913    0.729505    0.729430    0.728365    0.000023   -0.000321   -0.000010
   39.645082    0.958085    0.958057    0.958018   -0.000087    0.001444   -0.000071
   40.379250    1.266366    1.266331    1.266399   -0.000088    0.001740   -0.000100
   41.113418    1.539461    1.539559    1.539534   -0.000063    0.001370   -0.000057
   41.847586    1.452272    1.451119    1.451587   -0.000572    0.009238   -0.000683
   42.581754    0.871985    0.874305    0.874485   -0.000083    0.002604   -0.000110
   43.315923    0.683998    0.686207    0.686685   -0.000176    0.000837   -0.000171
[...]
   62.404295    0.789019    0.789013    0.789007   -0.000028    0.000566   -0.000027
   63.138463    0.801593    0.801588    0.801581   -0.000027    0.000553   -0.000026
   63.872632    0.812096    0.812091    0.812085   -0.000026    0.000540   -0.000026
   64.606800    0.821217    0.821212    0.821206   -0.000026    0.000528   -0.000025
   65.340968    0.829309    0.829304    0.829298   -0.000025    0.000516   -0.000025
   66.075136    0.836589    0.836584    0.836578   -0.000025    0.000505   -0.000024
   66.809304    0.843206    0.843202    0.843196   -0.000024    0.000493   -0.000024
   67.543472    0.849268    0.849264    0.849258   -0.000023    0.000483   -0.000023
   68.277641    0.854856    0.854851    0.854846   -0.000023    0.000472   -0.000023
   69.011809    0.860033    0.860028    0.860023   -0.000023    0.000462   -0.000022
   69.745977    0.864851    0.864846    0.864841   -0.000022    0.000453   -0.000022
   70.480145    0.869351    0.869346    0.869341   -0.000022    0.000443   -0.000021
   71.214313    0.873567    0.873563    0.873558   -0.000021    0.000434   -0.000021
   71.948482    0.877530    0.877526    0.877521   -0.000021    0.000425   -0.000020
   72.682650    0.881264    0.881259    0.881254   -0.000020    0.000417   -0.000020

 The outermost node in the dielectric function lies at epsilon=  18.4

 Spin-Orbit-Coupling matrix elements

 Ion:    1  E_soc:    -32.9986777
 l=   1
     0.0000000    -5.0782639    -5.0782603
    -5.0782639     0.0000000    -5.0782650
    -5.0782603    -5.0782650     0.0000000
 l=   2
     0.0000000    -0.0843082     0.0000000    -0.0843082    -0.3372000
    -0.0843082     0.0000000    -0.2529000    -0.0843165    -0.0843083
     0.0000000    -0.2529000     0.0000000    -0.2529000     0.0000000
    -0.0843082    -0.0843165    -0.2529000     0.0000000    -0.0843083
    -0.3372000    -0.0843083     0.0000000    -0.0843083     0.0000000
 l=   3
     0.0000000     0.0000000     0.0000000     0.0000000     0.0000000     0.0000000     0.0000000
     0.0000000     0.0000000     0.0000000     0.0000000     0.0000000     0.0000000     0.0000000
     0.0000000     0.0000000     0.0000000     0.0000000     0.0000000     0.0000000     0.0000000
     0.0000000     0.0000000     0.0000000     0.0000000     0.0000000     0.0000000     0.0000000
     0.0000000     0.0000000     0.0000000     0.0000000     0.0000000     0.0000000     0.0000000
     0.0000000     0.0000000     0.0000000     0.0000000     0.0000000     0.0000000     0.0000000
     0.0000000     0.0000000     0.0000000     0.0000000     0.0000000     0.0000000     0.0000000