 vasp.5.4.4.18Apr17-6-g9f103f2a35 (build Nov 03 2018 10:20:46) complex

 executed on             LinuxIFC date 2018.12.03  16:47:29

 INCAR:
 POTCAR:    PAW Og, JanMewes Oct 18

 POTCAR:    PAW Og, JanMewes Oct 18
   VRHFIN =Og : 10d 2s 6p, PE

   TITEL  = PAW Og, JanMewes Oct 18
   POMASS =    0.010; ZVAL   =   18.000    mass and valenz
   ENMAX  =  339.336; ENMIN  =  254.502 eV
   QCUT   =   -4.994; QGAM   =    9.988    optimization parameters

  PAW Og, JanMewes Oct 18               :

 POSCAR: Og_FCC
  positions in direct lattice
  velocities in cartesian coordinates
 exchange correlation table for  LEXCH =        8
   RHO(1)=    0.500       N(1)  =     2000
   RHO(2)=  100.500       N(2)  =     4000

 ion  position               nearest neighbor table
   1  0.000  0.000  0.000-

  LATTYP: Found a face centered cubic cell.
 ALAT       =     6.4585733222

  Lattice vectors:

 A1 = (   4.5669009929,   0.0000000000,   0.0000000000)
 A2 = (   2.2834504964,   3.9550522763,  -0.0000000000)
 A3 = (   2.2834504964,   1.3183507588,   3.7288590462)

Analysis of symmetry for initial positions (statically):
 Subroutine PRICEL returns:
 Original cell was already a primitive cell.

 Routine SETGRP: Setting up the symmetry group for a
 face centered cubic supercell.

 Subroutine GETGRP returns: Found 48 space group operations
 (whereof 48 operations were pure point group operations)
 out of a pool of 48 trial point group operations.

The static configuration has the point symmetry O_h .

Analysis of symmetry for dynamics (positions and initial velocities):
 Subroutine PRICEL returns:
 Original cell was already a primitive cell.

[...]

The dynamic configuration has the point symmetry O_h .

Analysis of structural, dynamic, and magnetic symmetry:
 Subroutine PRICEL returns:
 Original cell was already a primitive cell.

 Routine SETGRP: Setting up the symmetry group for a
 face centered cubic supercell.

 Subroutine GETGRP returns: Found  2 space group operations
 (whereof  2 operations were pure point group operations)
 out of a pool of 48 trial point group operations.

The (compounded) configuration has the point symmetry S_2 .

 Subroutine INISYM returns: Found  2 space group operations
 (whereof  2 operations are pure point group operations),
 and found     1 'primitive' translations

Automatic generation of k-mesh.
 generate k-points for:    9    9    9
Space group operators:
 irot       det(A)        alpha          n_x          n_y          n_z        tau_x        tau_y        tau_z
    1     1.000000     0.000001     1.000000     0.000000     0.000000     0.000000     0.000000     0.000000
    2    -1.000000     0.000001     1.000000     0.000000     0.000000     0.000000     0.000000     0.000000

 Subroutine IBZKPT returns following result:

 Found    365 irreducible k-points:

 Following reciprocal coordinates:
            Coordinates               Weight
  0.000000  0.000000  0.000000      1.000000
  0.111111 -0.000000 -0.000000      2.000000
  0.222222 -0.000000 -0.000000      2.000000
  0.333333  0.000000  0.000000      2.000000
  0.444444 -0.000000 -0.000000      2.000000
 -0.000000  0.111111 -0.000000      2.000000
  0.111111  0.111111 -0.000000      2.000000
  0.222222  0.111111 -0.000000      2.000000
  0.333333  0.111111  0.000000      2.000000
  0.444444  0.111111 -0.000000      2.000000
 -0.444444  0.111111  0.000000      2.000000
 -0.333333  0.111111 -0.000000      2.000000
 -0.222222  0.111111  0.000000      2.000000
 -0.111111  0.111111 -0.000000      2.000000
 -0.000000  0.222222 -0.000000      2.000000
  0.111111  0.222222 -0.000000      2.000000
  0.222222  0.222222  0.000000      2.000000
  0.333333  0.222222  0.000000      2.000000
  0.444444  0.222222 -0.000000      2.000000
 -0.444444  0.222222  0.000000      2.000000
 -0.333333  0.222222 -0.000000      2.000000
 -0.222222  0.222222 -0.000000      2.000000
 -0.111111  0.222222  0.000000      2.000000
  0.000000  0.333333  0.000000      2.000000
  0.111111  0.333333 -0.000000      2.000000
  0.222222  0.333333 -0.000000      2.000000
  0.333333  0.333333  0.000000      2.000000
  0.444444  0.333333  0.000000      2.000000
 -0.444444  0.333333  0.000000      2.000000
 -0.333333  0.333333 -0.000000      2.000000
 -0.222222  0.333333  0.000000      2.000000
 -0.111111  0.333333  0.000000      2.000000
 -0.000000  0.444444 -0.000000      2.000000
  0.111111  0.444444 -0.000000      2.000000
  0.222222  0.444444 -0.000000      2.000000
  0.333333  0.444444  0.000000      2.000000
  0.444444  0.444444  0.000000      2.000000
 -0.444444  0.444444 -0.000000      2.000000
 -0.333333  0.444444 -0.000000      2.000000
 -0.222222  0.444444  0.000000      2.000000
 -0.111111  0.444444 -0.000000      2.000000
 -0.000000 -0.000000  0.111111      2.000000
  0.111111  0.000000  0.111111      2.000000
  0.222222 -0.000000  0.111111      2.000000
  0.333333  0.000000  0.111111      2.000000
  0.444444 -0.000000  0.111111      2.000000
 -0.444444  0.000000  0.111111      2.000000
 -0.333333 -0.000000  0.111111      2.000000
 -0.222222  0.000000  0.111111      2.000000
 -0.111111  0.000000  0.111111      2.000000
 -0.000000  0.111111  0.111111      2.000000
  0.111111  0.111111  0.111111      2.000000
  0.222222  0.111111  0.111111      2.000000
  0.333333  0.111111  0.111111      2.000000
  0.444444  0.111111  0.111111      2.000000
 -0.444444  0.111111  0.111111      2.000000
 -0.333333  0.111111  0.111111      2.000000
 -0.222222  0.111111  0.111111      2.000000
 -0.111111  0.111111  0.111111      2.000000
 -0.000000  0.222222  0.111111      2.000000
[...]
  0.333333 -0.222222  0.444444      2.000000
  0.444444 -0.222222  0.444444      2.000000
 -0.444444 -0.222222  0.444444      2.000000
 -0.333333 -0.222222  0.444444      2.000000
 -0.222222 -0.222222  0.444444      2.000000
 -0.111111 -0.222222  0.444444      2.000000
  0.000000 -0.111111  0.444444      2.000000
  0.111111 -0.111111  0.444444      2.000000
  0.222222 -0.111111  0.444444      2.000000
  0.333333 -0.111111  0.444444      2.000000
  0.444444 -0.111111  0.444444      2.000000
 -0.444444 -0.111111  0.444444      2.000000
 -0.333333 -0.111111  0.444444      2.000000
 -0.222222 -0.111111  0.444444      2.000000
 -0.111111 -0.111111  0.444444      2.000000

 Following cartesian coordinates:
            Coordinates               Weight
  0.000000  0.000000  0.000000      1.000000
  0.024330 -0.014047 -0.009933      2.000000
  0.048659 -0.028093 -0.019865      2.000000
  0.072989 -0.042140 -0.029798      2.000000
  0.097319 -0.056187 -0.039730      2.000000
  0.000000  0.028093 -0.009933      2.000000
  0.024330  0.014047 -0.019865      2.000000
  0.048659 -0.000000 -0.029798      2.000000
  0.072989 -0.014047 -0.039730      2.000000
  0.097319 -0.028093 -0.049663      2.000000
 -0.097319  0.084280  0.029798      2.000000
 -0.072989  0.070234  0.019865      2.000000
 -0.048659  0.056187  0.009933      2.000000
 -0.024330  0.042140  0.000000      2.000000
  0.000000  0.056187 -0.019865      2.000000
  0.024330  0.042140 -0.029798      2.000000
  0.048659  0.028093 -0.039730      2.000000
  0.072989  0.014047 -0.049663      2.000000
  0.097319 -0.000000 -0.059595      2.000000
 -0.097319  0.112374  0.019865      2.000000
 -0.072989  0.098327  0.009933      2.000000
 -0.048659  0.084280  0.000000      2.000000
 -0.024330  0.070234 -0.009933      2.000000
  0.000000  0.084280 -0.029798      2.000000
  0.024330  0.070234 -0.039730      2.000000
  0.048659  0.056187 -0.049663      2.000000
  0.072989  0.042140 -0.059595      2.000000
  0.097319  0.028093 -0.069528      2.000000
 -0.097319  0.140467  0.009933      2.000000
 -0.072989  0.126421  0.000000      2.000000
 -0.048659  0.112374 -0.009933      2.000000
 -0.024330  0.098327 -0.019865      2.000000
  0.000000  0.112374 -0.039730      2.000000
  0.024330  0.098327 -0.049663      2.000000
  0.048659  0.084280 -0.059595      2.000000
  0.072989  0.070234 -0.069528      2.000000
  0.097319  0.056187 -0.079460      2.000000
 -0.097319  0.168561  0.000000      2.000000
 -0.072989  0.154514 -0.009933      2.000000
 -0.048659  0.140467 -0.019865      2.000000
 -0.024330  0.126421 -0.029798      2.000000
 -0.000000  0.000000  0.029798      2.000000
  0.024330 -0.014047  0.019865      2.000000
  0.048659 -0.028093  0.009933      2.000000
  0.072989 -0.042140 -0.000000      2.000000
  0.097319 -0.056187 -0.009933      2.000000
 -0.097319  0.056187  0.069528      2.000000
 -0.072989  0.042140  0.059595      2.000000
 -0.048659  0.028093  0.049663      2.000000
 -0.024330  0.014047  0.039730      2.000000
 -0.000000  0.028093  0.019865      2.000000
  0.024330  0.014047  0.009933      2.000000
  0.048659 -0.000000 -0.000000      2.000000
  0.072989 -0.014047 -0.009933      2.000000
  0.097319 -0.028093 -0.019865      2.000000
 -0.097319  0.084280  0.059595      2.000000
 -0.072989  0.070234  0.049663      2.000000
 -0.048659  0.056187  0.039730      2.000000
 -0.024330  0.042140  0.029798      2.000000
 -0.000000  0.056187  0.009933      2.000000
[...]
  0.072989 -0.098327  0.109258      2.000000
  0.097319 -0.112374  0.099325      2.000000
 -0.097319  0.000000  0.178786      2.000000
 -0.072989 -0.014047  0.168853      2.000000
 -0.048659 -0.028093  0.158921      2.000000
 -0.024330 -0.042140  0.148988      2.000000
 -0.000000 -0.028093  0.129123      2.000000
  0.024330 -0.042140  0.119190      2.000000
  0.048659 -0.056187  0.109258      2.000000
  0.072989 -0.070234  0.099325      2.000000
  0.097319 -0.084280  0.089393      2.000000
 -0.097319  0.028093  0.168853      2.000000
 -0.072989  0.014047  0.158921      2.000000
 -0.048659 -0.000000  0.148988      2.000000
 -0.024330 -0.014047  0.139056      2.000000

 SYSTEM =  Og_FCC
 POSCAR =  Og_FCC

 Startparameter for this run:
   NWRITE =      2    write-flag & timer
   PREC   = accura    normal or accurate (medium, high low for compatibility)
   ISTART =      0    job   : 0-new  1-cont  2-samecut
   ICHARG =      2    charge: 1-file 2-atom 10-const
   ISPIN  =      1    spin polarized calculation?
   LNONCOLLINEAR =      T non collinear calculations
   LSORBIT =      T    spin-orbit coupling
   INIWAV =      1    electr: 0-lowe 1-rand  2-diag
   LASPH  =      F    aspherical Exc in radial PAW
   METAGGA=      F    non-selfconsistent MetaGGA calc.

 Electronic Relaxation 1
   ENCUT  =  600.0 eV  44.10 Ry    6.64 a.u.   9.12  9.12  9.12*2*pi/ulx,y,z
   ENINI  =  600.0     initial cutoff
   ENAUG  =  361.0 eV  augmentation charge cutoff
   NELM   =    100;   NELMIN=  5; NELMDL= -5     # of ELM steps
   EDIFF  = 0.1E-06   stopping-criterion for ELM
   LREAL  =      F    real-space projection
   NLSPLINE    = F    spline interpolate recip. space projectors
   LCOMPAT=      F    compatible to vasp.4.4
   GGA_COMPAT  = F    GGA compatible to vasp.4.4-vasp.4.6
   LMAXPAW     = -100 max onsite density
   LMAXMIX     =    2 max onsite mixed and CHGCAR
   VOSKOWN=      0    Vosko Wilk Nusair interpolation
   ROPT   =    0.00000
 Ionic relaxation
   EDIFFG = 0.1E-04   stopping-criterion for IOM
   NSW    =      1    number of steps for IOM
[...]
 k-point 50 :  -0.1111 0.0000 0.1111  plane waves:    4462
 k-point 51 :  -0.0000 0.1111 0.1111  plane waves:    4450
 k-point 52 :   0.1111 0.1111 0.1111  plane waves:    4440
 k-point 53 :   0.2222 0.1111 0.1111  plane waves:    4462
 k-point 54 :   0.3333 0.1111 0.1111  plane waves:    4470
 k-point 55 :   0.4444 0.1111 0.1111  plane waves:    4498
 k-point 56 :  -0.4444 0.1111 0.1111  plane waves:    4512
 k-point 57 :  -0.3333 0.1111 0.1111  plane waves:    4486
 k-point 58 :  -0.2222 0.1111 0.1111  plane waves:    4494
 k-point 59 :  -0.1111 0.1111 0.1111  plane waves:    4470
 k-point 60 :  -0.0000 0.2222 0.1111  plane waves:    4470
[...]
 k-point 85 :  -0.2222 0.4444 0.1111  plane waves:    4506
 k-point 86 :  -0.1111 0.4444 0.1111  plane waves:    4512
 k-point 87 :   0.0000-0.4444 0.1111  plane waves:    4512
 k-point 88 :   0.1111-0.4444 0.1111  plane waves:    4512
 k-point 89 :   0.2222-0.4444 0.1111  plane waves:    4512
 k-point 90 :   0.3333-0.4444 0.1111  plane waves:    4498
 k-point 91 :   0.4444-0.4444 0.1111  plane waves:    4494
 k-point 92 :  -0.4444-0.4444 0.1111  plane waves:    4512
 k-point 93 :  -0.3333-0.4444 0.1111  plane waves:    4494
 k-point 94 :  -0.2222-0.4444 0.1111  plane waves:    4498
 k-point 95 :  -0.1111-0.4444 0.1111  plane waves:    4512
 k-point 96 :   0.0000-0.3333 0.1111  plane waves:    4498
 k-point 97 :   0.1111-0.3333 0.1111  plane waves:    4486
 k-point 98 :   0.2222-0.3333 0.1111  plane waves:    4512
 k-point 99 :   0.3333-0.3333 0.1111  plane waves:    4506
 k-point ** :   0.4444-0.3333 0.1111  plane waves:    4496
 k-point ** :  -0.4444-0.3333 0.1111  plane waves:    4494
 k-point ** :  -0.3333-0.3333 0.1111  plane waves:    4502
 k-point ** :  -0.2222-0.3333 0.1111  plane waves:    4498
 k-point ** :  -0.1111-0.3333 0.1111  plane waves:    4480
 k-point ** :   0.0000-0.2222 0.1111  plane waves:    4470
 k-point ** :   0.1111-0.2222 0.1111  plane waves:    4494
 k-point ** :   0.2222-0.2222 0.1111  plane waves:    4480
 k-point ** :   0.3333-0.2222 0.1111  plane waves:    4494
 k-point ** :   0.4444-0.2222 0.1111  plane waves:    4506
 k-point ** :  -0.4444-0.2222 0.1111  plane waves:    4498
 k-point ** :  -0.3333-0.2222 0.1111  plane waves:    4498
 k-point ** :  -0.2222-0.2222 0.1111  plane waves:    4502
 k-point ** :  -0.1111-0.2222 0.1111  plane waves:    4492
 k-point ** :   0.0000-0.1111 0.1111  plane waves:    4462
 k-point ** :   0.1111-0.1111 0.1111  plane waves:    4470
 k-point ** :   0.2222-0.1111 0.1111  plane waves:    4492
 k-point ** :   0.3333-0.1111 0.1111  plane waves:    4480
 k-point ** :   0.4444-0.1111 0.1111  plane waves:    4512
 k-point ** :  -0.4444-0.1111 0.1111  plane waves:    4512
 k-point ** :  -0.3333-0.1111 0.1111  plane waves:    4480
 k-point ** :  -0.2222-0.1111 0.1111  plane waves:    4492
 k-point ** :  -0.1111-0.1111 0.1111  plane waves:    4470
 k-point ** :   0.0000 0.0000 0.2222  plane waves:    4470
 k-point ** :   0.1111-0.0000 0.2222  plane waves:    4470
 k-point ** :   0.2222-0.0000 0.2222  plane waves:    4474
 k-point ** :   0.3333 0.0000 0.2222  plane waves:    4502
 k-point ** :   0.4444-0.0000 0.2222  plane waves:    4488
 k-point ** :  -0.4444 0.0000 0.2222  plane waves:    4518
 k-point ** :  -0.3333-0.0000 0.2222  plane waves:    4504
 k-point ** :  -0.2222 0.0000 0.2222  plane waves:    4502
 k-point ** :  -0.1111 0.0000 0.2222  plane waves:    4470
 k-point ** :  -0.0000 0.1111 0.2222  plane waves:    4470
 k-point ** :   0.1111 0.1111 0.2222  plane waves:    4462
 k-point ** :   0.2222 0.1111 0.2222  plane waves:    4470
 k-point ** :   0.3333 0.1111 0.2222  plane waves:    4492
 k-point ** :   0.4444 0.1111 0.2222  plane waves:    4480
 k-point ** :  -0.4444 0.1111 0.2222  plane waves:    4512
 k-point ** :  -0.3333 0.1111 0.2222  plane waves:    4512
 k-point ** :  -0.2222 0.1111 0.2222  plane waves:    4480
 k-point ** :  -0.1111 0.1111 0.2222  plane waves:    4492
 k-point ** :  -0.0000 0.2222 0.2222  plane waves:    4474
 k-point ** :   0.1111 0.2222 0.2222  plane waves:    4470
 k-point ** :   0.2222 0.2222 0.2222  plane waves:    4470
 k-point ** :   0.3333 0.2222 0.2222  plane waves:    4470
 k-point ** :   0.4444 0.2222 0.2222  plane waves:    4502
 k-point ** :  -0.4444 0.2222 0.2222  plane waves:    4504
 k-point ** :  -0.3333 0.2222 0.2222  plane waves:    4518
 k-point ** :  -0.2222 0.2222 0.2222  plane waves:    4488
 k-point ** :  -0.1111 0.2222 0.2222  plane waves:    4502
 k-point ** :   0.0000 0.3333 0.2222  plane waves:    4502
 k-point ** :   0.1111 0.3333 0.2222  plane waves:    4492
 k-point ** :   0.2222 0.3333 0.2222  plane waves:    4470
 k-point ** :   0.3333 0.3333 0.2222  plane waves:    4494
 k-point ** :   0.4444 0.3333 0.2222  plane waves:    4480
 k-point ** :  -0.4444 0.3333 0.2222  plane waves:    4494
 k-point ** :  -0.3333 0.3333 0.2222  plane waves:    4506
 k-point ** :  -0.2222 0.3333 0.2222  plane waves:    4498
 k-point ** :  -0.1111 0.3333 0.2222  plane waves:    4498
 k-point ** :  -0.0000 0.4444 0.2222  plane waves:    4488
[...]
 k-point ** :   0.3333-0.2222 0.4444  plane waves:    4496
 k-point ** :   0.4444-0.2222 0.4444  plane waves:    4518
 k-point ** :  -0.4444-0.2222 0.4444  plane waves:    4498
 k-point ** :  -0.3333-0.2222 0.4444  plane waves:    4494
 k-point ** :  -0.2222-0.2222 0.4444  plane waves:    4504
 k-point ** :  -0.1111-0.2222 0.4444  plane waves:    4512
 k-point ** :   0.0000-0.1111 0.4444  plane waves:    4512
 k-point ** :   0.1111-0.1111 0.4444  plane waves:    4512
 k-point ** :   0.2222-0.1111 0.4444  plane waves:    4498
 k-point ** :   0.3333-0.1111 0.4444  plane waves:    4494
 k-point ** :   0.4444-0.1111 0.4444  plane waves:    4512
 k-point ** :  -0.4444-0.1111 0.4444  plane waves:    4494
 k-point ** :  -0.3333-0.1111 0.4444  plane waves:    4498
 k-point ** :  -0.2222-0.1111 0.4444  plane waves:    4512
 k-point ** :  -0.1111-0.1111 0.4444  plane waves:    4512

 maximum and minimum number of plane-waves per node :      2290     2200

 maximum number of plane-waves:      4518
 maximum index in each direction:
   IXMAX=    9   IYMAX=    9   IZMAX=    9
   IXMIN=   -9   IYMIN=   -9   IZMIN=   -9

 parallel 3D FFT for wavefunctions:
    minimum data exchange during FFTs selected (reduces bandwidth)
 parallel 3D FFT for charge:
    minimum data exchange during FFTs selected (reduces bandwidth)

 Broyden mixing: mesh for mixing (old mesh)
   NGX = 19   NGY = 19   NGZ = 19
  (NGX  = 72   NGY  = 72   NGZ  = 72)
  gives a total of   6859 points

 initial charge density was supplied:
 charge density of overlapping atoms calculated
 number of electron      18.0000000 magnetization       1.0000000      1.0000000      1.0000000
 keeping initial charge density in first step

 Maximum index for augmentation-charges       161625 (set IRDMAX)

 First call to EWALD:  gamma=   0.436
 Maximum number of real-space cells 3x 3x 3
 Maximum number of reciprocal cells 3x 3x 3

--------------------------------------- Iteration      1(   1)  ---------------------------------------

 eigenvalue-minimisations  : 20816
 total energy-change (2. order) : 0.3138856E+03  (-0.9211534E+03)
 number of electron      18.0000000 magnetization       1.0000000      1.0000000      1.0000000
 augmentation part       18.0000000 magnetization       1.0000000      1.0000000      1.0000000

 Free energy of the ion-electron system (eV)
  alpha Z        PSCENC =        56.64661467
  Ewald energy   TEWEN  =     -1656.00166324
  -Hartree energ DENC   =      -717.27305607
  -exchange      EXHF   =         0.00000000
  -V(xc)+E(xc)   XCENC  =       -69.30292384
  PAW double counting   =      2268.28454800    -2184.08492831
  entropy T*S    EENTRO =        -0.00003430
  eigenvalues    EBANDS =       -24.91168305
  atomic energy  EATOM  =      2640.52872706
  Solvation  Ediel_sol  =         0.00000000
  free energy    TOTEN  =       313.88560092 eV

  energy without entropy =      313.88563522  energy(sigma->0) =      313.88561235

[...]

 eigenvalue-minimisations  : 27412
 total energy-change (2. order) :-0.3100679E+03  (-0.3001616E+03)
 number of electron      18.0000000 magnetization       1.0000000      1.0000000      1.0000000
 augmentation part       18.0000000 magnetization       1.0000000      1.0000000      1.0000000

[...]

 Broyden mixing:
  rms(total) = 0.63112E+00    rms(broyden)= 0.63110E+00
  rms(prec ) = 0.85081E+00
  weight for this iteration     100.00

[...]

 eigenvalues of (default mixing * dielectric matrix)
  average eigenvalue GAMMA=   0.7730
  0.7730

[...]

 eigenvalue-minimisations  : 15584
 total energy-change (2. order) :-0.1063349E-06  (-0.2427553E-08)
 number of electron      18.0000000 magnetization       0.0000002      0.0000003      0.0000003
 augmentation part        2.7935730 magnetization       0.0000003      0.0000003      0.0000003

 Broyden mixing:
  rms(total) = 0.55029E-05    rms(broyden)= 0.55025E-05
  rms(prec ) = 0.16911E-04
  weight for this iteration     100.00

 eigenvalues of (default mixing * dielectric matrix)
  average eigenvalue GAMMA=   1.4859
  3.8055  3.1232  2.6370  2.6370  1.3050  1.0817  1.0817  0.8869  0.8869  0.7396
  0.7293  0.6390  0.6247  0.6247

[...]

--------------------------------------- Iteration      1(  20)  ---------------------------------------

 eigenvalue-minimisations  : 14523
 total energy-change (2. order) : 0.5925358E-09  (-0.1274368E-08)
 number of electron      18.0000000 magnetization       0.0000002      0.0000003      0.0000003
 augmentation part        2.7935730 magnetization       0.0000003      0.0000003      0.0000003

 Free energy of the ion-electron system (eV)
  alpha Z        PSCENC =        56.64661467
  Ewald energy   TEWEN  =     -1656.00166324
  -Hartree energ DENC   =      -729.81574512
  -exchange      EXHF   =         0.00000000
  -V(xc)+E(xc)   XCENC  =       -68.94935682
  PAW double counting   =      2321.89542705    -2246.46462506
  entropy T*S    EENTRO =         0.00011971
  eigenvalues    EBANDS =      -331.15620004
  atomic energy  EATOM  =      2640.52872706
  Solvation  Ediel_sol  =         0.00000000
  free energy    TOTEN  =       -13.31670178 eV

  energy without entropy =      -13.31682149  energy(sigma->0) =      -13.31674168

 average (electrostatic) potential at core
  the test charge radii are     1.2024
  (the norm of the test charge is              1.0000)
       1-111.0660

 E-fermi :   2.4655     XC(G=0):  -7.5488     alpha+bet : -6.5154

 k-point     1 :       0.0000    0.0000    0.0000
  band No.  band energies     occupation
      1     -31.5653      1.00000
      2     -31.5653      1.00000
      3     -31.5653      1.00000
      4     -31.5653      1.00000
      5     -24.8732      1.00000
      6     -24.8732      1.00000
      7     -24.8713      1.00000
      8     -24.8713      1.00000
      9     -24.8713      1.00000
     10     -24.8713      1.00000
     11     -21.2379      1.00000
     12     -21.2379      1.00000
     13      -8.0812      1.00000
     14      -8.0812      1.00000
     15       2.4163      0.86568
     16       2.4163      0.86568
     17       2.4163      0.86568
     18       2.4163      0.86568
     19       2.7293     -0.00061
     20       2.7293     -0.00061
     21       9.4781      0.00000
     22       9.4781      0.00000
     23       9.4781      0.00000
     24       9.4781      0.00000
     25       9.8436      0.00000
     26       9.8436      0.00000
     27      10.0554      0.00000
     28      10.0554      0.00000

[...]

 k-point   365 :      -0.1111   -0.1111    0.4444
  band No.  band energies     occupation
      1     -31.5648      1.00000
      2     -31.5648      1.00000
      3     -31.5639      1.00000
      4     -31.5639      1.00000
      5     -24.8722      1.00000
      6     -24.8722      1.00000
      7     -24.8688      1.00000
      8     -24.8688      1.00000
      9     -24.8674      1.00000
     10     -24.8674      1.00000
     11     -21.1757      1.00000
     12     -21.1757      1.00000
     13      -8.3170      1.00000
     14      -8.3170      1.00000
     15      -0.0604      1.00000
     16      -0.0604      1.00000
     17       1.7253      1.00000
     18       1.7253      1.00000
     19       5.5306      0.00000
     20       5.5306      0.00000
     21       8.1217      0.00000
     22       8.1217      0.00000
     23       9.2895      0.00000
     24       9.2895      0.00000
     25       9.8162      0.00000
     26       9.8162      0.00000
     27      11.1199      0.00000
     28      11.1241      0.00000

 soft charge-density along one line, spin component           1
         0         1         2         3         4         5         6         7         8         9
 total charge-density along one line

[...]

 soft charge-density along one line, spin component           4
         0         1         2         3         4         5         6         7         8         9
 total charge-density along one line

------------------------ aborting loop because EDIFF is reached ----------------------------------------

  FORCE on cell =-STRESS in cart. coord.  units (eV):
  Direction    XX          YY          ZZ          XY          YZ          ZX
  Alpha Z    56.64661    56.64661    56.64661
  Ewald    -552.00057  -552.00057  -552.00057     0.00000    -0.00000     0.00000
  Hartree   243.27166   243.27166   243.27166     0.00000     0.00000     0.00000
  E(xc)    -111.68405  -111.68405  -111.68404    -0.00000    -0.00000    -0.00000
  Local    -205.05832  -205.05832  -205.05833     0.00001     0.00000     0.00000
  n-local    97.81955    97.81956    97.81955     0.00001     0.00001     0.00001
  augment    74.03878    74.03879    74.03879    -0.00001    -0.00000    -0.00000
  Kinetic   396.97713   396.97711   396.97713    -0.00001    -0.00001    -0.00000
  Fock        0.00000     0.00000     0.00000     0.00000     0.00000     0.00000
  Total       0.01079     0.01079     0.01079     0.00000     0.00000     0.00000
  in kB       0.25667     0.25665     0.25667     0.00003     0.00004     0.00004

 VOLUME and BASIS-vectors are now :
  energy-cutoff  :      600.00
  volume of cell :       67.35
      direct lattice vectors                 reciprocal lattice vectors
     4.566900993  0.000000000  0.000000000     0.218966866 -0.126420579 -0.089392849
     2.283450496  3.955052276 -0.000000000     0.000000000  0.252841159 -0.089392849
     2.283450496  1.318350759  3.728859046    -0.000000000  0.000000000  0.268178547

  length of vectors
     4.566900993  4.566900993  4.566900993     0.268178547  0.268178547  0.268178547

 FORCES acting on ions
    electron-ion (+dipol)            ewald-force                    non-local-force                 convergence-correction
   0.166E-13 0.383E-13 -.774E-14   -.608E-14 0.689E-15 0.207E-15   -.159E-21 0.265E-21 0.000E+00   -.118E-12 -.106E-13 -.729E-13
   0.166E-13 0.383E-13 -.774E-14   -.608E-14 0.689E-15 0.207E-15   -.159E-21 0.265E-21 0.000E+00   -.118E-12 -.106E-13 -.729E-13

 POSITION                                       TOTAL-FORCE (eV/Angst)
      0.00000      0.00000      0.00000        -0.000000      0.000000      0.000000
    total drift:                               -0.000000      0.000000     -0.000000

  FREE ENERGIE OF THE ION-ELECTRON SYSTEM (eV)
  free  energy   TOTEN  =       -13.31670178 eV

  energy  without entropy=      -13.31682149  energy(sigma->0) =      -13.31674168

 Spin-Orbit-Coupling matrix elements

 Ion:    1  E_soc:    -32.9847711
 l=   1
     0.0000000    -5.0729627    -5.0729627
    -5.0729627     0.0000000    -5.0729628
    -5.0729627    -5.0729628     0.0000000
 l=   2
     0.0000000    -0.0849024     0.0000000    -0.0849024    -0.3395925
    -0.0849024     0.0000000    -0.2546944    -0.0849066    -0.0849024
     0.0000000    -0.2546944     0.0000000    -0.2546944     0.0000000
    -0.0849024    -0.0849066    -0.2546944     0.0000000    -0.0849024
    -0.3395925    -0.0849024     0.0000000    -0.0849024     0.0000000
 l=   3
     0.0000000     0.0000000     0.0000000     0.0000000     0.0000000     0.0000000     0.0000000
     0.0000000     0.0000000     0.0000000     0.0000000     0.0000000     0.0000000     0.0000000
     0.0000000     0.0000000     0.0000000     0.0000000     0.0000000     0.0000000     0.0000000
     0.0000000     0.0000000     0.0000000     0.0000000     0.0000000     0.0000000     0.0000000
     0.0000000     0.0000000     0.0000000     0.0000000     0.0000000     0.0000000     0.0000000
     0.0000000     0.0000000     0.0000000     0.0000000     0.0000000     0.0000000     0.0000000
     0.0000000     0.0000000     0.0000000     0.0000000     0.0000000     0.0000000     0.0000000