 vasp.5.4.4.18Apr17-6-g9f103f2a35 (build Nov 03 2018 10:20:46) complex

 executed on             LinuxIFC date 2018.12.06  11:54:20

 INCAR:
 POTCAR:    PAW_PBE Rn_d_GW 14Apr2014

 POTCAR:    PAW_PBE Rn_d_GW 14Apr2014
   VRHFIN =Rn:

   TITEL  = PAW_PBE Rn_d_GW 14Apr2014
   POMASS =  220.170; ZVAL   =   18.000    mass and valenz
   ENMAX  =  268.495; ENMIN  =  201.371 eV

  PAW_PBE Rn_d_GW 14Apr2014             :

 POSCAR: Rn_FCC
  positions in direct lattice
  velocities in cartesian coordinates

 METAGGA = SCAN     LMAXTAU =  0    LMIXTAU =  F

 ion  position               nearest neighbor table
   1  0.000  0.000  0.000-

IMPORTANT INFORMATION: All symmetrisations will be switched off!
NOSYMM: (Re-)initialisation of all symmetry stuff for point group C_1.

 KPOINTS: Automatically generated mesh + R-points
  k-points in reciprocal lattice
Space group operators:
 irot       det(A)        alpha          n_x          n_y          n_z        tau_x        tau_y        tau_z
    1     1.000000     0.000000     1.000000     0.000000     0.000000     0.000000     0.000000     0.000000

 SYSTEM =  Rn_FCC
 POSCAR =  Rn_FCC

 Startparameter for this run:
   NWRITE =      2    write-flag & timer
   PREC   = accura    normal or accurate (medium, high low for compatibility)
   ISTART =      1    job   : 0-new  1-cont  2-samecut
   ICHARG =      0    charge: 1-file 2-atom 10-const
   ISPIN  =      1    spin polarized calculation?
   LNONCOLLINEAR =      T non collinear calculations
   LSORBIT =      T    spin-orbit coupling
   INIWAV =      1    electr: 0-lowe 1-rand  2-diag
   LASPH  =      F    aspherical Exc in radial PAW
   METAGGA=      F    non-selfconsistent MetaGGA calc.

 Electronic Relaxation 1
   ENCUT  =  300.0 eV  22.05 Ry    4.70 a.u.   6.38  6.38  6.38*2*pi/ulx,y,z
   ENINI  =  300.0     initial cutoff
   ENAUG  =  715.6 eV  augmentation charge cutoff
   NELM   =     50;   NELMIN=  2; NELMDL= -5     # of ELM steps
   EDIFF  = 0.1E-07   stopping-criterion for ELM
   LREAL  =      F    real-space projection
   NLSPLINE    = F    spline interpolate recip. space projectors
   LCOMPAT=      F    compatible to vasp.4.4
   GGA_COMPAT  = F    GGA compatible to vasp.4.4-vasp.4.6
   LMAXPAW     = -100 max onsite density
   LMAXMIX     =    2 max onsite mixed and CHGCAR
   VOSKOWN=      0    Vosko Wilk Nusair interpolation
   ROPT   =    0.00000
 Ionic relaxation
   EDIFFG = 0.1E-04   stopping-criterion for IOM
   NSW    =      1    number of steps for IOM
   NBLOCK =      1;   KBLOCK =      1    inner block; outer block
   IBRION =     -1    ionic relax: 0-MD 1-quasi-New 2-CG
   NFREE  =      5    steps in history (QN), initial steepest desc. (CG)
   ISIF   =      3    stress and relaxation
   IWAVPR =     10    prediction:  0-non 1-charg 2-wave 3-comb
   ISYM   =      0    0-nonsym 1-usesym 2-fastsym
   LCORR  =      T    Harris-Foulkes like correction to forces

   POTIM  = 0.1000    time-step for ionic-motion
   TEIN   =    0.0    initial temperature
   TEBEG  =    0.0;   TEEND  =   0.0 temperature during run
   SMASS  =  -3.00    Nose mass-parameter (am)
   estimated Nose-frequenzy (Omega)   =  0.10E-29 period in steps =****** mass=  -0.467E-27a.u.
   SCALEE = 1.0000    scale energy and forces
   NPACO  =    256;   APACO  = 16.0  distance and # of slots for P.C.
   PSTRESS=    0.0 pullay stress

  Mass of Ions in am
   POMASS = 220.17
  Ionic Valenz
   ZVAL   =  18.00
  Atomic Wigner-Seitz radii
  virtual crystal weights
   VCA    =   1.00
   NELECT =      18.0000    total number of electrons
   NUPDOWN=      -1.0000    fix difference up-down

 DOS related values:
   EMIN   =  10.00;   EMAX   =-10.00  energy-range for DOS
   EFERMI =   0.00
   ISMEAR =     0;   SIGMA  =   0.05  broadening in eV -4-tet -1-fermi 0-gaus

 Electronic relaxation 2 (details)
   IALGO  =     38    algorithm
   LDIAG  =      T    sub-space diagonalisation (order eigenvalues)
   LSUBROT=      F    optimize rotation matrix (better conditioning)
   TURBO    =      0    0=normal 1=particle mesh
   IRESTART =      0    0=no restart 2=restart with 2 vectors
   NREBOOT  =      0    no. of reboots
   NMIN     =      0    reboot dimension
   EREF     =   0.00    reference energy to select bands
   IMIX   =      4    mixing-type and parameters
     AMIX     =   0.40;   BMIX     =  1.00
     AMIX_MAG =   1.60;   BMIX_MAG =  1.00
     AMIN     =   0.10
     WC   =   100.;   INIMIX=   1;  MIXPRE=   1;  MAXMIX=  50

 Intra band minimization:
   WEIMIN = 0.0000     energy-eigenvalue tresh-hold
   EBREAK =  0.78E-10  absolut break condition
   DEPER  =   0.30     relativ break condition

   TIME   =   0.40     timestep for ELM

  volume/ion in A,a.u.               =      65.32       440.82
  Fermi-wavevector in a.u.,A,eV,Ry     =   1.065315  2.013153 15.441193  1.134896
  Thomas-Fermi vector in A             =   2.200862

 Write flags
   LWAVE        =      T    write WAVECAR
   LDOWNSAMPLE  =      F    k-point downsampling of WAVECAR
   LCHARG       =      T    write CHGCAR
   LVTOT        =      F    write LOCPOT, total local potential
   LVHAR        =      F    write LOCPOT, Hartree potential only
   LELF         =      F    write electronic localiz. function (ELF)
   LORBIT       =      0    0 simple, 1 ext, 2 COOP (PROOUT), +10 PAW based schemes

 Dipole corrections
   LMONO  =      F    monopole corrections only (constant potential shift)
   LDIPOL =      F    correct potential (dipole corrections)
   IDIPOL =      0    1-x, 2-y, 3-z, 4-all directions
   EPSILON=  1.0000000 bulk dielectric constant

 Exchange correlation treatment:
   GGA     =    --    GGA type
   VOSKOWN=      0    Vosko Wilk Nusair interpolation
   LHFCALC =     F    Hartree Fock is set to
   LHFONE  =     F    Hartree Fock one center treatment
   AEXX    =    0.0000 exact exchange contribution

 Linear response parameters
   LEPSILON=     F    determine dielectric tensor
   LRPA    =     F    only Hartree local field effects (RPA)
   LNABLA  =     F    use nabla operator in PAW spheres
   LVEL    =     F    velocity operator in full k-point grid
   LINTERFAST=   F  fast interpolation
   KINTER  =     0    interpolate to denser k-point grid
   CSHIFT  =0.1000    complex shift for real part using Kramers Kronig
   OMEGAMAX=  -1.0    maximum frequency
   DEG_THRESHOLD= 0.2000000E-02 threshold for treating states as degnerate
   RTIME   =   -0.100 relaxation time in fs
  (WPLASMAI=    0.000 imaginary part of plasma frequency in eV, 0.658/RTIME)
   DFIELD  = 0.0000000 0.0000000 0.0000000 field for delta impulse in time

 Orbital magnetization related:
   ORBITALMAG=     F  switch on orbital magnetization
   LCHIMAG   =     F  perturbation theory with respect to B field
   DQ        =  0.001000  dq finite difference perturbation B field
   LLRAUG    =     F  two centre corrections for induced B field

 Static calculation
 charge density and potential will be updated during run
 non collinear spin polarized calculation
 Variant of blocked Davidson
 Davidson routine will perform the subspace rotation
 perform sub-space diagonalisation
    after iterative eigenvector-optimisation
 modified Broyden-mixing scheme, WC =      100.0
 initial mixing is a Kerker type mixing with AMIX =  0.4000 and BMIX =      1.0000
 Hartree-type preconditioning will be used
 using additional bands           23
 reciprocal scheme for non local part
 use partial core corrections
 calculate Harris-corrections to forces
   (improved forces if not selfconsistent)
 use gradient corrections
 use of overlap-Matrix (Vanderbilt PP)
 Gauss-broadening in eV      SIGMA  =   0.05

  energy-cutoff  :      300.00
  volume of cell :       65.32
      direct lattice vectors                 reciprocal lattice vectors
     4.520564769  0.000000000  0.000000000     0.221211298 -0.127716402 -0.090309134
     2.260282385  3.914923930 -0.000000000     0.000000000  0.255432805 -0.090309134
     2.260282385  1.304974643  3.691025678    -0.000000000  0.000000000  0.270927403

  length of vectors
     4.520564769  4.520564769  4.520564769     0.270927403  0.270927403  0.270927403

 old parameters found on file WAVECAR:
  energy-cutoff  :      300.00
  volume of cell :       65.32
      direct lattice vectors                 reciprocal lattice vectors
     4.520564769  0.000000000  0.000000000     0.221211298 -0.127716402 -0.090309134
     2.260282385  3.914923930 -0.000000000     0.000000000  0.255432805 -0.090309134
     2.260282385  1.304974643  3.691025678    -0.000000000  0.000000000  0.270927403

  length of vectors

 k-points in units of 2pi/SCALE and weight: Automatically generated mesh + R-points
   0.11060565  0.06385820  0.04515457       0.000
   0.10507537  0.06066529  0.04289684       0.000
   0.09954508  0.05747238  0.04063911       0.000
   0.09401480  0.05427947  0.03838138       0.000
   0.08848452  0.05108656  0.03612365       0.000
   0.08295424  0.04789365  0.03386593       0.000
   0.07742395  0.04470074  0.03160820       0.000
   0.07189367  0.04150783  0.02935047       0.000
   0.06636339  0.03831492  0.02709274       0.000
   0.06083311  0.03512201  0.02483501       0.000
   0.05530282  0.03192910  0.02257728       0.000
   0.04977254  0.02873619  0.02031956       0.000
   0.04424226  0.02554328  0.01806183       0.000
   0.03871198  0.02235037  0.01580410       0.000
   0.03318169  0.01915746  0.01354637       0.000
   0.02765141  0.01596455  0.01128864       0.000
   0.02212113  0.01277164  0.00903091       0.000
   0.01659085  0.00957873  0.00677319       0.000
   0.01106056  0.00638582  0.00451546       0.000
   0.00553028  0.00319291  0.00225773       0.000
   0.00000000  0.00000000  0.00000000       0.000
  -0.00000000  0.00638582  0.00451546       0.000
  -0.00000000  0.01277164  0.00903091       0.000
  -0.00000000  0.01915746  0.01354637       0.000
  -0.00000000  0.02554328  0.01806183       0.000
  -0.00000000  0.03192910  0.02257728       0.000
  -0.00000000  0.03831492  0.02709274       0.000
  -0.00000000  0.04470074  0.03160820       0.000
  -0.00000000  0.05108656  0.03612365       0.000
  -0.00000000  0.05747238  0.04063911       0.000
  -0.00000000  0.06385820  0.04515457       0.000
  -0.00000000  0.07024402  0.04967002       0.000
  -0.00000000  0.07662984  0.05418548       0.000
  -0.00000000  0.08301566  0.05870094       0.000
  -0.00000000  0.08940148  0.06321639       0.000
  -0.00000000  0.09578730  0.06773185       0.000
  -0.00000000  0.10217312  0.07224731       0.000
  -0.00000000  0.10855894  0.07676276       0.000
  -0.00000000  0.11494476  0.08127822       0.000
  -0.00000000  0.12133058  0.08579368       0.000
  -0.00000000  0.12771640  0.09030913       0.000
   0.00000000  0.00000000  0.00000000       0.005
   0.03686855 -0.02128607 -0.01505152       0.005
   0.07373710 -0.04257213 -0.03010304       0.005
   0.11060565 -0.06385820 -0.04515457       0.005
  -0.07373710  0.04257213  0.03010304       0.005
  -0.03686855  0.02128607  0.01505152       0.005
   0.00000000  0.04257213 -0.01505152       0.005
   0.03686855  0.02128607 -0.03010304       0.005
   0.07373710  0.00000000 -0.04515457       0.005
   0.11060565 -0.02128607 -0.06020609       0.005
[...]
 k-point 35 :   0.0000 0.3500 0.3500  plane waves:    1538
 k-point 36 :   0.0000 0.3750 0.3750  plane waves:    1530
 k-point 37 :   0.0000 0.4000 0.4000  plane waves:    1546
 k-point 38 :   0.0000 0.4250 0.4250  plane waves:    1538
 k-point 39 :   0.0000 0.4500 0.4500  plane waves:    1538
 k-point 40 :   0.0000 0.4750 0.4750  plane waves:    1546
 k-point 41 :   0.0000 0.5000 0.5000  plane waves:    1548
 k-point 42 :   0.0000 0.0000 0.0000  plane waves:    1498
 k-point 43 :   0.1667 0.0000 0.0000  plane waves:    1570
 k-point 44 :   0.3333 0.0000 0.0000  plane waves:    1538
 k-point 45 :   0.5000 0.0000 0.0000  plane waves:    1556
 k-point 46 :  -0.3333 0.0000 0.0000  plane waves:    1538
 k-point 47 :  -0.1667 0.0000 0.0000  plane waves:    1570
 k-point 48 :   0.0000 0.1667 0.0000  plane waves:    1570
 k-point 49 :   0.1667 0.1667 0.0000  plane waves:    1570
 k-point 50 :   0.3333 0.1667 0.0000  plane waves:    1546
 k-point 51 :   0.5000 0.1667 0.0000  plane waves:    1544
 k-point 52 :  -0.3333 0.1667 0.0000  plane waves:    1546
 k-point 53 :  -0.1667 0.1667 0.0000  plane waves:    1534
 k-point 54 :   0.0000 0.3333 0.0000  plane waves:    1538
 k-point 55 :   0.1667 0.3333 0.0000  plane waves:    1546
 k-point 56 :   0.3333 0.3333 0.0000  plane waves:    1538
 k-point 57 :   0.5000 0.3333 0.0000  plane waves:    1538
 k-point 58 :  -0.3333 0.3333 0.0000  plane waves:    1552
 k-point 59 :  -0.1667 0.3333 0.0000  plane waves:    1546
 k-point 60 :   0.0000 0.5000 0.0000  plane waves:    1556
[...]
 k-point 85 :   0.1667 0.1667 0.1667  plane waves:    1570
 k-point 86 :   0.3333 0.1667 0.1667  plane waves:    1534
 k-point 87 :   0.5000 0.1667 0.1667  plane waves:    1546
 k-point 88 :  -0.3333 0.1667 0.1667  plane waves:    1544
 k-point 89 :  -0.1667 0.1667 0.1667  plane waves:    1546
 k-point 90 :   0.0000 0.3333 0.1667  plane waves:    1546
 k-point 91 :   0.1667 0.3333 0.1667  plane waves:    1534
 k-point 92 :   0.3333 0.3333 0.1667  plane waves:    1546
 k-point 93 :   0.5000 0.3333 0.1667  plane waves:    1526
 k-point 94 :  -0.3333 0.3333 0.1667  plane waves:    1520
 k-point 95 :  -0.1667 0.3333 0.1667  plane waves:    1526
 k-point 96 :   0.0000 0.5000 0.1667  plane waves:    1544
 k-point 97 :   0.1667 0.5000 0.1667  plane waves:    1546
 k-point 98 :   0.3333 0.5000 0.1667  plane waves:    1526
 k-point 99 :   0.5000 0.5000 0.1667  plane waves:    1538
 k-point ** :  -0.3333 0.5000 0.1667  plane waves:    1536
 k-point ** :  -0.1667 0.5000 0.1667  plane waves:    1520
 k-point ** :   0.0000-0.3333 0.1667  plane waves:    1546
 k-point ** :   0.1667-0.3333 0.1667  plane waves:    1544
 k-point ** :   0.3333-0.3333 0.1667  plane waves:    1520
 k-point ** :   0.5000-0.3333 0.1667  plane waves:    1536
 k-point ** :  -0.3333-0.3333 0.1667  plane waves:    1538
 k-point ** :  -0.1667-0.3333 0.1667  plane waves:    1526
 k-point ** :   0.0000-0.1667 0.1667  plane waves:    1534
 k-point ** :   0.1667-0.1667 0.1667  plane waves:    1546
 k-point ** :   0.3333-0.1667 0.1667  plane waves:    1526
 k-point ** :   0.5000-0.1667 0.1667  plane waves:    1520
 k-point ** :  -0.3333-0.1667 0.1667  plane waves:    1526
 k-point ** :  -0.1667-0.1667 0.1667  plane waves:    1546
 k-point ** :   0.0000 0.0000 0.3333  plane waves:    1538
 k-point ** :   0.1667 0.0000 0.3333  plane waves:    1546
 k-point ** :   0.3333 0.0000 0.3333  plane waves:    1538
 k-point ** :   0.5000 0.0000 0.3333  plane waves:    1538
 k-point ** :  -0.3333 0.0000 0.3333  plane waves:    1552
 k-point ** :  -0.1667 0.0000 0.3333  plane waves:    1546
 k-point ** :   0.0000 0.1667 0.3333  plane waves:    1546
 k-point ** :   0.1667 0.1667 0.3333  plane waves:    1534
 k-point ** :   0.3333 0.1667 0.3333  plane waves:    1546
 k-point ** :   0.5000 0.1667 0.3333  plane waves:    1526
 k-point ** :  -0.3333 0.1667 0.3333  plane waves:    1520
 k-point ** :  -0.1667 0.1667 0.3333  plane waves:    1526
 k-point ** :   0.0000 0.3333 0.3333  plane waves:    1538
 k-point ** :   0.1667 0.3333 0.3333  plane waves:    1546
 k-point ** :   0.3333 0.3333 0.3333  plane waves:    1538
 k-point ** :   0.5000 0.3333 0.3333  plane waves:    1546
 k-point ** :  -0.3333 0.3333 0.3333  plane waves:    1552
 k-point ** :  -0.1667 0.3333 0.3333  plane waves:    1538
 k-point ** :   0.0000 0.5000 0.3333  plane waves:    1538
 k-point ** :   0.1667 0.5000 0.3333  plane waves:    1526
 k-point ** :   0.3333 0.5000 0.3333  plane waves:    1546
 k-point ** :   0.5000 0.5000 0.3333  plane waves:    1544
 k-point ** :  -0.3333 0.5000 0.3333  plane waves:    1520
 k-point ** :  -0.1667 0.5000 0.3333  plane waves:    1536
 k-point ** :   0.0000-0.3333 0.3333  plane waves:    1552
 k-point ** :   0.1667-0.3333 0.3333  plane waves:    1520
 k-point ** :   0.3333-0.3333 0.3333  plane waves:    1552
 k-point ** :   0.5000-0.3333 0.3333  plane waves:    1520
 k-point ** :  -0.3333-0.3333 0.3333  plane waves:    1552
 k-point ** :  -0.1667-0.3333 0.3333  plane waves:    1520
 k-point ** :   0.0000-0.1667 0.3333  plane waves:    1546
 k-point ** :   0.1667-0.1667 0.3333  plane waves:    1526
 k-point ** :   0.3333-0.1667 0.3333  plane waves:    1538
 k-point ** :   0.5000-0.1667 0.3333  plane waves:    1536
 k-point ** :  -0.3333-0.1667 0.3333  plane waves:    1520
 k-point ** :  -0.1667-0.1667 0.3333  plane waves:    1544
 k-point ** :   0.0000 0.0000 0.5000  plane waves:    1556
 k-point ** :   0.1667 0.0000 0.5000  plane waves:    1544
 k-point ** :   0.3333 0.0000 0.5000  plane waves:    1538
 k-point ** :   0.5000 0.0000 0.5000  plane waves:    1548
 k-point ** :  -0.3333 0.0000 0.5000  plane waves:    1538
 k-point ** :  -0.1667 0.0000 0.5000  plane waves:    1544
 k-point ** :   0.0000 0.1667 0.5000  plane waves:    1544
 k-point ** :   0.1667 0.1667 0.5000  plane waves:    1546
 k-point ** :   0.3333 0.1667 0.5000  plane waves:    1526
 k-point ** :   0.5000 0.1667 0.5000  plane waves:    1538
[...]
 k-point ** :   0.3333 0.5000-0.1667  plane waves:    1536
 k-point ** :   0.5000 0.5000-0.1667  plane waves:    1538
 k-point ** :  -0.3333 0.5000-0.1667  plane waves:    1526
 k-point ** :  -0.1667 0.5000-0.1667  plane waves:    1546
 k-point ** :   0.0000-0.3333-0.1667  plane waves:    1546
 k-point ** :   0.1667-0.3333-0.1667  plane waves:    1526
 k-point ** :   0.3333-0.3333-0.1667  plane waves:    1520
 k-point ** :   0.5000-0.3333-0.1667  plane waves:    1526
 k-point ** :  -0.3333-0.3333-0.1667  plane waves:    1546
 k-point ** :  -0.1667-0.3333-0.1667  plane waves:    1534
 k-point ** :   0.0000-0.1667-0.1667  plane waves:    1570
 k-point ** :   0.1667-0.1667-0.1667  plane waves:    1546
 k-point ** :   0.3333-0.1667-0.1667  plane waves:    1544
 k-point ** :   0.5000-0.1667-0.1667  plane waves:    1546
 k-point ** :  -0.3333-0.1667-0.1667  plane waves:    1534

 maximum and minimum number of plane-waves per node :       798      740

 maximum number of plane-waves:      1570
 maximum index in each direction:
   IXMAX=    6   IYMAX=    6   IZMAX=    6
   IXMIN=   -6   IYMIN=   -6   IZMIN=   -6

 parallel 3D FFT for wavefunctions:
    minimum data exchange during FFTs selected (reduces bandwidth)
 parallel 3D FFT for charge:
    minimum data exchange during FFTs selected (reduces bandwidth)

 Broyden mixing: mesh for mixing (old mesh)
   NGX = 13   NGY = 13   NGZ = 13
  (NGX  = 56   NGY  = 56   NGZ  = 56)
  gives a total of   2197 points

 charge density for first step will be calculated from the start-wavefunctions

 Maximum index for augmentation-charges        50141 (set IRDMAX)

 initial charge from wavefunction
 First call to EWALD:  gamma=   0.440
 Maximum number of real-space cells 3x 3x 3
 Maximum number of reciprocal cells 3x 3x 3

--------------------------------------- Iteration      1(   1)  ---------------------------------------

 eigenvalue-minimisations  : 22192
 total energy-change (2. order) :-0.8277066E+02  (-0.3316038E-08)
 number of electron      18.0000001 magnetization       0.0000000     -0.0000000     -0.0000000
 augmentation part        7.1103060 magnetization      -0.0000005      0.0000009     -0.0000001

 Free energy of the ion-electron system (eV)
  alpha Z        PSCENC =        64.91123397
  Ewald energy   TEWEN  =     -1672.97583954
  -Hartree energ DENC   =     -1021.14769823
  -exchange      EXHF   =         0.00000000
  -V(xc)+E(xc)   XCENC  =        59.30108357
  PAW double counting   =      2387.92518054    -2449.36039834
  entropy T*S    EENTRO =        -0.00000000
  eigenvalues    EBANDS =      -482.04833061
  atomic energy  EATOM  =      3030.62410580
  Solvation  Ediel_sol  =         0.00000000
  free energy    TOTEN  =       -82.77066284 eV

  energy without entropy =      -82.77066284  energy(sigma->0) =      -82.77066284

[...]

 Broyden mixing:
  rms(total) = 0.20419E-04    rms(broyden)= 0.20375E-04
  rms(prec ) = 0.20442E-04
  weight for this iteration     100.00

[...]

--------------------------------------- Iteration      1(   6)  ---------------------------------------

 eigenvalue-minimisations  : 22544
 total energy-change (2. order) :-0.4292360E-08  (-0.2624404E-08)
 number of electron      18.0000001 magnetization      -0.0000000     -0.0000000     -0.0000000
 augmentation part        7.1103053 magnetization      -0.0000015      0.0000024     -0.0000005

 Free energy of the ion-electron system (eV)
  alpha Z        PSCENC =        64.91123397
  Ewald energy   TEWEN  =     -1672.97583954
  -Hartree energ DENC   =     -1021.14770562
  -exchange      EXHF   =         0.00000000
  -V(xc)+E(xc)   XCENC  =        59.30108585
  PAW double counting   =      2387.92637489    -2449.36161452
  entropy T*S    EENTRO =        -0.00000000
  eigenvalues    EBANDS =      -482.04830369
  atomic energy  EATOM  =      3030.62410580
  Solvation  Ediel_sol  =         0.00000000
  free energy    TOTEN  =       -82.77066285 eV

  energy without entropy =      -82.77066285  energy(sigma->0) =      -82.77066285

 average (electrostatic) potential at core
  the test charge radii are     1.0367
  (the norm of the test charge is              1.0000)
       1 -90.6061

 E-fermi :  -1.5136     XC(G=0):  -7.4333     alpha+bet : -4.5354

 k-point     1 :       0.5000    0.5000    0.5000
  band No.  band energies     occupation
      1     -44.9544      1.00000
      2     -44.9544      1.00000
      3     -44.9538      1.00000
      4     -44.9538      1.00000
      5     -40.5477      1.00000
      6     -40.5477      1.00000
      7     -40.5462      1.00000
      8     -40.5462      1.00000
      9     -40.5460      1.00000
     10     -40.5460      1.00000
     11     -17.9867      1.00000
     12     -17.9867      1.00000
     13      -6.1200      1.00000
     14      -6.1200      1.00000
     15      -3.1950      1.00000
     16      -3.1950      1.00000
     17      -2.0679      1.00000
     18      -2.0679      1.00000
     19       4.4998      0.00000
     20       4.4998      0.00000
     21       7.5150      0.00000
     22       7.5150      0.00000
     23       7.6799      0.00000
     24       7.6799      0.00000
     25       7.8903      0.00000
     26       7.8903      0.00000
     27       9.9977      0.00000
     28       9.9980      0.00000
     29      12.4864      0.00000
     30      12.4926      0.00000
     31      12.7019      0.00000
     32      12.7417      0.00000

[...]

 k-point   256 :      -0.3333   -0.1667   -0.1667
  band No.  band energies     occupation
      1     -44.9545      1.00000
      2     -44.9544      1.00000
      3     -44.9540      1.00000
      4     -44.9540      1.00000
      5     -40.5472      1.00000
      6     -40.5472      1.00000
      7     -40.5468      1.00000
      8     -40.5468      1.00000
      9     -40.5461      1.00000
     10     -40.5461      1.00000
     11     -18.0484      1.00000
     12     -18.0484      1.00000
     13      -5.8515      1.00000
     14      -5.8515      1.00000
     15      -2.7187      1.00000
     16      -2.7187      1.00000
     17      -2.0712      1.00000
     18      -2.0711      1.00000
     19       4.4556      0.00000
     20       4.4556      0.00000
     21       6.8082      0.00000
     22       6.8082      0.00000
     23       7.5001      0.00000
     24       7.5001      0.00000
     25       8.5862      0.00000
     26       8.5862      0.00000
     27       8.7369      0.00000
     28       8.7369      0.00000
     29      10.8592      0.00000
     30      10.8592      0.00000
     31      12.0139      0.00000
     32      12.0173      0.00000

 soft charge-density along one line, spin component           1
         0         1         2         3         4         5         6         7         8         9
 total charge-density along one line

[...]

 soft charge-density along one line, spin component           4
         0         1         2         3         4         5         6         7         8         9
 total charge-density along one line

------------------------ aborting loop because EDIFF is reached ----------------------------------------

  FORCE on cell =-STRESS in cart. coord.  units (eV):
  Direction    XX          YY          ZZ          XY          YZ          ZX
  Alpha Z    64.91123    64.91123    64.91123
  Ewald    -557.65863  -557.65863  -557.65863    -0.00000    -0.00000    -0.00000
  Hartree   340.38129   340.38299   340.38342    -0.00147    -0.00060    -0.00105
  E(xc)    -110.95042  -110.95050  -110.95053     0.00007     0.00003     0.00005
  Local     -74.19068   -74.18449   -74.18294    -0.00535    -0.00219    -0.00378
  n-local    71.96792    71.96180    71.96025     0.00530     0.00216     0.00375
  augment   105.36763   105.36855   105.36881    -0.00079    -0.00033    -0.00055
  Kinetic   160.00521   159.99483   159.99221     0.00899     0.00367     0.00636
  Fock        0.00000     0.00000     0.00000     0.00000     0.00000     0.00000
  Total      -0.16643    -0.17422    -0.17617     0.00675     0.00274     0.00478
  in kB      -4.08210    -4.27303    -4.32093     0.16545     0.06728     0.11719

 VOLUME and BASIS-vectors are now :
  energy-cutoff  :      300.00
  volume of cell :       65.32
      direct lattice vectors                 reciprocal lattice vectors
     4.520564769  0.000000000  0.000000000     0.221211298 -0.127716402 -0.090309134
     2.260282385  3.914923930 -0.000000000     0.000000000  0.255432805 -0.090309134
     2.260282385  1.304974643  3.691025678    -0.000000000  0.000000000  0.270927403

  length of vectors
     4.520564769  4.520564769  4.520564769     0.270927403  0.270927403  0.270927403

 FORCES acting on ions
    electron-ion (+dipol)            ewald-force                    non-local-force                 convergence-correction
   -.189E-05 0.661E-06 -.159E-05   -.116E-14 0.583E-15 0.129E-14   -.952E-06 -.187E-05 0.702E-07   0.175E-05 -.355E-06 0.154E-05
   -.190E-05 0.687E-06 -.159E-05   -.116E-14 0.583E-15 0.129E-14   -.952E-06 -.187E-05 0.702E-07   0.175E-05 -.355E-06 0.154E-05

 POSITION                                       TOTAL-FORCE (eV/Angst)
      0.00000      0.00000      0.00000        -0.000001     -0.000002      0.000000
    total drift:                               -0.000001     -0.000002      0.000000

  FREE ENERGIE OF THE ION-ELECTRON SYSTEM (eV)
  free  energy   TOTEN  =       -82.77066285 eV

  energy  without entropy=      -82.77066285  energy(sigma->0) =      -82.77066285

 writing wavefunctions

 Spin-Orbit-Coupling matrix elements

 Ion:    1  E_soc:     -3.6568626
 l=   1
     0.0000000    -0.4888711    -0.4888158
    -0.4888711     0.0000000    -0.4888265
    -0.4888158    -0.4888265     0.0000000
 l=   2
     0.0000000    -0.0241275     0.0000000    -0.0241275    -0.0965119
    -0.0241275     0.0000000    -0.0723839    -0.0241270    -0.0241275
     0.0000000    -0.0723839     0.0000000    -0.0723839     0.0000000
    -0.0241275    -0.0241270    -0.0723839     0.0000000    -0.0241275
    -0.0965119    -0.0241275     0.0000000    -0.0241275     0.0000000
 l=   3
     0.0000000    -0.0000000     0.0000000     0.0000000     0.0000000    -0.0000000    -0.0000003
    -0.0000000     0.0000000    -0.0000001     0.0000000    -0.0000001    -0.0000001    -0.0000001
     0.0000000    -0.0000001     0.0000000    -0.0000002    -0.0000001    -0.0000001     0.0000000
     0.0000000     0.0000000    -0.0000002     0.0000000    -0.0000002     0.0000000     0.0000000
     0.0000000    -0.0000001    -0.0000001    -0.0000002     0.0000000    -0.0000001     0.0000000
    -0.0000000    -0.0000001    -0.0000001     0.0000000    -0.0000001     0.0000000    -0.0000001
    -0.0000003    -0.0000001     0.0000000     0.0000000     0.0000000    -0.0000001     0.0000000