 vasp.5.4.4.18Apr17-6-g9f103f2a35 (build Nov 03 2018 10:20:46) complex

 executed on             LinuxIFC date 2018.12.14  04:23:31

 INCAR:
 POTCAR:    PAW_PBE Kr_GW 21Aug2013

 POTCAR:    PAW_PBE Kr_GW 21Aug2013
   VRHFIN =Kr: s2p6

   TITEL  = PAW_PBE Kr_GW 21Aug2013
   POMASS =   83.800; ZVAL   =    8.000    mass and valenz
   ENMAX  =  252.232; ENMIN  =  189.174 eV

  PAW_PBE Kr_GW 21Aug2013               :

 POSCAR: Kr_FCC
  positions in direct lattice
  velocities in cartesian coordinates
 exchange correlation table for  LEXCH =        8
   RHO(1)=    0.500       N(1)  =     2000
   RHO(2)=  100.500       N(2)  =     4000

 ion  position               nearest neighbor table
   1  0.000  0.000  0.000-

IMPORTANT INFORMATION: All symmetrisations will be switched off!
NOSYMM: (Re-)initialisation of all symmetry stuff for point group C_1.

 KPOINTS: k-points

Automatic generation of k-mesh.
Space group operators:
 irot       det(A)        alpha          n_x          n_y          n_z        tau_x        tau_y        tau_z
    1     1.000000     0.000000     1.000000     0.000000     0.000000     0.000000     0.000000     0.000000

 Subroutine IBZKPT returns following result:

 Found    172 irreducible k-points:

 Following reciprocal coordinates:
            Coordinates               Weight
  0.000000  0.000000  0.000000      1.000000
  0.142857 -0.000000  0.000000      2.000000
  0.285714  0.000000  0.000000      2.000000
  0.428571  0.000000  0.000000      2.000000
 -0.000000  0.142857  0.000000      2.000000
  0.142857  0.142857  0.000000      2.000000
  0.285714  0.142857  0.000000      2.000000
  0.428571  0.142857  0.000000      2.000000
 -0.428571  0.142857 -0.000000      2.000000
 -0.285714  0.142857 -0.000000      2.000000
 -0.142857  0.142857 -0.000000      2.000000
  0.000000  0.285714 -0.000000      2.000000
  0.142857  0.285714  0.000000      2.000000
  0.285714  0.285714  0.000000      2.000000
  0.428571  0.285714  0.000000      2.000000
 -0.428571  0.285714 -0.000000      2.000000
 -0.285714  0.285714 -0.000000      2.000000
 -0.142857  0.285714 -0.000000      2.000000
  0.000000  0.428571  0.000000      2.000000
  0.142857  0.428571 -0.000000      2.000000
  0.285714  0.428571  0.000000      2.000000
  0.428571  0.428571  0.000000      2.000000
 -0.428571  0.428571 -0.000000      2.000000
 -0.285714  0.428571  0.000000      2.000000
 -0.142857  0.428571 -0.000000      2.000000
  0.000000  0.000000  0.142857      2.000000
  0.142857  0.000000  0.142857      2.000000
  0.285714 -0.000000  0.142857      2.000000
  0.428571 -0.000000  0.142857      2.000000
 -0.428571 -0.000000  0.142857      2.000000
 -0.285714 -0.000000  0.142857      2.000000
 -0.142857  0.000000  0.142857      2.000000
 -0.000000  0.142857  0.142857      2.000000
  0.142857  0.142857  0.142857      2.000000
  0.285714  0.142857  0.142857      2.000000
  0.428571  0.142857  0.142857      2.000000
 -0.428571  0.142857  0.142857      2.000000
 -0.285714  0.142857  0.142857      2.000000
 -0.142857  0.142857  0.142857      2.000000
 -0.000000  0.285714  0.142857      2.000000
  0.142857  0.285714  0.142857      2.000000
  0.285714  0.285714  0.142857      2.000000
  0.428571  0.285714  0.142857      2.000000
 -0.428571  0.285714  0.142857      2.000000
 -0.285714  0.285714  0.142857      2.000000
 -0.142857  0.285714  0.142857      2.000000
 -0.000000  0.428571  0.142857      2.000000
  0.142857  0.428571  0.142857      2.000000
  0.285714  0.428571  0.142857      2.000000
  0.428571  0.428571  0.142857      2.000000
 -0.428571  0.428571  0.142857      2.000000
 -0.285714  0.428571  0.142857      2.000000
 -0.142857  0.428571  0.142857      2.000000
 -0.000000 -0.428571  0.142857      2.000000
  0.142857 -0.428571  0.142857      2.000000
  0.285714 -0.428571  0.142857      2.000000
  0.428571 -0.428571  0.142857      2.000000
 -0.428571 -0.428571  0.142857      2.000000
 -0.285714 -0.428571  0.142857      2.000000
 -0.142857 -0.428571  0.142857      2.000000
[...]
 -0.142857 -0.428571  0.428571      2.000000
 -0.000000 -0.285714  0.428571      2.000000
  0.142857 -0.285714  0.428571      2.000000
  0.285714 -0.285714  0.428571      2.000000
  0.428571 -0.285714  0.428571      2.000000
 -0.428571 -0.285714  0.428571      2.000000
 -0.285714 -0.285714  0.428571      2.000000
 -0.142857 -0.285714  0.428571      2.000000
  0.000000 -0.142857  0.428571      2.000000
  0.142857 -0.142857  0.428571      2.000000
  0.285714 -0.142857  0.428571      2.000000
  0.428571 -0.142857  0.428571      2.000000
 -0.428571 -0.142857  0.428571      2.000000
 -0.285714 -0.142857  0.428571      2.000000
 -0.142857 -0.142857  0.428571      2.000000

 Following cartesian coordinates:
            Coordinates               Weight
  0.000000  0.000000  0.000000      1.000000
  0.034713 -0.020042 -0.014172      2.000000
  0.069427 -0.040083 -0.028343      2.000000
  0.104140 -0.060125 -0.042515      2.000000
  0.000000  0.040083 -0.014172      2.000000
  0.034713  0.020042 -0.028343      2.000000
  0.069427  0.000000 -0.042515      2.000000
  0.104140 -0.020042 -0.056687      2.000000
 -0.104140  0.100209  0.028343      2.000000
 -0.069427  0.080167  0.014172      2.000000
 -0.034713  0.060125  0.000000      2.000000
  0.000000  0.080167 -0.028343      2.000000
  0.034713  0.060125 -0.042515      2.000000
  0.069427  0.040083 -0.056687      2.000000
  0.104140  0.020042 -0.070858      2.000000
 -0.104140  0.140292  0.014172      2.000000
 -0.069427  0.120250  0.000000      2.000000
 -0.034713  0.100209 -0.014172      2.000000
  0.000000  0.120250 -0.042515      2.000000
  0.034713  0.100209 -0.056687      2.000000
  0.069427  0.080167 -0.070858      2.000000
  0.104140  0.060125 -0.085030      2.000000
 -0.104140  0.180376  0.000000      2.000000
 -0.069427  0.160334 -0.014172      2.000000
 -0.034713  0.140292 -0.028343      2.000000
 -0.000000  0.000000  0.042515      2.000000
  0.034713 -0.020042  0.028343      2.000000
  0.069427 -0.040083  0.014172      2.000000
  0.104140 -0.060125  0.000000      2.000000
 -0.104140  0.060125  0.085030      2.000000
 -0.069427  0.040083  0.070858      2.000000
 -0.034713  0.020042  0.056687      2.000000
 -0.000000  0.040083  0.028343      2.000000
  0.034713  0.020042  0.014172      2.000000
  0.069427  0.000000  0.000000      2.000000
  0.104140 -0.020042 -0.014172      2.000000
 -0.104140  0.100209  0.070858      2.000000
 -0.069427  0.080167  0.056687      2.000000
 -0.034713  0.060125  0.042515      2.000000
 -0.000000  0.080167  0.014172      2.000000
  0.034713  0.060125  0.000000      2.000000
  0.069427  0.040083 -0.014172      2.000000
  0.104140  0.020042 -0.028343      2.000000
 -0.104140  0.140292  0.056687      2.000000
 -0.069427  0.120250  0.042515      2.000000
 -0.034713  0.100209  0.028343      2.000000
 -0.000000  0.120250  0.000000      2.000000
  0.034713  0.100209 -0.014172      2.000000
  0.069427  0.080167 -0.028343      2.000000
  0.104140  0.060125 -0.042515      2.000000
 -0.104140  0.180376  0.042515      2.000000
 -0.069427  0.160334  0.028343      2.000000
 -0.034713  0.140292  0.014172      2.000000
 -0.000000 -0.120250  0.085030      2.000000
  0.034713 -0.140292  0.070858      2.000000
  0.069427 -0.160334  0.056687      2.000000
  0.104140 -0.180376  0.042515      2.000000
 -0.104140 -0.060125  0.127545      2.000000
 -0.069427 -0.080167  0.113373      2.000000
 -0.034713 -0.100209  0.099202      2.000000
[...]
 -0.034713 -0.100209  0.184231      2.000000
 -0.000000 -0.080167  0.155888      2.000000
  0.034713 -0.100209  0.141716      2.000000
  0.069427 -0.120250  0.127545      2.000000
  0.104140 -0.140292  0.113373      2.000000
 -0.104140 -0.020042  0.198403      2.000000
 -0.069427 -0.040083  0.184231      2.000000
 -0.034713 -0.060125  0.170060      2.000000
 -0.000000 -0.040083  0.141716      2.000000
  0.034713 -0.060125  0.127545      2.000000
  0.069427 -0.080167  0.113373      2.000000
  0.104140 -0.100209  0.099202      2.000000
 -0.104140  0.020042  0.184231      2.000000
 -0.069427  0.000000  0.170060      2.000000
 -0.034713 -0.020042  0.155888      2.000000

 SYSTEM =  Og_FCC
 POSCAR =  Kr_FCC

 Startparameter for this run:
   NWRITE =      2    write-flag & timer
   PREC   = accura    normal or accurate (medium, high low for compatibility)
   ISTART =      1    job   : 0-new  1-cont  2-samecut
   ICHARG =      0    charge: 1-file 2-atom 10-const
   ISPIN  =      1    spin polarized calculation?
   LNONCOLLINEAR =      F non collinear calculations
   LSORBIT =      F    spin-orbit coupling
   INIWAV =      1    electr: 0-lowe 1-rand  2-diag
   LASPH  =      F    aspherical Exc in radial PAW
   METAGGA=      F    non-selfconsistent MetaGGA calc.

 Electronic Relaxation 1
   ENCUT  =  300.0 eV  22.05 Ry    4.70 a.u.   5.66  5.66  5.66*2*pi/ulx,y,z
   ENINI  =  300.0     initial cutoff
   ENAUG  =  554.8 eV  augmentation charge cutoff
   NELM   =     50;   NELMIN=  2; NELMDL= -5     # of ELM steps
   EDIFF  = 0.1E-07   stopping-criterion for ELM
   LREAL  =      F    real-space projection
   NLSPLINE    = F    spline interpolate recip. space projectors
   LCOMPAT=      F    compatible to vasp.4.4
   GGA_COMPAT  = F    GGA compatible to vasp.4.4-vasp.4.6
   LMAXPAW     = -100 max onsite density
   LMAXMIX     =    2 max onsite mixed and CHGCAR
   VOSKOWN=      0    Vosko Wilk Nusair interpolation
   ROPT   =    0.00000
 Ionic relaxation
   EDIFFG = 0.1E-04   stopping-criterion for IOM
   NSW    =      1    number of steps for IOM
   NBLOCK =      1;   KBLOCK =      1    inner block; outer block
   IBRION =     -1    ionic relax: 0-MD 1-quasi-New 2-CG
   NFREE  =      5    steps in history (QN), initial steepest desc. (CG)
   ISIF   =      3    stress and relaxation
   IWAVPR =     10    prediction:  0-non 1-charg 2-wave 3-comb
   ISYM   =      0    0-nonsym 1-usesym 2-fastsym
   LCORR  =      T    Harris-Foulkes like correction to forces

   POTIM  = 0.1000    time-step for ionic-motion
   TEIN   =    0.0    initial temperature
   TEBEG  =    0.0;   TEEND  =   0.0 temperature during run
   SMASS  =  -3.00    Nose mass-parameter (am)
   estimated Nose-frequenzy (Omega)   =  0.10E-29 period in steps =****** mass=  -0.367E-27a.u.
   SCALEE = 1.0000    scale energy and forces
   NPACO  =    256;   APACO  = 16.0  distance and # of slots for P.C.
   PSTRESS=    0.0 pullay stress

  Mass of Ions in am
   POMASS =  83.80
  Ionic Valenz
   ZVAL   =   8.00
  Atomic Wigner-Seitz radii
  virtual crystal weights
   VCA    =   1.00
   NELECT =       8.0000    total number of electrons
   NUPDOWN=      -1.0000    fix difference up-down

 DOS related values:
   EMIN   =  10.00;   EMAX   =-10.00  energy-range for DOS
   EFERMI =   0.00
   ISMEAR =     0;   SIGMA  =   0.00  broadening in eV -4-tet -1-fermi 0-gaus

 Electronic relaxation 2 (details)
   IALGO  =     90    algorithm
   LDIAG  =      T    sub-space diagonalisation (order eigenvalues)
   LSUBROT=      F    optimize rotation matrix (better conditioning)
   TURBO    =      0    0=normal 1=particle mesh
   IRESTART =      0    0=no restart 2=restart with 2 vectors
   NREBOOT  =      0    no. of reboots
[...]
   52.929832    0.906857    0.906857    0.906857    0.000000    0.000000    0.000000
   54.486592    0.906893    0.906893    0.906893    0.000000    0.000000    0.000000
   56.043352    0.916698    0.916698    0.916698   -0.000000   -0.000000   -0.000000
   57.600111    0.922848    0.922848    0.922848    0.000000    0.000000    0.000000
   59.156871    0.929332    0.929332    0.929332   -0.000000    0.000000   -0.000000
   60.713631    0.929086    0.929086    0.929086    0.000000    0.000000    0.000000
   62.270391    0.933998    0.933998    0.933998    0.000000   -0.000000    0.000000
   63.827150    0.938619    0.938619    0.938619   -0.000000    0.000000   -0.000000
   65.383910    0.940222    0.940222    0.940222   -0.000000    0.000000   -0.000000
   66.940670    0.943557    0.943557    0.943557   -0.000000   -0.000000   -0.000000
   68.497430    0.946938    0.946938    0.946938   -0.000000   -0.000000   -0.000000
   70.054189    0.947704    0.947704    0.947704   -0.000000   -0.000000   -0.000000
   71.610949    0.950583    0.950583    0.950583   -0.000000    0.000000   -0.000000
   73.167709    0.953628    0.953628    0.953628   -0.000000    0.000000   -0.000000
   74.724469    0.954019    0.954019    0.954019    0.000000    0.000000    0.000000
   76.281229    0.956727    0.956727    0.956727   -0.000000    0.000000   -0.000000
   77.837988    0.958969    0.958969    0.958969   -0.000000    0.000000   -0.000000
   79.394748    0.960946    0.960946    0.960946   -0.000000    0.000000   -0.000000
   80.951508    0.961775    0.961775    0.961775    0.000000    0.000000    0.000000
   82.508268    0.962959    0.962959    0.962959    0.000000    0.000000    0.000000
   84.065027    0.964899    0.964899    0.964899   -0.000000    0.000000   -0.000000
   85.621787    0.965140    0.965140    0.965140    0.000000    0.000000    0.000000
   87.178547    0.967054    0.967054    0.967054   -0.000000   -0.000000   -0.000000
   88.735307    0.968548    0.968548    0.968548    0.000000    0.000000    0.000000
   90.292066    0.969366    0.969366    0.969366   -0.000000   -0.000000   -0.000000
   91.848826    0.970424    0.970424    0.970424   -0.000000    0.000000    0.000000
[...]
  132.324580    0.985588    0.985588    0.985588    0.000000    0.000000    0.000000
  133.881340    0.985968    0.985968    0.985968    0.000000    0.000000    0.000000
  135.438100    0.986324    0.986324    0.986324    0.000000    0.000000    0.000000
  136.994859    0.986662    0.986662    0.986662    0.000000    0.000000    0.000000
  138.551619    0.986984    0.986984    0.986984    0.000000    0.000000    0.000000
  140.108379    0.987293    0.987293    0.987293    0.000000    0.000000    0.000000
  141.665139    0.987590    0.987590    0.987590    0.000000    0.000000    0.000000
  143.221898    0.987875    0.987875    0.987875    0.000000    0.000000    0.000000
  144.778658    0.988149    0.988149    0.988149    0.000000    0.000000    0.000000
  146.335418    0.988413    0.988413    0.988413    0.000000    0.000000    0.000000
  147.892178    0.988668    0.988668    0.988668    0.000000    0.000000    0.000000
  149.448937    0.988914    0.988914    0.988914    0.000000    0.000000    0.000000
  151.005697    0.989152    0.989152    0.989152    0.000000    0.000000    0.000000
  152.562457    0.989381    0.989381    0.989381    0.000000    0.000000    0.000000
  154.119217    0.989604    0.989604    0.989604    0.000000    0.000000    0.000000

  frequency dependent IMAGINARY DIELECTRIC FUNCTION (independent particle, no local field effects) current-current (2nd set in vasprun.xml)
     E(ev)      X         Y         Z        XY        YZ        ZX
    0.000000    0.000000    0.000000    0.000000    0.000000    0.000000    0.000000
    1.556760    0.000000    0.000000    0.000000    0.000000    0.000000    0.000000
    3.113520    0.000000    0.000000    0.000000    0.000000    0.000000    0.000000
    4.670279    0.000000    0.000000    0.000000    0.000000    0.000000    0.000000
    6.227039    0.000000    0.000000    0.000000    0.000000    0.000000    0.000000
    7.783799    1.103133    1.103176    1.103187   -0.000036   -0.000016   -0.000026
    9.340559    0.000000    0.000000    0.000000    0.000000    0.000000    0.000000
   10.897318    0.104884    0.104884    0.104884   -0.000000   -0.000000   -0.000000
   12.454078    1.293461    1.293461    1.293461    0.000000    0.000000    0.000000
   14.010838    2.652001    2.652001    2.652001    0.000000    0.000000    0.000000
   15.567598    2.816103    2.816103    2.816103   -0.000000    0.000000   -0.000000
   17.124357    0.627100    0.627100    0.627100   -0.000000   -0.000000   -0.000000
   18.681117    0.978932    0.978932    0.978932    0.000000    0.000000    0.000000
   20.237877    0.254591    0.254591    0.254591   -0.000000   -0.000000   -0.000000
   21.794637    0.242391    0.242391    0.242391   -0.000000    0.000000   -0.000000
   23.351396    0.729487    0.729487    0.729487   -0.000000   -0.000000   -0.000000
   24.908156    0.092358    0.092358    0.092358   -0.000000   -0.000000   -0.000000
   26.464916    0.075411    0.075411    0.075411   -0.000000    0.000000   -0.000000
   28.021676    0.192223    0.192223    0.192223    0.000000    0.000000    0.000000
   29.578436    0.042947    0.042947    0.042947   -0.000000   -0.000000   -0.000000
   31.135195    0.048818    0.048818    0.048818    0.000000    0.000000    0.000000
   32.691955    0.008516    0.008516    0.008516    0.000000    0.000000    0.000000
   34.248715    0.010637    0.010637    0.010637   -0.000000   -0.000000   -0.000000
   35.805475    0.016485    0.016485    0.016485   -0.000000   -0.000000   -0.000000
   37.362234    0.033433    0.033433    0.033433    0.000000   -0.000000    0.000000
   38.918994    0.035233    0.035233    0.035233    0.000000   -0.000000    0.000000
   40.475754    0.012765    0.012765    0.012765    0.000000    0.000000    0.000000
   42.032514    0.013537    0.013537    0.013537   -0.000000   -0.000000   -0.000000
   43.589273    0.006609    0.006609    0.006609    0.000000   -0.000000    0.000000
   45.146033    0.004654    0.004654    0.004654    0.000000   -0.000000    0.000000
   46.702793    0.016383    0.016383    0.016383   -0.000000   -0.000000   -0.000000
   48.259553    0.005109    0.005109    0.005109   -0.000000    0.000000   -0.000000
   49.816312    0.002498    0.002498    0.002498    0.000000    0.000000    0.000000
   51.373072    0.003295    0.003295    0.003295   -0.000000   -0.000000   -0.000000
   52.929832    0.013511    0.013511    0.013511   -0.000000   -0.000000   -0.000000
   54.486592    0.002906    0.002906    0.002906    0.000000    0.000000    0.000000
   56.043352    0.001057    0.001057    0.001057    0.000000    0.000000    0.000000
   57.600111    0.003729    0.003729    0.003729    0.000000    0.000000    0.000000
   59.156871    0.007035    0.007035    0.007035   -0.000000    0.000000   -0.000000
   60.713631    0.000641    0.000641    0.000641   -0.000000   -0.000000   -0.000000
   62.270391    0.004248    0.004248    0.004248   -0.000000   -0.000000   -0.000000
   63.827150    0.004990    0.004990    0.004990   -0.000000   -0.000000   -0.000000
   65.383910    0.001821    0.001821    0.001821   -0.000000   -0.000000   -0.000000
   66.940670    0.006247    0.006247    0.006247   -0.000000   -0.000000   -0.000000
   68.497430    0.000558    0.000558    0.000558    0.000000    0.000000    0.000000
   70.054189    0.002142    0.002142    0.002142    0.000000    0.000000    0.000000
   71.610949    0.002246    0.002246    0.002246   -0.000000    0.000000   -0.000000
   73.167709    0.001365    0.001365    0.001365    0.000000   -0.000000    0.000000
   74.724469    0.004377    0.004377    0.004377    0.000000    0.000000    0.000000
   76.281229    0.002148    0.002148    0.002148   -0.000000   -0.000000   -0.000000
   77.837988    0.002875    0.002875    0.002875   -0.000000    0.000000   -0.000000
   79.394748    0.002828    0.002828    0.002828   -0.000000   -0.000000    0.000000
   80.951508    0.000575    0.000575    0.000575    0.000000    0.000000    0.000000
   82.508268    0.002569    0.002569    0.002569    0.000000    0.000000    0.000000
   84.065027    0.000283    0.000283    0.000283    0.000000   -0.000000    0.000000
   85.621787    0.002013    0.002013    0.002013    0.000000    0.000000    0.000000
   87.178547    0.000821    0.000821    0.000821   -0.000000   -0.000000   -0.000000
   88.735307    0.002328    0.002328    0.002328   -0.000000   -0.000000   -0.000000
   90.292066    0.001281    0.001281    0.001281   -0.000000    0.000000   -0.000000
   91.848826    0.003126    0.003126    0.003126   -0.000000   -0.000000   -0.000000
[...]
  132.324580    0.000000    0.000000    0.000000    0.000000    0.000000    0.000000
  133.881340    0.000000    0.000000    0.000000    0.000000    0.000000    0.000000
  135.438100    0.000000    0.000000    0.000000    0.000000    0.000000    0.000000
  136.994859    0.000000    0.000000    0.000000    0.000000    0.000000    0.000000
  138.551619    0.000000    0.000000    0.000000    0.000000    0.000000    0.000000
  140.108379    0.000000    0.000000    0.000000    0.000000    0.000000    0.000000
  141.665139    0.000000    0.000000    0.000000    0.000000    0.000000    0.000000
  143.221898    0.000000    0.000000    0.000000    0.000000    0.000000    0.000000
  144.778658    0.000000    0.000000    0.000000    0.000000    0.000000    0.000000
  146.335418    0.000000    0.000000    0.000000    0.000000    0.000000    0.000000
  147.892178    0.000000    0.000000    0.000000    0.000000    0.000000    0.000000
  149.448937    0.000000    0.000000    0.000000    0.000000    0.000000    0.000000
  151.005697    0.000000    0.000000    0.000000    0.000000    0.000000    0.000000
  152.562457    0.000000    0.000000    0.000000    0.000000    0.000000    0.000000
  154.119217    0.000000    0.000000    0.000000    0.000000    0.000000    0.000000

  frequency dependent      REAL DIELECTRIC FUNCTION (independent particle, no local field effects) current-current (2nd set in vasprun.xml)
     E(ev)        X           Y           Z          XY          YZ          ZX
    0.000000    2.162274    2.162274    2.162274   -0.000000   -0.000000   -0.000000
    1.556760    2.181477    2.181484    2.181484   -0.000000   -0.000000   -0.000000
    3.113520    2.244488    2.244490    2.244490   -0.000000   -0.000000   -0.000000
    4.670279    2.371544    2.371544    2.371544   -0.000000   -0.000000   -0.000000
    6.227039    2.629839    2.629840    2.629840   -0.000000   -0.000000   -0.000000
    7.783799    3.236271    3.236262    3.236259    0.000008    0.000003    0.000006
    9.340559    2.973192    2.973193    2.973193   -0.000000   -0.000000   -0.000000
   10.897318    2.816816    2.816817    2.816817   -0.000000   -0.000000   -0.000000
   12.454078    1.793779    1.793779    1.793779    0.000000    0.000000    0.000000
   14.010838   -0.174028   -0.174028   -0.174028    0.000000   -0.000000    0.000000
   15.567598    0.381922    0.381922    0.381922   -0.000000    0.000000   -0.000000
   17.124357    0.052598    0.052598    0.052598    0.000000    0.000000    0.000000
   18.681117    0.242865    0.242865    0.242865   -0.000000    0.000000    0.000000
   20.237877    0.317014    0.317014    0.317014   -0.000000   -0.000000   -0.000000
   21.794637    0.160915    0.160915    0.160915    0.000000    0.000000    0.000000
   23.351396    0.369331    0.369331    0.369331   -0.000000    0.000000   -0.000000
   24.908156    0.387301    0.387301    0.387301   -0.000000   -0.000000   -0.000000
   26.464916    0.550237    0.550237    0.550237   -0.000000    0.000000   -0.000000
   28.021676    0.572422    0.572423    0.572423    0.000000    0.000000    0.000000
   29.578436    0.657997    0.657997    0.657997    0.000000    0.000000    0.000000
   31.135195    0.645062    0.645062    0.645062   -0.000000   -0.000000   -0.000000
   32.691955    0.713670    0.713670    0.713670    0.000000    0.000000    0.000000
   34.248715    0.722874    0.722874    0.722874    0.000000    0.000000    0.000000
   35.805475    0.753883    0.753883    0.753883    0.000000   -0.000000    0.000000
   37.362234    0.795949    0.795949    0.795949    0.000000    0.000000    0.000000
   38.918994    0.815436    0.815436    0.815436    0.000000    0.000000    0.000000
   40.475754    0.810050    0.810050    0.810050    0.000000    0.000000    0.000000
   42.032514    0.845732    0.845732    0.845732   -0.000000   -0.000000   -0.000000
   43.589273    0.851393    0.851393    0.851393    0.000000    0.000000    0.000000
   45.146033    0.863299    0.863299    0.863299    0.000000    0.000000    0.000000
   46.702793    0.878021    0.878021    0.878021    0.000000    0.000000    0.000000
   48.259553    0.881443    0.881443    0.881443    0.000000    0.000000    0.000000
   49.816312    0.888923    0.888923    0.888923    0.000000    0.000000    0.000000
   51.373072    0.900978    0.900978    0.900978    0.000000    0.000000    0.000000
   52.929832    0.906836    0.906836    0.906836    0.000000    0.000000    0.000000
   54.486592    0.906900    0.906900    0.906900    0.000000    0.000000    0.000000
   56.043352    0.916706    0.916706    0.916706    0.000000   -0.000000    0.000000
   57.600111    0.922857    0.922857    0.922857    0.000000    0.000000    0.000000
   59.156871    0.929324    0.929324    0.929324    0.000000    0.000000    0.000000
   60.713631    0.929096    0.929096    0.929096    0.000000    0.000000    0.000000
   62.270391    0.934002    0.934002    0.934002    0.000000   -0.000000    0.000000
   63.827150    0.938618    0.938618    0.938618   -0.000000    0.000000   -0.000000
   65.383910    0.940225    0.940225    0.940225    0.000000    0.000000    0.000000
   66.940670    0.943557    0.943557    0.943557    0.000000    0.000000    0.000000
   68.497430    0.946945    0.946945    0.946945   -0.000000   -0.000000   -0.000000
   70.054189    0.947709    0.947709    0.947709   -0.000000   -0.000000   -0.000000
   71.610949    0.950590    0.950590    0.950590    0.000000    0.000000    0.000000
   73.167709    0.953634    0.953634    0.953634    0.000000    0.000000    0.000000
   74.724469    0.954019    0.954019    0.954019    0.000000    0.000000    0.000000
   76.281229    0.956732    0.956732    0.956732    0.000000    0.000000    0.000000
   77.837988    0.958973    0.958973    0.958973    0.000000    0.000000    0.000000
   79.394748    0.960949    0.960949    0.960949    0.000000    0.000000    0.000000
   80.951508    0.961782    0.961782    0.961782    0.000000    0.000000    0.000000
   82.508268    0.962962    0.962962    0.962962    0.000000    0.000000    0.000000
   84.065027    0.964905    0.964905    0.964905    0.000000    0.000000    0.000000
   85.621787    0.965143    0.965143    0.965143    0.000000    0.000000    0.000000
   87.178547    0.967058    0.967058    0.967058    0.000000   -0.000000    0.000000
   88.735307    0.968550    0.968550    0.968550    0.000000    0.000000    0.000000
   90.292066    0.969370    0.969370    0.969370    0.000000    0.000000    0.000000
   91.848826    0.970424    0.970424    0.970424    0.000000    0.000000    0.000000
[...]
  132.324580    0.985592    0.985592    0.985592    0.000000    0.000000    0.000000
  133.881340    0.985971    0.985971    0.985971    0.000000    0.000000    0.000000
  135.438100    0.986327    0.986327    0.986327    0.000000    0.000000    0.000000
  136.994859    0.986665    0.986665    0.986665    0.000000    0.000000    0.000000
  138.551619    0.986988    0.986988    0.986988    0.000000    0.000000    0.000000
  140.108379    0.987296    0.987296    0.987296    0.000000    0.000000    0.000000
  141.665139    0.987593    0.987593    0.987593    0.000000    0.000000    0.000000
  143.221898    0.987878    0.987878    0.987878    0.000000    0.000000    0.000000
  144.778658    0.988152    0.988152    0.988152    0.000000    0.000000    0.000000
  146.335418    0.988416    0.988416    0.988416    0.000000    0.000000    0.000000
  147.892178    0.988671    0.988671    0.988671    0.000000    0.000000    0.000000
  149.448937    0.988917    0.988917    0.988917    0.000000    0.000000    0.000000
  151.005697    0.989154    0.989154    0.989154    0.000000    0.000000    0.000000
  152.562457    0.989384    0.989384    0.989384    0.000000    0.000000    0.000000
  154.119217    0.989606    0.989606    0.989606    0.000000    0.000000    0.000000

 The outermost node in the dielectric function lies at epsilon=  21.6