 vasp.5.4.4.18Apr17-6-g9f103f2a35 (build Nov 03 2018 10:20:46) complex

 executed on             LinuxIFC date 2018.12.04  16:40:33

 INCAR:
 POTCAR:    PAW_PBE Ne_GW 22Sep2014

 POTCAR:    PAW_PBE Ne_GW 22Sep2014

  PAW_PBE Ne_GW 22Sep2014               :

 POSCAR: Ne_FCC
  positions in direct lattice
  velocities in cartesian coordinates
 exchange correlation table for  LEXCH =        8
   RHO(1)=    0.500       N(1)  =     2000
   RHO(2)=  100.500       N(2)  =     4000

 ion  position               nearest neighbor table
   1  0.000  0.000  0.000-

IMPORTANT INFORMATION: All symmetrisations will be switched off!
NOSYMM: (Re-)initialisation of all symmetry stuff for point group C_1.

 KPOINTS: k-points for bandstructure L-G-X-U K-G
  interpolating k-points between supplied coordinates
  k-points in reciprocal lattice
Space group operators:
 irot       det(A)        alpha          n_x          n_y          n_z        tau_x        tau_y        tau_z
    1     1.000000     0.000000     1.000000     0.000000     0.000000     0.000000     0.000000     0.000000

 SYSTEM =  Og_FCC
 POSCAR =  Ne_FCC

 Startparameter for this run:
   NWRITE =      1    write-flag & timer
   PREC   = accura    normal or accurate (medium, high low for compatibility)
   ISTART =      1    job   : 0-new  1-cont  2-samecut
   ICHARG =     11    charge: 1-file 2-atom 10-const
   ISPIN  =      1    spin polarized calculation?
   LNONCOLLINEAR =      T non collinear calculations
   LSORBIT =      T    spin-orbit coupling
   INIWAV =      1    electr: 0-lowe 1-rand  2-diag
   LASPH  =      F    aspherical Exc in radial PAW
   METAGGA=      F    non-selfconsistent MetaGGA calc.

 Electronic Relaxation 1
   ENCUT  =  200.0 eV  14.70 Ry    3.83 a.u.   3.43  3.43  3.43*2*pi/ulx,y,z
   ENINI  =  200.0     initial cutoff
   ENAUG  =  755.8 eV  augmentation charge cutoff
   NELM   =      1;   NELMIN=  2; NELMDL=  0     # of ELM steps
   EDIFF  = 0.1E-07   stopping-criterion for ELM
   LREAL  =      F    real-space projection
   NLSPLINE    = F    spline interpolate recip. space projectors
   LCOMPAT=      F    compatible to vasp.4.4
   GGA_COMPAT  = F    GGA compatible to vasp.4.4-vasp.4.6
   LMAXPAW     = -100 max onsite density
   LMAXMIX     =    2 max onsite mixed and CHGCAR
   VOSKOWN=      0    Vosko Wilk Nusair interpolation
   ROPT   =    0.00000
 Ionic relaxation
   EDIFFG = 0.1E-04   stopping-criterion for IOM
   NSW    =      1    number of steps for IOM
   NBLOCK =      1;   KBLOCK =      1    inner block; outer block
   IBRION =     -1    ionic relax: 0-MD 1-quasi-New 2-CG
   NFREE  =      5    steps in history (QN), initial steepest desc. (CG)
   ISIF   =      3    stress and relaxation
   IWAVPR =     10    prediction:  0-non 1-charg 2-wave 3-comb
   ISYM   =      0    0-nonsym 1-usesym 2-fastsym
   LCORR  =      T    Harris-Foulkes like correction to forces

   POTIM  = 0.1000    time-step for ionic-motion
   TEIN   =    0.0    initial temperature
   TEBEG  =    0.0;   TEEND  =   0.0 temperature during run
   SMASS  =  -3.00    Nose mass-parameter (am)
   estimated Nose-frequenzy (Omega)   =  0.10E-29 period in steps =****** mass=  -0.202E-27a.u.
   SCALEE = 1.0000    scale energy and forces
   NPACO  =    256;   APACO  = 16.0  distance and # of slots for P.C.
   PSTRESS=    0.0 pullay stress

  Mass of Ions in am
   POMASS =  20.18
  Ionic Valenz
   ZVAL   =   8.00
  Atomic Wigner-Seitz radii
  virtual crystal weights
   VCA    =   1.00
   NELECT =       8.0000    total number of electrons
   NUPDOWN=      -1.0000    fix difference up-down

 DOS related values:
   EMIN   =  10.00;   EMAX   =-10.00  energy-range for DOS
   EFERMI =   0.00
   ISMEAR =     0;   SIGMA  =   0.00  broadening in eV -4-tet -1-fermi 0-gaus

 Electronic relaxation 2 (details)
   IALGO  =     38    algorithm
   LDIAG  =      T    sub-space diagonalisation (order eigenvalues)
   LSUBROT=      F    optimize rotation matrix (better conditioning)
   TURBO    =      0    0=normal 1=particle mesh
   IRESTART =      0    0=no restart 2=restart with 2 vectors
   NREBOOT  =      0    no. of reboots
   NMIN     =      0    reboot dimension
   EREF     =   0.00    reference energy to select bands
   IMIX   =      4    mixing-type and parameters
     AMIX     =   0.40;   BMIX     =  1.00
     AMIX_MAG =   1.60;   BMIX_MAG =  1.00
     AMIN     =   0.10
     WC   =   100.;   INIMIX=   1;  MIXPRE=   1;  MAXMIX=  50

 Intra band minimization:
   WEIMIN = 0.0000     energy-eigenvalue tresh-hold
   EBREAK =  0.21E-09  absolut break condition
   DEPER  =   0.30     relativ break condition

   TIME   =   0.40     timestep for ELM

  volume/ion in A,a.u.               =      18.60       125.55
  Fermi-wavevector in a.u.,A,eV,Ry     =   1.235672  2.335082 20.774542  1.526886
  Thomas-Fermi vector in A             =   2.370312

 Write flags
   LWAVE        =      F    write WAVECAR
   LDOWNSAMPLE  =      F    k-point downsampling of WAVECAR
   LCHARG       =      F    write CHGCAR
   LVTOT        =      F    write LOCPOT, total local potential
   LVHAR        =      F    write LOCPOT, Hartree potential only
   LELF         =      F    write electronic localiz. function (ELF)
   LORBIT       =      0    0 simple, 1 ext, 2 COOP (PROOUT), +10 PAW based schemes

 Dipole corrections
   LMONO  =      F    monopole corrections only (constant potential shift)
   LDIPOL =      F    correct potential (dipole corrections)
   IDIPOL =      0    1-x, 2-y, 3-z, 4-all directions
   EPSILON=  1.0000000 bulk dielectric constant

 Exchange correlation treatment:
   GGA     =    PE    GGA type
   VOSKOWN=      0    Vosko Wilk Nusair interpolation
   LHFCALC =     F    Hartree Fock is set to
   LHFONE  =     F    Hartree Fock one center treatment
   AEXX    =    0.0000 exact exchange contribution

 Linear response parameters
   LEPSILON=     F    determine dielectric tensor
   LRPA    =     F    only Hartree local field effects (RPA)
   LNABLA  =     F    use nabla operator in PAW spheres
   LVEL    =     F    velocity operator in full k-point grid
   LINTERFAST=   F  fast interpolation
   KINTER  =     0    interpolate to denser k-point grid
   CSHIFT  =0.1000    complex shift for real part using Kramers Kronig
   OMEGAMAX=  -1.0    maximum frequency
   DEG_THRESHOLD= 0.2000000E-02 threshold for treating states as degnerate
   RTIME   =   -0.100 relaxation time in fs
  (WPLASMAI=    0.000 imaginary part of plasma frequency in eV, 0.658/RTIME)
   DFIELD  = 0.0000000 0.0000000 0.0000000 field for delta impulse in time

 Orbital magnetization related:
   ORBITALMAG=     F  switch on orbital magnetization
   LCHIMAG   =     F  perturbation theory with respect to B field
   DQ        =  0.001000  dq finite difference perturbation B field
   LLRAUG    =     F  two centre corrections for induced B field

 Static calculation
 charge density and potential remain constant during run
 non collinear spin polarized calculation
 Variant of blocked Davidson
 Davidson routine will perform the subspace rotation
 perform sub-space diagonalisation
    after iterative eigenvector-optimisation
 no mixing
 using additional bands            8
 reciprocal scheme for non local part
 use partial core corrections
 calculate Harris-corrections to forces
   (improved forces if not selfconsistent)
 use gradient corrections
 WARNING: stress and forces are not correct
  (second derivative of E(xc) not defined)
 use of overlap-Matrix (Vanderbilt PP)
 Gauss-broadening in eV      SIGMA  =   0.00

  energy-cutoff  :      200.00
  volume of cell :       18.60
      direct lattice vectors                 reciprocal lattice vectors
     2.974220868  0.000000000  0.000000000     0.336222508 -0.194118156 -0.137262264
     1.487110434  2.575750828  0.000000000     0.000000000  0.388236311 -0.137262264
     1.487110434  0.858583609  2.428441169     0.000000000  0.000000000  0.411786793

  length of vectors
     2.974220868  2.974220868  2.974220868     0.411786793  0.411786793  0.411786793

 old parameters found on file WAVECAR:
  energy-cutoff  :      200.00
  volume of cell :       18.60
      direct lattice vectors                 reciprocal lattice vectors
     2.974220868  0.000000000  0.000000000     0.336222508 -0.194118156 -0.137262264
     1.487110434  2.575750828  0.000000000     0.000000000  0.388236311 -0.137262264
     1.487110434  0.858583609  2.428441169     0.000000000  0.000000000  0.411786793

  length of vectors

 k-points in units of 2pi/SCALE and weight: k-points for bandstructure L-G-X-U K-G
   0.16811125  0.09705908  0.06863113       0.008
   0.16268831  0.09392814  0.06641722       0.008
   0.15726537  0.09079720  0.06420332       0.008
   0.15184242  0.08766626  0.06198941       0.008
   0.14641948  0.08453533  0.05977550       0.008
   0.14099654  0.08140439  0.05756159       0.008
   0.13557359  0.07827345  0.05534769       0.008
   0.13015065  0.07514251  0.05313378       0.008
   0.12472770  0.07201157  0.05091987       0.008
   0.11930476  0.06888064  0.04870596       0.008
   0.11388182  0.06574970  0.04649206       0.008
   0.10845887  0.06261876  0.04427815       0.008
   0.10303593  0.05948782  0.04206424       0.008
   0.09761299  0.05635688  0.03985033       0.008
   0.09219004  0.05322595  0.03763643       0.008
   0.08676710  0.05009501  0.03542252       0.008
   0.08134416  0.04696407  0.03320861       0.008
   0.07592121  0.04383313  0.03099470       0.008
   0.07049827  0.04070219  0.02878080       0.008
   0.06507532  0.03757126  0.02656689       0.008
   0.05965238  0.03444032  0.02435298       0.008
   0.05422944  0.03130938  0.02213907       0.008
   0.04880649  0.02817844  0.01992517       0.008
   0.04338355  0.02504750  0.01771126       0.008
   0.03796061  0.02191657  0.01549735       0.008
   0.03253766  0.01878563  0.01328344       0.008
   0.02711472  0.01565469  0.01106954       0.008
   0.02169177  0.01252375  0.00885563       0.008
   0.01626883  0.00939281  0.00664172       0.008
   0.01084589  0.00626188  0.00442781       0.008
   0.00542294  0.00313094  0.00221391       0.008
   0.00000000  0.00000000  0.00000000       0.008
   0.00000000  0.00000000  0.00000000       0.008
   0.00000000  0.00626188  0.00442781       0.008
   0.00000000  0.01252375  0.00885563       0.008
   0.00000000  0.01878563  0.01328344       0.008
   0.00000000  0.02504750  0.01771126       0.008
   0.00000000  0.03130938  0.02213907       0.008
   0.00000000  0.03757126  0.02656689       0.008
   0.00000000  0.04383313  0.03099470       0.008
   0.00000000  0.05009501  0.03542252       0.008
   0.00000000  0.05635688  0.03985033       0.008
   0.00000000  0.06261876  0.04427815       0.008
   0.00000000  0.06888064  0.04870596       0.008
   0.00000000  0.07514251  0.05313378       0.008
   0.00000000  0.08140439  0.05756159       0.008
   0.00000000  0.08766626  0.06198941       0.008
   0.00000000  0.09392814  0.06641722       0.008
   0.00000000  0.10019002  0.07084504       0.008
   0.00000000  0.10645189  0.07527285       0.008
   0.00000000  0.11271377  0.07970067       0.008
   0.00000000  0.11897564  0.08412848       0.008
   0.00000000  0.12523752  0.08855630       0.008
[...]
   0.03225806  0.03225806  0.03225806       0.008
   0.01612903  0.01612903  0.01612903       0.008
   0.00000000  0.00000000  0.00000000       0.008
   0.00000000  0.00000000  0.00000000       0.008
   0.00000000  0.01612903  0.01612903       0.008
   0.00000000  0.03225806  0.03225806       0.008
   0.00000000  0.04838710  0.04838710       0.008
   0.00000000  0.06451613  0.06451613       0.008
   0.00000000  0.08064516  0.08064516       0.008
   0.00000000  0.09677419  0.09677419       0.008
   0.00000000  0.11290323  0.11290323       0.008
   0.00000000  0.12903226  0.12903226       0.008
   0.00000000  0.14516129  0.14516129       0.008
   0.00000000  0.16129032  0.16129032       0.008
   0.00000000  0.17741935  0.17741935       0.008
   0.00000000  0.19354839  0.19354839       0.008
   0.00000000  0.20967742  0.20967742       0.008
   0.00000000  0.22580645  0.22580645       0.008
   0.00000000  0.24193548  0.24193548       0.008
   0.00000000  0.25806452  0.25806452       0.008
   0.00000000  0.27419355  0.27419355       0.008
   0.00000000  0.29032258  0.29032258       0.008
   0.00000000  0.30645161  0.30645161       0.008
   0.00000000  0.32258065  0.32258065       0.008
   0.00000000  0.33870968  0.33870968       0.008
   0.00000000  0.35483871  0.35483871       0.008
   0.00000000  0.37096774  0.37096774       0.008
   0.00000000  0.38709677  0.38709677       0.008
   0.00000000  0.40322581  0.40322581       0.008
   0.00000000  0.41935484  0.41935484       0.008
   0.00000000  0.43548387  0.43548387       0.008
[...]
   0.16935484  0.33870968  0.16935484       0.008
   0.15725806  0.31451613  0.15725806       0.008
   0.14516129  0.29032258  0.14516129       0.008
   0.13306452  0.26612903  0.13306452       0.008
   0.12096774  0.24193548  0.12096774       0.008
   0.10887097  0.21774194  0.10887097       0.008
   0.09677419  0.19354839  0.09677419       0.008
   0.08467742  0.16935484  0.08467742       0.008
   0.07258065  0.14516129  0.07258065       0.008
   0.06048387  0.12096774  0.06048387       0.008
   0.04838710  0.09677419  0.04838710       0.008
   0.03629032  0.07258065  0.03629032       0.008
   0.02419355  0.04838710  0.02419355       0.008
   0.01209677  0.02419355  0.01209677       0.008
   0.00000000  0.00000000  0.00000000       0.008

 position of ions in fractional coordinates (direct lattice)
   0.00000000  0.00000000  0.00000000

 position of ions in cartesian coordinates  (Angst):
   0.00000000  0.00000000  0.00000000

 Euler angles ALPHA=     0.0000000  BETA=     0.0000000

 transformation matrix from SAXIS to cartesian coordinates
     1.0000000 m_x     0.0000000 m_y     0.0000000 m_z
     0.0000000 m_x     1.0000000 m_y     0.0000000 m_z
     0.0000000 m_x     0.0000000 m_y     1.0000000 m_z

 transformation matrix from cartesian coordinates to SAXIS
     1.0000000 m_x     0.0000000 m_y     0.0000000 m_z
     0.0000000 m_x     1.0000000 m_y     0.0000000 m_z
     0.0000000 m_x     0.0000000 m_y     1.0000000 m_z

 k-point  1 :   0.5000 0.5000 0.5000  plane waves:     240
 k-point  2 :   0.4839 0.4839 0.4839  plane waves:     240
 k-point  3 :   0.4677 0.4677 0.4677  plane waves:     240
 k-point  4 :   0.4516 0.4516 0.4516  plane waves:     240
 k-point  5 :   0.4355 0.4355 0.4355  plane waves:     240
 k-point  6 :   0.4194 0.4194 0.4194  plane waves:     240
 k-point  7 :   0.4032 0.4032 0.4032  plane waves:     246
 k-point  8 :   0.3871 0.3871 0.3871  plane waves:     234
 k-point  9 :   0.3710 0.3710 0.3710  plane waves:     234
 k-point 10 :   0.3548 0.3548 0.3548  plane waves:     234
 k-point 11 :   0.3387 0.3387 0.3387  plane waves:     234
 k-point 12 :   0.3226 0.3226 0.3226  plane waves:     234
 k-point 13 :   0.3065 0.3065 0.3065  plane waves:     234
 k-point 14 :   0.2903 0.2903 0.2903  plane waves:     240
 k-point 15 :   0.2742 0.2742 0.2742  plane waves:     252
 k-point 16 :   0.2581 0.2581 0.2581  plane waves:     246
 k-point 17 :   0.2419 0.2419 0.2419  plane waves:     246
 k-point 18 :   0.2258 0.2258 0.2258  plane waves:     246
 k-point 19 :   0.2097 0.2097 0.2097  plane waves:     246
 k-point 20 :   0.1935 0.1935 0.1935  plane waves:     244
 k-point 21 :   0.1774 0.1774 0.1774  plane waves:     244
 k-point 22 :   0.1613 0.1613 0.1613  plane waves:     244
 k-point 23 :   0.1452 0.1452 0.1452  plane waves:     244
 k-point 24 :   0.1290 0.1290 0.1290  plane waves:     244
 k-point 25 :   0.1129 0.1129 0.1129  plane waves:     244
 k-point 26 :   0.0968 0.0968 0.0968  plane waves:     244
 k-point 27 :   0.0806 0.0806 0.0806  plane waves:     244
 k-point 28 :   0.0645 0.0645 0.0645  plane waves:     244
 k-point 29 :   0.0484 0.0484 0.0484  plane waves:     232
 k-point 30 :   0.0323 0.0323 0.0323  plane waves:     232
 k-point 31 :   0.0161 0.0161 0.0161  plane waves:     226
 k-point 32 :   0.0000 0.0000 0.0000  plane waves:     226
 k-point 33 :   0.0000 0.0000 0.0000  plane waves:     226
 k-point 34 :   0.0000 0.0161 0.0161  plane waves:     226
 k-point 35 :   0.0000 0.0323 0.0323  plane waves:     234
 k-point 36 :   0.0000 0.0484 0.0484  plane waves:     234
 k-point 37 :   0.0000 0.0645 0.0645  plane waves:     250
 k-point 38 :   0.0000 0.0806 0.0806  plane waves:     250
 k-point 39 :   0.0000 0.0968 0.0968  plane waves:     250
 k-point 40 :   0.0000 0.1129 0.1129  plane waves:     250
 k-point 41 :   0.0000 0.1290 0.1290  plane waves:     250
 k-point 42 :   0.0000 0.1452 0.1452  plane waves:     250
 k-point 43 :   0.0000 0.1613 0.1613  plane waves:     250
 k-point 44 :   0.0000 0.1774 0.1774  plane waves:     250
 k-point 45 :   0.0000 0.1935 0.1935  plane waves:     258
 k-point 46 :   0.0000 0.2097 0.2097  plane waves:     250
 k-point 47 :   0.0000 0.2258 0.2258  plane waves:     250
 k-point 48 :   0.0000 0.2419 0.2419  plane waves:     250
 k-point 49 :   0.0000 0.2581 0.2581  plane waves:     250
 k-point 50 :   0.0000 0.2742 0.2742  plane waves:     250
 k-point 51 :   0.0000 0.2903 0.2903  plane waves:     250
 k-point 52 :   0.0000 0.3065 0.3065  plane waves:     250
 k-point 53 :   0.0000 0.3226 0.3226  plane waves:     250
 k-point 54 :   0.0000 0.3387 0.3387  plane waves:     258
 k-point 55 :   0.0000 0.3548 0.3548  plane waves:     242
 k-point 56 :   0.0000 0.3710 0.3710  plane waves:     242
 k-point 57 :   0.0000 0.3871 0.3871  plane waves:     234
 k-point 58 :   0.0000 0.4032 0.4032  plane waves:     234
 k-point 59 :   0.0000 0.4194 0.4194  plane waves:     234
 k-point 60 :   0.0000 0.4355 0.4355  plane waves:     232
[...]
 k-point 85 :   0.1613 0.5806 0.5806  plane waves:     228
 k-point 86 :   0.1694 0.5847 0.5847  plane waves:     228
 k-point 87 :   0.1774 0.5887 0.5887  plane waves:     228
 k-point 88 :   0.1855 0.5927 0.5927  plane waves:     228
 k-point 89 :   0.1935 0.5968 0.5968  plane waves:     228
 k-point 90 :   0.2016 0.6008 0.6008  plane waves:     236
 k-point 91 :   0.2097 0.6048 0.6048  plane waves:     228
 k-point 92 :   0.2177 0.6089 0.6089  plane waves:     232
 k-point 93 :   0.2258 0.6129 0.6129  plane waves:     232
 k-point 94 :   0.2339 0.6169 0.6169  plane waves:     232
 k-point 95 :   0.2419 0.6210 0.6210  plane waves:     232
 k-point 96 :   0.2500 0.6250 0.6250  plane waves:     232
 k-point 97 :   0.3750 0.7500 0.3750  plane waves:     232
 k-point 98 :   0.3629 0.7258 0.3629  plane waves:     232
 k-point 99 :   0.3508 0.7016 0.3508  plane waves:     232
 k-point ** :   0.3387 0.6774 0.3387  plane waves:     232
 k-point ** :   0.3266 0.6532 0.3266  plane waves:     244
 k-point ** :   0.3145 0.6290 0.3145  plane waves:     244
 k-point ** :   0.3024 0.6048 0.3024  plane waves:     244
 k-point ** :   0.2903 0.5806 0.2903  plane waves:     244
 k-point ** :   0.2782 0.5565 0.2782  plane waves:     242
 k-point ** :   0.2661 0.5323 0.2661  plane waves:     242
 k-point ** :   0.2540 0.5081 0.2540  plane waves:     242
 k-point ** :   0.2419 0.4839 0.2419  plane waves:     242
 k-point ** :   0.2298 0.4597 0.2298  plane waves:     242
 k-point ** :   0.2177 0.4355 0.2177  plane waves:     242
 k-point ** :   0.2056 0.4113 0.2056  plane waves:     242
 k-point ** :   0.1935 0.3871 0.1935  plane waves:     250
 k-point ** :   0.1815 0.3629 0.1815  plane waves:     250
 k-point ** :   0.1694 0.3387 0.1694  plane waves:     254
 k-point ** :   0.1573 0.3145 0.1573  plane waves:     254
 k-point ** :   0.1452 0.2903 0.1452  plane waves:     242
 k-point ** :   0.1331 0.2661 0.1331  plane waves:     246
 k-point ** :   0.1210 0.2419 0.1210  plane waves:     246
 k-point ** :   0.1089 0.2177 0.1089  plane waves:     246
 k-point ** :   0.0968 0.1935 0.0968  plane waves:     246
 k-point ** :   0.0847 0.1694 0.0847  plane waves:     246
 k-point ** :   0.0726 0.1452 0.0726  plane waves:     246
 k-point ** :   0.0605 0.1210 0.0605  plane waves:     238
 k-point ** :   0.0484 0.0968 0.0484  plane waves:     238
 k-point ** :   0.0363 0.0726 0.0363  plane waves:     238
 k-point ** :   0.0242 0.0484 0.0242  plane waves:     234
 k-point ** :   0.0121 0.0242 0.0121  plane waves:     226
 k-point ** :   0.0000 0.0000 0.0000  plane waves:     226

 maximum and minimum number of plane-waves per node :       258      226

 maximum number of plane-waves:       258
 maximum index in each direction:
   IXMAX=    3   IYMAX=    3   IZMAX=    3
   IXMIN=   -3   IYMIN=   -4   IZMIN=   -4

 serial   3D FFT for wavefunctions
 parallel 3D FFT for charge:
    minimum data exchange during FFTs selected (reduces bandwidth)

 initial charge density was supplied:
 number of electron       8.0000002 magnetization      -0.0000000     -0.0000000      0.0000000
 keeping initial charge density in first step

 Maximum index for augmentation-charges         5679 (set IRDMAX)

 First call to EWALD:  gamma=   0.669
 Maximum number of real-space cells 3x 3x 3
 Maximum number of reciprocal cells 3x 3x 3

--------------------------------------- Iteration      1(   1)  ---------------------------------------

 eigenvalue-minimisations  :  3656
 total energy-change (2. order) : 0.4739274E+02  (-0.7728623E+02)
 number of electron       8.0000002 magnetization      -0.0000000     -0.0000000      0.0000000
 augmentation part        8.0000002 magnetization      -0.0000000     -0.0000000      0.0000000

 Free energy of the ion-electron system (eV)
  alpha Z        PSCENC =        16.68370675
  Ewald energy   TEWEN  =      -502.27794943
  -Hartree energ DENC   =      -278.76613378
  -exchange      EXHF   =         0.00000000
  -V(xc)+E(xc)   XCENC  =        42.61547205
  PAW double counting   =       919.85311253     -934.35377435
  entropy T*S    EENTRO =         0.00000000
  eigenvalues    EBANDS =      -154.07887770
  atomic energy  EATOM  =       937.71718759
  Solvation  Ediel_sol  =         0.00000000
  free energy    TOTEN  =        47.39274365 eV

  energy without entropy =       47.39274365  energy(sigma->0) =       47.39274365

 average (electrostatic) potential at core
  the test charge radii are     0.8311
  (the norm of the test charge is              1.0000)
       1 -85.8046

 E-fermi :  -4.6049     XC(G=0):  -7.8648     alpha+bet : -2.5602

 k-point     1 :       0.5000    0.5000    0.5000
  band No.  band energies     occupation
      1     -44.8455      1.00000
      2     -44.8455      1.00000
      3     -12.1114      1.00000
      4     -12.1114      1.00000
      5     -11.8710      1.00000
      6     -11.8710      1.00000
      7     -10.1894      1.00000
      8     -10.1894      1.00000
      9       7.2442      0.00000
     10       7.2442      0.00000
     11      10.0957      0.00000
     12      10.0957      0.00000

[...]

 k-point   128 :       0.0000    0.0000    0.0000
  band No.  band energies     occupation
      1     -44.7819      1.00000
      2     -44.7819      1.00000
      3      -9.7872      1.00000
      4      -9.7872      1.00000
      5      -9.7558      1.00000
      6      -9.7558      1.00000
      7      -9.6077      1.00000
      8      -9.6077      1.00000
      9       0.4621      0.00000
     10       0.4621      0.00000
     11      20.9017      0.00000
     12      20.9017      0.00000

 soft charge-density along one line, spin component           1
         0         1         2         3         4         5         6         7         8         9
 total charge-density along one line

[...]

 soft charge-density along one line, spin component           4
         0         1         2         3         4         5         6         7         8         9
 total charge-density along one line

------------------------ aborting loop because EDIFF is reached ----------------------------------------

         DFTD3 V3.0 Rev 1
 IVDW         = 12
 DF pbe
 parameters
 VDW_S6       =    1.0000
 VDW_S8       =    0.7875
 VDW_A1       =    0.4289
 VDW_A2       =    4.4407
 k1-k3        =   16.0000    1.3333   -4.0000
 VDW_RADIUS   =   50.2022 A
 VDW_CNRADIUS =   21.1671 A
 Edisp (eV)   -0.02364

 E6    (eV) :    -0.0187
 E8    (eV) :    -0.0049
 % E8        : 20.79

  FORCE on cell =-STRESS in cart. coord.  units (eV):
  Direction    XX          YY          ZZ          XY          YZ          ZX
  Alpha Z    16.68371    16.68371    16.68371
  Ewald    -167.42599  -167.42599  -167.42599    -0.00000    -0.00000    -0.00000
  Hartree    88.26620    89.83304    89.30660    -0.84897     0.00943    -0.39477
  E(xc)     -45.64481   -45.64439   -45.64541     0.00098     0.00105     0.00066
  Local     -88.21677   -90.74176   -91.18785     3.72526     1.31907     1.85832
  n-local  -203.48519  -200.28781  -204.65245     3.50388     4.44095     2.32000
  augment    28.46166    28.30296    28.68049    -0.29520    -0.38185    -0.23066
  Kinetic   224.65671   223.43866   225.95146    -0.64036    -1.90262    -1.09277
  Fock        0.00000     0.00000     0.00000     0.00000     0.00000     0.00000
  vdW        -0.02684    -0.02684    -0.02684    -0.00000    -0.00000    -0.00000
  Total    -146.73132  -145.86843  -148.31627     5.44559     3.48602     2.46077
  in kB  -12636.55646-12562.24418-12773.05361   468.97657   300.21757   211.92243

 VOLUME and BASIS-vectors are now :
  energy-cutoff  :      200.00
  volume of cell :       18.60
      direct lattice vectors                 reciprocal lattice vectors
     2.974220868  0.000000000  0.000000000     0.336222508 -0.194118156 -0.137262264
     1.487110434  2.575750828  0.000000000     0.000000000  0.388236311 -0.137262264
     1.487110434  0.858583609  2.428441169     0.000000000  0.000000000  0.411786793

  length of vectors
     2.974220868  2.974220868  2.974220868     0.411786793  0.411786793  0.411786793

 FORCES acting on ions
    electron-ion (+dipol)            ewald-force                    non-local-force                 convergence-correction
   -.433E-06 0.105E-05 -.114E-05   0.132E-14 -.413E-16 -.172E-15   -.460E-07 0.372E-06 -.554E-06   0.256E-06 -.617E-06 0.682E-06
   -.433E-06 0.105E-05 -.114E-05   0.132E-14 -.413E-16 -.172E-15   -.460E-07 0.372E-06 -.554E-06   0.256E-06 -.617E-06 0.682E-06

 POSITION                                       TOTAL-FORCE (eV/Angst)
      0.00000      0.00000      0.00000        -0.000000      0.000001     -0.000001
    total drift:                               -0.000000      0.000001     -0.000001

  FREE ENERGIE OF THE ION-ELECTRON SYSTEM (eV)
  free  energy   TOTEN  =        47.36910766 eV

  energy  without entropy=       47.36910766  energy(sigma->0) =       47.36910766

 Spin-Orbit-Coupling matrix elements

 Ion:    1  E_soc:     -0.0000165
 l=   1
     0.0000000    -0.0000123     0.0000016
    -0.0000123     0.0000000     0.0000025
     0.0000016     0.0000025     0.0000000
 l=   2
     0.0000000     0.0000000     0.0000000     0.0000000    -0.0000000
     0.0000000     0.0000000    -0.0000000     0.0000000    -0.0000000
     0.0000000    -0.0000000     0.0000000    -0.0000000     0.0000000
     0.0000000     0.0000000    -0.0000000     0.0000000     0.0000000
    -0.0000000    -0.0000000     0.0000000     0.0000000     0.0000000
 l=   3
     0.0000000     0.0000000     0.0000000     0.0000000     0.0000000     0.0000000     0.0000000
     0.0000000     0.0000000     0.0000000     0.0000000     0.0000000     0.0000000     0.0000000
     0.0000000     0.0000000     0.0000000     0.0000000     0.0000000     0.0000000     0.0000000
     0.0000000     0.0000000     0.0000000     0.0000000     0.0000000     0.0000000     0.0000000
     0.0000000     0.0000000     0.0000000     0.0000000     0.0000000     0.0000000     0.0000000
     0.0000000     0.0000000     0.0000000     0.0000000     0.0000000     0.0000000     0.0000000
     0.0000000     0.0000000     0.0000000     0.0000000     0.0000000     0.0000000     0.0000000