 vasp.5.4.4.18Apr17-6-g9f103f2a35 (build Nov 03 2018 10:20:46) complex

 executed on             LinuxIFC date 2018.12.20  14:30:03

 INCAR:
 POTCAR:    PAW_PBE Ar_GW 21Aug2013

 POTCAR:    PAW_PBE Ar_GW 21Aug2013
   VRHFIN =Ar: s2p6

   TITEL  = PAW_PBE Ar_GW 21Aug2013
   POMASS =   39.949; ZVAL   =    8.000    mass and valenz
   ENMAX  =  290.599; ENMIN  =  217.949 eV

  PAW_PBE Ar_GW 21Aug2013               :

 POSCAR: Ar_FCC
  positions in direct lattice
  velocities in cartesian coordinates
 exchange correlation table for  LEXCH =        8
   RHO(1)=    0.500       N(1)  =     2000
   RHO(2)=  100.500       N(2)  =     4000

 ion  position               nearest neighbor table
   1  0.000  0.000  0.000-

IMPORTANT INFORMATION: All symmetrisations will be switched off!
NOSYMM: (Re-)initialisation of all symmetry stuff for point group C_1.

 KPOINTS: k-points

Automatic generation of k-mesh.
Space group operators:
 irot       det(A)        alpha          n_x          n_y          n_z        tau_x        tau_y        tau_z
    1     1.000000     0.000000     1.000000     0.000000     0.000000     0.000000     0.000000     0.000000

 Subroutine IBZKPT returns following result:

 Found    216 irreducible k-points:

 Following reciprocal coordinates:
            Coordinates               Weight
  0.000000  0.000000  0.000000      1.000000
  0.166667  0.000000  0.000000      1.000000
  0.333333  0.000000  0.000000      1.000000
  0.500000  0.000000  0.000000      1.000000
 -0.333333 -0.000000 -0.000000      1.000000
 -0.166667 -0.000000 -0.000000      1.000000
  0.000000  0.166667  0.000000      1.000000
  0.166667  0.166667  0.000000      1.000000
  0.333333  0.166667  0.000000      1.000000
  0.500000  0.166667  0.000000      1.000000
 -0.333333  0.166667 -0.000000      1.000000
 -0.166667  0.166667 -0.000000      1.000000
  0.000000  0.333333  0.000000      1.000000
  0.166667  0.333333  0.000000      1.000000
  0.333333  0.333333  0.000000      1.000000
  0.500000  0.333333  0.000000      1.000000
 -0.333333  0.333333 -0.000000      1.000000
 -0.166667  0.333333  0.000000      1.000000
  0.000000  0.500000  0.000000      1.000000
  0.166667  0.500000  0.000000      1.000000
  0.333333  0.500000  0.000000      1.000000
  0.500000  0.500000  0.000000      1.000000
 -0.333333  0.500000  0.000000      1.000000
 -0.166667  0.500000  0.000000      1.000000
  0.000000 -0.333333 -0.000000      1.000000
  0.166667 -0.333333 -0.000000      1.000000
  0.333333 -0.333333  0.000000      1.000000
  0.500000 -0.333333  0.000000      1.000000
 -0.333333 -0.333333  0.000000      1.000000
 -0.166667 -0.333333 -0.000000      1.000000
  0.000000 -0.166667 -0.000000      1.000000
  0.166667 -0.166667  0.000000      1.000000
  0.333333 -0.166667  0.000000      1.000000
  0.500000 -0.166667  0.000000      1.000000
 -0.333333 -0.166667 -0.000000      1.000000
 -0.166667 -0.166667  0.000000      1.000000
  0.000000  0.000000  0.166667      1.000000
  0.166667  0.000000  0.166667      1.000000
  0.333333  0.000000  0.166667      1.000000
  0.500000  0.000000  0.166667      1.000000
 -0.333333 -0.000000  0.166667      1.000000
 -0.166667 -0.000000  0.166667      1.000000
  0.000000  0.166667  0.166667      1.000000
  0.166667  0.166667  0.166667      1.000000
  0.333333  0.166667  0.166667      1.000000
  0.500000  0.166667  0.166667      1.000000
 -0.333333  0.166667  0.166667      1.000000
 -0.166667  0.166667  0.166667      1.000000
  0.000000  0.333333  0.166667      1.000000
  0.166667  0.333333  0.166667      1.000000
  0.333333  0.333333  0.166667      1.000000
  0.500000  0.333333  0.166667      1.000000
 -0.333333  0.333333  0.166667      1.000000
 -0.166667  0.333333  0.166667      1.000000
 -0.000000  0.500000  0.166667      1.000000
  0.166667  0.500000  0.166667      1.000000
  0.333333  0.500000  0.166667      1.000000
  0.500000  0.500000  0.166667      1.000000
 -0.333333  0.500000  0.166667      1.000000
 -0.166667  0.500000  0.166667      1.000000
[...]
  0.500000  0.500000 -0.166667      1.000000
 -0.333333  0.500000 -0.166667      1.000000
 -0.166667  0.500000 -0.166667      1.000000
  0.000000 -0.333333 -0.166667      1.000000
  0.166667 -0.333333 -0.166667      1.000000
  0.333333 -0.333333 -0.166667      1.000000
  0.500000 -0.333333 -0.166667      1.000000
 -0.333333 -0.333333 -0.166667      1.000000
 -0.166667 -0.333333 -0.166667      1.000000
  0.000000 -0.166667 -0.166667      1.000000
  0.166667 -0.166667 -0.166667      1.000000
  0.333333 -0.166667 -0.166667      1.000000
  0.500000 -0.166667 -0.166667      1.000000
 -0.333333 -0.166667 -0.166667      1.000000
 -0.166667 -0.166667 -0.166667      1.000000

 Following cartesian coordinates:
            Coordinates               Weight
  0.000000  0.000000  0.000000      1.000000
  0.046300 -0.026731 -0.018902      1.000000
  0.092600 -0.053463 -0.037804      1.000000
  0.138901 -0.080194 -0.056706      1.000000
 -0.092600  0.053463  0.037804      1.000000
 -0.046300  0.026731  0.018902      1.000000
  0.000000  0.053463 -0.018902      1.000000
  0.046300  0.026731 -0.037804      1.000000
  0.092600  0.000000 -0.056706      1.000000
  0.138901 -0.026731 -0.075608      1.000000
 -0.092600  0.106926  0.018902      1.000000
 -0.046300  0.080194  0.000000      1.000000
  0.000000  0.106926 -0.037804      1.000000
  0.046300  0.080194 -0.056706      1.000000
  0.092600  0.053463 -0.075608      1.000000
  0.138901  0.026731 -0.094510      1.000000
 -0.092600  0.160389  0.000000      1.000000
 -0.046300  0.133657 -0.018902      1.000000
  0.000000  0.160389 -0.056706      1.000000
  0.046300  0.133657 -0.075608      1.000000
  0.092600  0.106926 -0.094510      1.000000
  0.138901  0.080194 -0.113412      1.000000
 -0.092600  0.213851 -0.018902      1.000000
 -0.046300  0.187120 -0.037804      1.000000
 -0.000000 -0.106926  0.037804      1.000000
  0.046300 -0.133657  0.018902      1.000000
  0.092600 -0.160389 -0.000000      1.000000
  0.138901 -0.187120 -0.018902      1.000000
 -0.092600 -0.053463  0.075608      1.000000
 -0.046300 -0.080194  0.056706      1.000000
 -0.000000 -0.053463  0.018902      1.000000
  0.046300 -0.080194 -0.000000      1.000000
  0.092600 -0.106926 -0.018902      1.000000
  0.138901 -0.133657 -0.037804      1.000000
 -0.092600  0.000000  0.056706      1.000000
 -0.046300 -0.026731  0.037804      1.000000
 -0.000000  0.000000  0.056706      1.000000
  0.046300 -0.026731  0.037804      1.000000
  0.092600 -0.053463  0.018902      1.000000
  0.138901 -0.080194 -0.000000      1.000000
 -0.092600  0.053463  0.094510      1.000000
 -0.046300  0.026731  0.075608      1.000000
 -0.000000  0.053463  0.037804      1.000000
  0.046300  0.026731  0.018902      1.000000
  0.092600  0.000000  0.000000      1.000000
  0.138901 -0.026731 -0.018902      1.000000
 -0.092600  0.106926  0.075608      1.000000
 -0.046300  0.080194  0.056706      1.000000
 -0.000000  0.106926  0.018902      1.000000
  0.046300  0.080194  0.000000      1.000000
  0.092600  0.053463 -0.018902      1.000000
  0.138901  0.026731 -0.037804      1.000000
 -0.092600  0.160389  0.056706      1.000000
 -0.046300  0.133657  0.037804      1.000000
 -0.000000  0.160389  0.000000      1.000000
  0.046300  0.133657 -0.018902      1.000000
  0.092600  0.106926 -0.037804      1.000000
  0.138901  0.080194 -0.056706      1.000000
 -0.092600  0.213851  0.037804      1.000000
 -0.046300  0.187120  0.018902      1.000000
[...]
  0.138901  0.080194 -0.170118      1.000000
 -0.092600  0.213851 -0.075608      1.000000
 -0.046300  0.187120 -0.094510      1.000000
  0.000000 -0.106926 -0.018902      1.000000
  0.046300 -0.133657 -0.037804      1.000000
  0.092600 -0.160389 -0.056706      1.000000
  0.138901 -0.187120 -0.075608      1.000000
 -0.092600 -0.053463  0.018902      1.000000
 -0.046300 -0.080194 -0.000000      1.000000
  0.000000 -0.053463 -0.037804      1.000000
  0.046300 -0.080194 -0.056706      1.000000
  0.092600 -0.106926 -0.075608      1.000000
  0.138901 -0.133657 -0.094510      1.000000
 -0.092600  0.000000  0.000000      1.000000
 -0.046300 -0.026731 -0.018902      1.000000

 Subroutine IBZKPT_HF returns following result:

 Found    216 k-points in 1st BZ
 the following    216 k-points will be used (e.g. in the exchange kernel)
 Following reciprocal coordinates:   # in IRBZ
  0.000000  0.000000  0.000000    0.00462963   1 t-inv F
  0.166667  0.000000  0.000000    0.00462963   2 t-inv F
  0.333333  0.000000  0.000000    0.00462963   3 t-inv F
  0.500000  0.000000  0.000000    0.00462963   4 t-inv F
 -0.333333 -0.000000 -0.000000    0.00462963   5 t-inv F
 -0.166667 -0.000000 -0.000000    0.00462963   6 t-inv F
  0.000000  0.166667  0.000000    0.00462963   7 t-inv F
  0.166667  0.166667  0.000000    0.00462963   8 t-inv F
  0.333333  0.166667  0.000000    0.00462963   9 t-inv F
  0.500000  0.166667  0.000000    0.00462963  10 t-inv F
 -0.333333  0.166667 -0.000000    0.00462963  11 t-inv F
 -0.166667  0.166667 -0.000000    0.00462963  12 t-inv F
  0.000000  0.333333  0.000000    0.00462963  13 t-inv F
  0.166667  0.333333  0.000000    0.00462963  14 t-inv F
  0.333333  0.333333  0.000000    0.00462963  15 t-inv F
  0.500000  0.333333  0.000000    0.00462963  16 t-inv F
 -0.333333  0.333333 -0.000000    0.00462963  17 t-inv F
 -0.166667  0.333333  0.000000    0.00462963  18 t-inv F
  0.000000  0.500000  0.000000    0.00462963  19 t-inv F
  0.166667  0.500000  0.000000    0.00462963  20 t-inv F
  0.333333  0.500000  0.000000    0.00462963  21 t-inv F
  0.500000  0.500000  0.000000    0.00462963  22 t-inv F
 -0.333333  0.500000  0.000000    0.00462963  23 t-inv F
 -0.166667  0.500000  0.000000    0.00462963  24 t-inv F
  0.000000 -0.333333 -0.000000    0.00462963  25 t-inv F
  0.166667 -0.333333 -0.000000    0.00462963  26 t-inv F
  0.333333 -0.333333  0.000000    0.00462963  27 t-inv F
  0.500000 -0.333333  0.000000    0.00462963  28 t-inv F
 -0.333333 -0.333333  0.000000    0.00462963  29 t-inv F
 -0.166667 -0.333333 -0.000000    0.00462963  30 t-inv F
  0.000000 -0.166667 -0.000000    0.00462963  31 t-inv F
  0.166667 -0.166667  0.000000    0.00462963  32 t-inv F
  0.333333 -0.166667  0.000000    0.00462963  33 t-inv F
  0.500000 -0.166667  0.000000    0.00462963  34 t-inv F
 -0.333333 -0.166667 -0.000000    0.00462963  35 t-inv F
 -0.166667 -0.166667  0.000000    0.00462963  36 t-inv F
  0.000000  0.000000  0.166667    0.00462963  37 t-inv F
  0.166667  0.000000  0.166667    0.00462963  38 t-inv F
  0.333333  0.000000  0.166667    0.00462963  39 t-inv F
  0.500000  0.000000  0.166667    0.00462963  40 t-inv F
 -0.333333 -0.000000  0.166667    0.00462963  41 t-inv F
 -0.166667 -0.000000  0.166667    0.00462963  42 t-inv F
  0.000000  0.166667  0.166667    0.00462963  43 t-inv F
  0.166667  0.166667  0.166667    0.00462963  44 t-inv F
  0.333333  0.166667  0.166667    0.00462963  45 t-inv F
  0.500000  0.166667  0.166667    0.00462963  46 t-inv F
 -0.333333  0.166667  0.166667    0.00462963  47 t-inv F
 -0.166667  0.166667  0.166667    0.00462963  48 t-inv F
  0.000000  0.333333  0.166667    0.00462963  49 t-inv F
[...]
 k-point 30 :  -0.1667-0.3333-0.0000  plane waves:     884
 k-point 31 :   0.0000-0.1667-0.0000  plane waves:     876
 k-point 32 :   0.1667-0.1667 0.0000  plane waves:     882
 k-point 33 :   0.3333-0.1667 0.0000  plane waves:     876
 k-point 34 :   0.5000-0.1667 0.0000  plane waves:     880
 k-point 35 :  -0.3333-0.1667-0.0000  plane waves:     884
 k-point 36 :  -0.1667-0.1667 0.0000  plane waves:     894
 k-point 37 :   0.0000 0.0000 0.1667  plane waves:     876
 k-point 38 :   0.1667 0.0000 0.1667  plane waves:     894
 k-point 39 :   0.3333 0.0000 0.1667  plane waves:     884
 k-point 40 :   0.5000 0.0000 0.1667  plane waves:     880
 k-point 41 :  -0.3333-0.0000 0.1667  plane waves:     876
 k-point 42 :  -0.1667-0.0000 0.1667  plane waves:     882
 k-point 43 :   0.0000 0.1667 0.1667  plane waves:     894
 k-point 44 :   0.1667 0.1667 0.1667  plane waves:     876
 k-point 45 :   0.3333 0.1667 0.1667  plane waves:     882
 k-point 46 :   0.5000 0.1667 0.1667  plane waves:     876
 k-point 47 :  -0.3333 0.1667 0.1667  plane waves:     880
 k-point 48 :  -0.1667 0.1667 0.1667  plane waves:     884
 k-point 49 :   0.0000 0.3333 0.1667  plane waves:     884
 k-point 50 :   0.1667 0.3333 0.1667  plane waves:     882
 k-point 51 :   0.3333 0.3333 0.1667  plane waves:     884
 k-point 52 :   0.5000 0.3333 0.1667  plane waves:     862
 k-point 53 :  -0.3333 0.3333 0.1667  plane waves:     868
 k-point 54 :  -0.1667 0.3333 0.1667  plane waves:     862
 k-point 55 :  -0.0000 0.5000 0.1667  plane waves:     880
 k-point 56 :   0.1667 0.5000 0.1667  plane waves:     876
 k-point 57 :   0.3333 0.5000 0.1667  plane waves:     862
 k-point 58 :   0.5000 0.5000 0.1667  plane waves:     870
 k-point 59 :  -0.3333 0.5000 0.1667  plane waves:     876
 k-point 60 :  -0.1667 0.5000 0.1667  plane waves:     868
[...]
 k-point 85 :   0.0000 0.3333 0.3333  plane waves:     888
 k-point 86 :   0.1667 0.3333 0.3333  plane waves:     884
 k-point 87 :   0.3333 0.3333 0.3333  plane waves:     874
 k-point 88 :   0.5000 0.3333 0.3333  plane waves:     876
 k-point 89 :  -0.3333 0.3333 0.3333  plane waves:     886
 k-point 90 :  -0.1667 0.3333 0.3333  plane waves:     870
 k-point 91 :   0.0000 0.5000 0.3333  plane waves:     870
 k-point 92 :   0.1667 0.5000 0.3333  plane waves:     862
 k-point 93 :   0.3333 0.5000 0.3333  plane waves:     876
 k-point 94 :   0.5000 0.5000 0.3333  plane waves:     880
 k-point 95 :  -0.3333 0.5000 0.3333  plane waves:     868
 k-point 96 :  -0.1667 0.5000 0.3333  plane waves:     876
 k-point 97 :  -0.0000-0.3333 0.3333  plane waves:     886
 k-point 98 :   0.1667-0.3333 0.3333  plane waves:     868
 k-point 99 :   0.3333-0.3333 0.3333  plane waves:     886
 k-point ** :   0.5000-0.3333 0.3333  plane waves:     868
 k-point ** :  -0.3333-0.3333 0.3333  plane waves:     886
 k-point ** :  -0.1667-0.3333 0.3333  plane waves:     868
 k-point ** :   0.0000-0.1667 0.3333  plane waves:     876
 k-point ** :   0.1667-0.1667 0.3333  plane waves:     862
 k-point ** :   0.3333-0.1667 0.3333  plane waves:     870
 k-point ** :   0.5000-0.1667 0.3333  plane waves:     876
 k-point ** :  -0.3333-0.1667 0.3333  plane waves:     868
 k-point ** :  -0.1667-0.1667 0.3333  plane waves:     880
 k-point ** :  -0.0000 0.0000 0.5000  plane waves:     868
 k-point ** :   0.1667-0.0000 0.5000  plane waves:     880
 k-point ** :   0.3333 0.0000 0.5000  plane waves:     870
 k-point ** :   0.5000 0.0000 0.5000  plane waves:     888
 k-point ** :  -0.3333-0.0000 0.5000  plane waves:     870
 k-point ** :  -0.1667-0.0000 0.5000  plane waves:     880
 k-point ** :   0.0000 0.1667 0.5000  plane waves:     880
 k-point ** :   0.1667 0.1667 0.5000  plane waves:     876
 k-point ** :   0.3333 0.1667 0.5000  plane waves:     862
 k-point ** :   0.5000 0.1667 0.5000  plane waves:     870
 k-point ** :  -0.3333 0.1667 0.5000  plane waves:     876
 k-point ** :  -0.1667 0.1667 0.5000  plane waves:     868
 k-point ** :  -0.0000 0.3333 0.5000  plane waves:     870
 k-point ** :   0.1667 0.3333 0.5000  plane waves:     862
 k-point ** :   0.3333 0.3333 0.5000  plane waves:     876
 k-point ** :   0.5000 0.3333 0.5000  plane waves:     880
 k-point ** :  -0.3333 0.3333 0.5000  plane waves:     868
 k-point ** :  -0.1667 0.3333 0.5000  plane waves:     876
 k-point ** :  -0.0000 0.5000 0.5000  plane waves:     888
 k-point ** :   0.1667 0.5000 0.5000  plane waves:     870
 k-point ** :   0.3333 0.5000 0.5000  plane waves:     880
 k-point ** :   0.5000 0.5000 0.5000  plane waves:     868
 k-point ** :  -0.3333 0.5000 0.5000  plane waves:     880
 k-point ** :  -0.1667 0.5000 0.5000  plane waves:     870
 k-point ** :  -0.0000-0.3333 0.5000  plane waves:     870
 k-point ** :   0.1667-0.3333 0.5000  plane waves:     876
 k-point ** :   0.3333-0.3333 0.5000  plane waves:     868
 k-point ** :   0.5000-0.3333 0.5000  plane waves:     880
 k-point ** :  -0.3333-0.3333 0.5000  plane waves:     876
 k-point ** :  -0.1667-0.3333 0.5000  plane waves:     862
 k-point ** :  -0.0000-0.1667 0.5000  plane waves:     880
 k-point ** :   0.1667-0.1667 0.5000  plane waves:     868
 k-point ** :   0.3333-0.1667 0.5000  plane waves:     876
 k-point ** :   0.5000-0.1667 0.5000  plane waves:     870
 k-point ** :  -0.3333-0.1667 0.5000  plane waves:     862
 k-point ** :  -0.1667-0.1667 0.5000  plane waves:     876
 k-point ** :   0.0000-0.0000-0.3333  plane waves:     874
 k-point ** :   0.1667-0.0000-0.3333  plane waves:     876
 k-point ** :   0.3333 0.0000-0.3333  plane waves:     886
 k-point ** :   0.5000 0.0000-0.3333  plane waves:     870
 k-point ** :  -0.3333-0.0000-0.3333  plane waves:     888
 k-point ** :  -0.1667-0.0000-0.3333  plane waves:     884
 k-point ** :   0.0000 0.1667-0.3333  plane waves:     876
 k-point ** :   0.1667 0.1667-0.3333  plane waves:     880
 k-point ** :   0.3333 0.1667-0.3333  plane waves:     868
 k-point ** :   0.5000 0.1667-0.3333  plane waves:     876
 k-point ** :  -0.3333 0.1667-0.3333  plane waves:     870
 k-point ** :  -0.1667 0.1667-0.3333  plane waves:     862
 k-point ** :   0.0000 0.3333-0.3333  plane waves:     886
 k-point ** :   0.1667 0.3333-0.3333  plane waves:     868
 k-point ** :   0.3333 0.3333-0.3333  plane waves:     886
[...]
 k-point ** :   0.5000 0.5000-0.1667  plane waves:     870
 k-point ** :  -0.3333 0.5000-0.1667  plane waves:     862
 k-point ** :  -0.1667 0.5000-0.1667  plane waves:     876
 k-point ** :   0.0000-0.3333-0.1667  plane waves:     884
 k-point ** :   0.1667-0.3333-0.1667  plane waves:     862
 k-point ** :   0.3333-0.3333-0.1667  plane waves:     868
 k-point ** :   0.5000-0.3333-0.1667  plane waves:     862
 k-point ** :  -0.3333-0.3333-0.1667  plane waves:     884
 k-point ** :  -0.1667-0.3333-0.1667  plane waves:     882
 k-point ** :   0.0000-0.1667-0.1667  plane waves:     894
 k-point ** :   0.1667-0.1667-0.1667  plane waves:     884
 k-point ** :   0.3333-0.1667-0.1667  plane waves:     880
 k-point ** :   0.5000-0.1667-0.1667  plane waves:     876
 k-point ** :  -0.3333-0.1667-0.1667  plane waves:     882
 k-point ** :  -0.1667-0.1667-0.1667  plane waves:     876

 maximum and minimum number of plane-waves per node :       246      196

 maximum number of plane-waves:       918
 maximum index in each direction:
   IXMAX=    5   IYMAX=    5   IZMAX=    5
   IXMIN=   -5   IYMIN=   -5   IZMIN=   -5

 parallel 3D FFT for wavefunctions:
    minimum data exchange during FFTs selected (reduces bandwidth)
 parallel 3D FFT for charge:
    minimum data exchange during FFTs selected (reduces bandwidth)

 FFT grid for exact exchange (Hartree Fock)
  NGX = 16; NGY = 16; NGZ = 16

 Radii for the augmentation spheres in the non-local exchange
 for species   1 augmentation radius   1.010 (default was   0.808)
       energy cutoff for augmentation   1200.0

 real space projection operators:
  max/ min on nodes  :         23.05         21.09

 Maximum index for augmentation-charges in exchange          115
  SETUP_FOCK is finished

 Broyden mixing: mesh for mixing (old mesh)
   NGX = 11   NGY = 11   NGZ = 11
  (NGX  = 48   NGY  = 48   NGZ  = 48)
  gives a total of   1331 points

 initial charge density was supplied:
 charge density of overlapping atoms calculated
 number of electron       8.0000000 magnetization       1.0000000      1.0000000      1.0000000
 keeping initial charge density in first step

 Maximum index for augmentation-charges         6555 (set IRDMAX)

 First call to EWALD:  gamma=   0.531
 Maximum number of real-space cells 3x 3x 3
 Maximum number of reciprocal cells 3x 3x 3

--------------------------------------- Iteration      1(   1)  ---------------------------------------

 eigenvalue-minimisations  : 11262
 total energy-change (2. order) : 0.6764363E+02  (-0.2752625E+03)
 number of electron       8.0000000 magnetization       1.0000000      1.0000000      1.0000000
 augmentation part        8.0000000 magnetization       1.0000000      1.0000000      1.0000000

 Free energy of the ion-electron system (eV)
  alpha Z        PSCENC =         8.07484950
  Ewald energy   TEWEN  =      -398.63690970
  -Hartree energ DENC   =      -139.79215832
  -exchange      EXHF   =         0.00000000
  -V(xc)+E(xc)   XCENC  =        21.29180971
  PAW double counting   =       472.32687174     -474.66209204
  entropy T*S    EENTRO =        -0.00080515
  eigenvalues    EBANDS =         0.39854438
  atomic energy  EATOM  =       578.64352442
  free energy    TOTEN  =        67.64363453 eV

  energy without entropy =       67.64443968  energy(sigma->0) =       67.64403711
  exchange ACFDT corr.  =         0.00000000  see jH, gK, PRB 81, 115126

[...]

 eigenvalue-minimisations  : 15552
 total energy-change (2. order) :-0.4459430E+02  (-0.3900355E+02)
 number of electron       8.0000000 magnetization       1.0000000      1.0000000      1.0000000
 augmentation part        8.0000000 magnetization       1.0000000      1.0000000      1.0000000

[...]

--------------------------------------- Iteration      1(  20)  ---------------------------------------

 eigenvalue-minimisations  :     0
 total energy-change (2. order) :-0.8298980E-07  (-0.8001728E-07)
 number of electron       8.0000000 magnetization      -0.0000000     -0.0000000     -0.0000000
 augmentation part       -0.5148845 magnetization      -0.0000008     -0.0000008     -0.0000008

 Free energy of the ion-electron system (eV)
  alpha Z        PSCENC =         8.07484950
  Ewald energy   TEWEN  =      -398.63690970
  -Hartree energ DENC   =      -140.21325344
  -exchange      EXHF   =        19.81814282
  -V(xc)+E(xc)   XCENC  =        21.14017180
  PAW double counting   =       476.33974744     -478.70161994
  entropy T*S    EENTRO =        -0.00000000
  eigenvalues    EBANDS =       -86.49463258
  atomic energy  EATOM  =       578.64352442
  free energy    TOTEN  =        -0.02997519 eV

  energy without entropy =       -0.02997519  energy(sigma->0) =       -0.02997519
  exchange ACFDT corr.  =        -0.00000000  see jH, gK, PRB 81, 115126

  average scaling for gradient   0.9285

 average (electrostatic) potential at core
  the test charge radii are     0.8078
  (the norm of the test charge is              1.0000)
       1-110.8212

 E-fermi :  -6.1654     XC(G=0):  -5.6119     alpha+bet : -4.5695

 k-point     1 :       0.0000    0.0000    0.0000
  band No.  band energies     occupation
      1     -22.4486      1.00000
      2     -22.4485      1.00000
      3      -6.5923      1.00000
      4      -6.5923      1.00000
      5      -6.3914      1.00000
      6      -6.3914      1.00000
      7      -6.3914      1.00000
      8      -6.3914      1.00000
      9       3.9012      0.00000
     10       3.9012      0.00000
     11      11.3643      0.00000
     12      11.3643      0.00000
     13      11.3647      0.00000
     14      11.3651      0.00000
     15      11.3653      0.00000
     16      11.3653      0.00000
     17      13.8245      0.00000
     18      13.8245      0.00000

[...]

 k-point   216 :      -0.1667   -0.1667   -0.1667
  band No.  band energies     occupation
      1     -22.3977      1.00000
      2     -22.3976      1.00000
      3      -6.8514      1.00000
      4      -6.8514      1.00000
      5      -6.5325      1.00000
      6      -6.5324      1.00000
      7      -6.4281      1.00000
      8      -6.4280      1.00000
      9       4.6242      0.00000
     10       4.6242      0.00000
     11      10.3838      0.00000
     12      10.3838      0.00000
     13      11.5983      0.00000
     14      11.5986      0.00000
     15      11.5990      0.00000
     16      11.5990      0.00000
     17      13.3882      0.00000
     18      13.3891      0.00000

 soft charge-density along one line, spin component           1
         0         1         2         3         4         5         6         7         8         9
 total charge-density along one line

[...]

 soft charge-density along one line, spin component           4
         0         1         2         3         4         5         6         7         8         9
 total charge-density along one line

------------------------ aborting loop because EDIFF is reached ----------------------------------------

  FORCE on cell =-STRESS in cart. coord.  units (eV):
  Direction    XX          YY          ZZ          XY          YZ          ZX
  Alpha Z     8.07485     8.07485     8.07485
  Ewald    -132.87897  -132.87897  -132.87897     0.00000    -0.00000     0.00000
  Hartree    46.73779    46.73779    46.73779    -0.00000     0.00000    -0.00000
  E(xc)     -24.12107   -24.12108   -24.12107     0.00000     0.00000    -0.00000
  Local    -119.13029  -119.13030  -119.13029     0.00000     0.00000     0.00000
  n-local    95.81754    95.81755    95.81755    -0.00001    -0.00000    -0.00000
  augment   -10.74253   -10.74253   -10.74253     0.00001     0.00000     0.00000
  Kinetic   145.36977   145.36978   145.36977     0.00000    -0.00000     0.00000
  Fock       -9.09958    -9.09953    -9.09952    -0.00005    -0.00002    -0.00003
  Total       0.02750     0.02756     0.02757    -0.00004    -0.00002    -0.00003
  in kB       1.18411     1.18649     1.18718    -0.00188    -0.00080    -0.00124

 VOLUME and BASIS-vectors are now :
  energy-cutoff  :      300.00
  volume of cell :       37.21
      direct lattice vectors                 reciprocal lattice vectors
     3.747484295  0.000000000  0.000000000     0.266845681 -0.154063426 -0.108939293
     1.873742148  3.245416600 -0.000000000     0.000000000  0.308126852 -0.108939293
     1.873742148  1.081805533  3.059808114    -0.000000000  0.000000000  0.326817880

  length of vectors
     3.747484295  3.747484295  3.747484295     0.326817880  0.326817880  0.326817880

 FORCES acting on ions:
    Electron-Ion                     Ewald-Force                    Non-Local-Force
   0.234E-04 0.864E-05 0.428E-05   0.162E-15 -.475E-16 -.172E-15   -.113E-04 -.245E-05 -.561E-05
   0.234E-04 0.867E-05 0.430E-05   0.162E-15 -.475E-16 -.172E-15   -.113E-04 -.245E-05 -.561E-05

 POSITION                                       TOTAL-FORCE (eV/Angst)
      0.00000      0.00000      0.00000         0.000012      0.000007     -0.000001
    total drift:                                0.000012      0.000007     -0.000001

  FREE ENERGIE OF THE ION-ELECTRON SYSTEM (eV)
  free  energy   TOTEN  =        -0.02997519 eV

  energy  without entropy=       -0.02997519  energy(sigma->0) =       -0.02997519

 writing wavefunctions

 Spin-Orbit-Coupling matrix elements

 Ion:    1  E_soc:     -0.0048056
 l=   1
     0.0000000    -0.0008009    -0.0008009
    -0.0008009     0.0000000    -0.0008009
    -0.0008009    -0.0008009     0.0000000
 l=   2
     0.0000000    -0.0000000     0.0000000    -0.0000000    -0.0000000
    -0.0000000     0.0000000    -0.0000000    -0.0000000    -0.0000000
     0.0000000    -0.0000000     0.0000000    -0.0000000     0.0000000
    -0.0000000    -0.0000000    -0.0000000     0.0000000    -0.0000000
    -0.0000000    -0.0000000     0.0000000    -0.0000000     0.0000000
 l=   3
     0.0000000     0.0000000     0.0000000     0.0000000     0.0000000     0.0000000     0.0000000
     0.0000000     0.0000000     0.0000000     0.0000000     0.0000000     0.0000000     0.0000000
     0.0000000     0.0000000     0.0000000     0.0000000     0.0000000     0.0000000     0.0000000
     0.0000000     0.0000000     0.0000000     0.0000000     0.0000000     0.0000000     0.0000000
     0.0000000     0.0000000     0.0000000     0.0000000     0.0000000     0.0000000     0.0000000
     0.0000000     0.0000000     0.0000000     0.0000000     0.0000000     0.0000000     0.0000000
     0.0000000     0.0000000     0.0000000     0.0000000     0.0000000     0.0000000     0.0000000