 vasp.5.4.4.18Apr17-6-g9f103f2a35 (build Jul 09 2018 16:43:14) complex

 executed on             LinuxIFC date 2018.11.22  03:25:54

 INCAR:
 POTCAR:    PAW_PBE Ar_GW 21Aug2013

 POTCAR:    PAW_PBE Ar_GW 21Aug2013
   VRHFIN =Ar: s2p6

   TITEL  = PAW_PBE Ar_GW 21Aug2013
   POMASS =   39.949; ZVAL   =    8.000    mass and valenz
   ENMAX  =  290.599; ENMIN  =  217.949 eV

  PAW_PBE Ar_GW 21Aug2013               :

 POSCAR: Ar_FCC
  positions in direct lattice
  velocities in cartesian coordinates
 exchange correlation table for  LEXCH =        8
   RHO(1)=    0.500       N(1)  =     2000
   RHO(2)=  100.500       N(2)  =     4000

 ion  position               nearest neighbor table
   1  0.000  0.000  0.000-

IMPORTANT INFORMATION: All symmetrisations will be switched off!
NOSYMM: (Re-)initialisation of all symmetry stuff for point group C_1.

 KPOINTS: k-points

Automatic generation of k-mesh.
Space group operators:
 irot       det(A)        alpha          n_x          n_y          n_z        tau_x        tau_y        tau_z
    1     1.000000     0.000000     1.000000     0.000000     0.000000     0.000000     0.000000     0.000000

 Subroutine IBZKPT returns following result:

 Found    216 irreducible k-points:

 Following reciprocal coordinates:
            Coordinates               Weight
  0.000000  0.000000  0.000000      1.000000
  0.166667  0.000000 -0.000000      1.000000
  0.333333  0.000000 -0.000000      1.000000
  0.500000  0.000000 -0.000000      1.000000
 -0.333333 -0.000000  0.000000      1.000000
 -0.166667 -0.000000  0.000000      1.000000
  0.000000  0.166667 -0.000000      1.000000
  0.166667  0.166667 -0.000000      1.000000
  0.333333  0.166667 -0.000000      1.000000
  0.500000  0.166667 -0.000000      1.000000
 -0.333333  0.166667 -0.000000      1.000000
 -0.166667  0.166667  0.000000      1.000000
  0.000000  0.333333  0.000000      1.000000
  0.166667  0.333333 -0.000000      1.000000
  0.333333  0.333333 -0.000000      1.000000
  0.500000  0.333333 -0.000000      1.000000
 -0.333333  0.333333  0.000000      1.000000
 -0.166667  0.333333  0.000000      1.000000
  0.000000  0.500000 -0.000000      1.000000
  0.166667  0.500000  0.000000      1.000000
  0.333333  0.500000  0.000000      1.000000
  0.500000  0.500000 -0.000000      1.000000
 -0.333333  0.500000 -0.000000      1.000000
 -0.166667  0.500000 -0.000000      1.000000
 -0.000000 -0.333333  0.000000      1.000000
  0.166667 -0.333333 -0.000000      1.000000
  0.333333 -0.333333 -0.000000      1.000000
  0.500000 -0.333333 -0.000000      1.000000
 -0.333333 -0.333333  0.000000      1.000000
 -0.166667 -0.333333  0.000000      1.000000
 -0.000000 -0.166667  0.000000      1.000000
  0.166667 -0.166667 -0.000000      1.000000
  0.333333 -0.166667 -0.000000      1.000000
  0.500000 -0.166667 -0.000000      1.000000
 -0.333333 -0.166667  0.000000      1.000000
 -0.166667 -0.166667  0.000000      1.000000
 -0.000000  0.000000  0.166667      1.000000
  0.166667  0.000000  0.166667      1.000000
  0.333333 -0.000000  0.166667      1.000000
  0.500000  0.000000  0.166667      1.000000
 -0.333333 -0.000000  0.166667      1.000000
 -0.166667 -0.000000  0.166667      1.000000
  0.000000  0.166667  0.166667      1.000000
  0.166667  0.166667  0.166667      1.000000
  0.333333  0.166667  0.166667      1.000000
  0.500000  0.166667  0.166667      1.000000
 -0.333333  0.166667  0.166667      1.000000
 -0.166667  0.166667  0.166667      1.000000
  0.000000  0.333333  0.166667      1.000000
  0.166667  0.333333  0.166667      1.000000
  0.333333  0.333333  0.166667      1.000000
  0.500000  0.333333  0.166667      1.000000
 -0.333333  0.333333  0.166667      1.000000
 -0.166667  0.333333  0.166667      1.000000
  0.000000  0.500000  0.166667      1.000000
  0.166667  0.500000  0.166667      1.000000
  0.333333  0.500000  0.166667      1.000000
  0.500000  0.500000  0.166667      1.000000
 -0.333333  0.500000  0.166667      1.000000
 -0.166667  0.500000  0.166667      1.000000
[...]
  0.500000  0.500000 -0.166667      1.000000
 -0.333333  0.500000 -0.166667      1.000000
 -0.166667  0.500000 -0.166667      1.000000
  0.000000 -0.333333 -0.166667      1.000000
  0.166667 -0.333333 -0.166667      1.000000
  0.333333 -0.333333 -0.166667      1.000000
  0.500000 -0.333333 -0.166667      1.000000
 -0.333333 -0.333333 -0.166667      1.000000
 -0.166667 -0.333333 -0.166667      1.000000
  0.000000 -0.166667 -0.166667      1.000000
  0.166667 -0.166667 -0.166667      1.000000
  0.333333 -0.166667 -0.166667      1.000000
  0.500000 -0.166667 -0.166667      1.000000
 -0.333333 -0.166667 -0.166667      1.000000
 -0.166667 -0.166667 -0.166667      1.000000

 Following cartesian coordinates:
            Coordinates               Weight
  0.000000  0.000000  0.000000      1.000000
  0.046300 -0.026731 -0.018902      1.000000
  0.092600 -0.053463 -0.037804      1.000000
  0.138901 -0.080194 -0.056706      1.000000
 -0.092600  0.053463  0.037804      1.000000
 -0.046300  0.026731  0.018902      1.000000
  0.000000  0.053463 -0.018902      1.000000
  0.046300  0.026731 -0.037804      1.000000
  0.092600  0.000000 -0.056706      1.000000
  0.138901 -0.026731 -0.075608      1.000000
 -0.092600  0.106926  0.018902      1.000000
 -0.046300  0.080194  0.000000      1.000000
  0.000000  0.106926 -0.037804      1.000000
  0.046300  0.080194 -0.056706      1.000000
  0.092600  0.053463 -0.075608      1.000000
  0.138901  0.026731 -0.094510      1.000000
 -0.092600  0.160389  0.000000      1.000000
 -0.046300  0.133657 -0.018902      1.000000
  0.000000  0.160389 -0.056706      1.000000
  0.046300  0.133657 -0.075608      1.000000
  0.092600  0.106926 -0.094510      1.000000
  0.138901  0.080194 -0.113412      1.000000
 -0.092600  0.213851 -0.018902      1.000000
 -0.046300  0.187120 -0.037804      1.000000
 -0.000000 -0.106926  0.037804      1.000000
  0.046300 -0.133657  0.018902      1.000000
  0.092600 -0.160389 -0.000000      1.000000
  0.138901 -0.187120 -0.018902      1.000000
 -0.092600 -0.053463  0.075608      1.000000
 -0.046300 -0.080194  0.056706      1.000000
 -0.000000 -0.053463  0.018902      1.000000
  0.046300 -0.080194 -0.000000      1.000000
  0.092600 -0.106926 -0.018902      1.000000
  0.138901 -0.133657 -0.037804      1.000000
 -0.092600 -0.000000  0.056706      1.000000
 -0.046300 -0.026731  0.037804      1.000000
 -0.000000  0.000000  0.056706      1.000000
  0.046300 -0.026731  0.037804      1.000000
  0.092600 -0.053463  0.018902      1.000000
  0.138901 -0.080194 -0.000000      1.000000
 -0.092600  0.053463  0.094510      1.000000
 -0.046300  0.026731  0.075608      1.000000
 -0.000000  0.053463  0.037804      1.000000
  0.046300  0.026731  0.018902      1.000000
  0.092600  0.000000  0.000000      1.000000
  0.138901 -0.026731 -0.018902      1.000000
 -0.092600  0.106926  0.075608      1.000000
 -0.046300  0.080194  0.056706      1.000000
 -0.000000  0.106926  0.018902      1.000000
  0.046300  0.080194  0.000000      1.000000
  0.092600  0.053463 -0.018902      1.000000
  0.138901  0.026731 -0.037804      1.000000
 -0.092600  0.160389  0.056706      1.000000
 -0.046300  0.133657  0.037804      1.000000
 -0.000000  0.160389  0.000000      1.000000
  0.046300  0.133657 -0.018902      1.000000
  0.092600  0.106926 -0.037804      1.000000
  0.138901  0.080194 -0.056706      1.000000
 -0.092600  0.213851  0.037804      1.000000
 -0.046300  0.187120  0.018902      1.000000
[...]
  0.138901  0.080194 -0.170118      1.000000
 -0.092600  0.213851 -0.075608      1.000000
 -0.046300  0.187120 -0.094510      1.000000
  0.000000 -0.106926 -0.018902      1.000000
  0.046300 -0.133657 -0.037804      1.000000
  0.092600 -0.160389 -0.056706      1.000000
  0.138901 -0.187120 -0.075608      1.000000
 -0.092600 -0.053463  0.018902      1.000000
 -0.046300 -0.080194 -0.000000      1.000000
  0.000000 -0.053463 -0.037804      1.000000
  0.046300 -0.080194 -0.056706      1.000000
  0.092600 -0.106926 -0.075608      1.000000
  0.138901 -0.133657 -0.094510      1.000000
 -0.092600 -0.000000  0.000000      1.000000
 -0.046300 -0.026731 -0.018902      1.000000

 Subroutine IBZKPT_HF returns following result:

 Found    216 k-points in 1st BZ
 the following    216 k-points will be used (e.g. in the exchange kernel)
 Following reciprocal coordinates:   # in IRBZ
  0.000000  0.000000  0.000000    0.00462963   1 t-inv F
  0.166667  0.000000 -0.000000    0.00462963   2 t-inv F
  0.333333  0.000000 -0.000000    0.00462963   3 t-inv F
  0.500000  0.000000 -0.000000    0.00462963   4 t-inv F
 -0.333333 -0.000000  0.000000    0.00462963   5 t-inv F
 -0.166667 -0.000000  0.000000    0.00462963   6 t-inv F
  0.000000  0.166667 -0.000000    0.00462963   7 t-inv F
  0.166667  0.166667 -0.000000    0.00462963   8 t-inv F
  0.333333  0.166667 -0.000000    0.00462963   9 t-inv F
  0.500000  0.166667 -0.000000    0.00462963  10 t-inv F
 -0.333333  0.166667 -0.000000    0.00462963  11 t-inv F
 -0.166667  0.166667  0.000000    0.00462963  12 t-inv F
  0.000000  0.333333  0.000000    0.00462963  13 t-inv F
  0.166667  0.333333 -0.000000    0.00462963  14 t-inv F
  0.333333  0.333333 -0.000000    0.00462963  15 t-inv F
  0.500000  0.333333 -0.000000    0.00462963  16 t-inv F
 -0.333333  0.333333  0.000000    0.00462963  17 t-inv F
 -0.166667  0.333333  0.000000    0.00462963  18 t-inv F
  0.000000  0.500000 -0.000000    0.00462963  19 t-inv F
  0.166667  0.500000  0.000000    0.00462963  20 t-inv F
  0.333333  0.500000  0.000000    0.00462963  21 t-inv F
  0.500000  0.500000 -0.000000    0.00462963  22 t-inv F
 -0.333333  0.500000 -0.000000    0.00462963  23 t-inv F
 -0.166667  0.500000 -0.000000    0.00462963  24 t-inv F
 -0.000000 -0.333333  0.000000    0.00462963  25 t-inv F
  0.166667 -0.333333 -0.000000    0.00462963  26 t-inv F
  0.333333 -0.333333 -0.000000    0.00462963  27 t-inv F
  0.500000 -0.333333 -0.000000    0.00462963  28 t-inv F
 -0.333333 -0.333333  0.000000    0.00462963  29 t-inv F
 -0.166667 -0.333333  0.000000    0.00462963  30 t-inv F
 -0.000000 -0.166667  0.000000    0.00462963  31 t-inv F
  0.166667 -0.166667 -0.000000    0.00462963  32 t-inv F
  0.333333 -0.166667 -0.000000    0.00462963  33 t-inv F
  0.500000 -0.166667 -0.000000    0.00462963  34 t-inv F
 -0.333333 -0.166667  0.000000    0.00462963  35 t-inv F
 -0.166667 -0.166667  0.000000    0.00462963  36 t-inv F
 -0.000000  0.000000  0.166667    0.00462963  37 t-inv F
  0.166667  0.000000  0.166667    0.00462963  38 t-inv F
  0.333333 -0.000000  0.166667    0.00462963  39 t-inv F
  0.500000  0.000000  0.166667    0.00462963  40 t-inv F
 -0.333333 -0.000000  0.166667    0.00462963  41 t-inv F
 -0.166667 -0.000000  0.166667    0.00462963  42 t-inv F
  0.000000  0.166667  0.166667    0.00462963  43 t-inv F
  0.166667  0.166667  0.166667    0.00462963  44 t-inv F
  0.333333  0.166667  0.166667    0.00462963  45 t-inv F
  0.500000  0.166667  0.166667    0.00462963  46 t-inv F
 -0.333333  0.166667  0.166667    0.00462963  47 t-inv F
 -0.166667  0.166667  0.166667    0.00462963  48 t-inv F
  0.000000  0.333333  0.166667    0.00462963  49 t-inv F
[...]
 k-point 37 :  -0.0000 0.0000 0.1667  plane waves:     760
 k-point 38 :   0.1667 0.0000 0.1667  plane waves:     742
 k-point 39 :   0.3333-0.0000 0.1667  plane waves:     780
 k-point 40 :   0.5000 0.0000 0.1667  plane waves:     786
 k-point 41 :  -0.3333-0.0000 0.1667  plane waves:     778
 k-point 42 :  -0.1667-0.0000 0.1667  plane waves:     770
 k-point 43 :   0.0000 0.1667 0.1667  plane waves:     742
 k-point 44 :   0.1667 0.1667 0.1667  plane waves:     760
 k-point 45 :   0.3333 0.1667 0.1667  plane waves:     770
 k-point 46 :   0.5000 0.1667 0.1667  plane waves:     778
 k-point 47 :  -0.3333 0.1667 0.1667  plane waves:     786
 k-point 48 :  -0.1667 0.1667 0.1667  plane waves:     780
 k-point 49 :   0.0000 0.3333 0.1667  plane waves:     780
 k-point 50 :   0.1667 0.3333 0.1667  plane waves:     770
 k-point 51 :   0.3333 0.3333 0.1667  plane waves:     780
 k-point 52 :   0.5000 0.3333 0.1667  plane waves:     794
 k-point 53 :  -0.3333 0.3333 0.1667  plane waves:     788
 k-point 54 :  -0.1667 0.3333 0.1667  plane waves:     794
 k-point 55 :   0.0000 0.5000 0.1667  plane waves:     786
 k-point 56 :   0.1667 0.5000 0.1667  plane waves:     778
 k-point 57 :   0.3333 0.5000 0.1667  plane waves:     794
 k-point 58 :   0.5000 0.5000 0.1667  plane waves:     784
 k-point 59 :  -0.3333 0.5000 0.1667  plane waves:     776
 k-point 60 :  -0.1667 0.5000 0.1667  plane waves:     788
[...]
 k-point 85 :  -0.0000 0.3333 0.3333  plane waves:     774
 k-point 86 :   0.1667 0.3333 0.3333  plane waves:     780
 k-point 87 :   0.3333 0.3333 0.3333  plane waves:     778
 k-point 88 :   0.5000 0.3333 0.3333  plane waves:     778
 k-point 89 :  -0.3333 0.3333 0.3333  plane waves:     778
 k-point 90 :  -0.1667 0.3333 0.3333  plane waves:     784
 k-point 91 :  -0.0000 0.5000 0.3333  plane waves:     784
 k-point 92 :   0.1667 0.5000 0.3333  plane waves:     794
 k-point 93 :   0.3333 0.5000 0.3333  plane waves:     778
 k-point 94 :   0.5000 0.5000 0.3333  plane waves:     786
 k-point 95 :  -0.3333 0.5000 0.3333  plane waves:     788
 k-point 96 :  -0.1667 0.5000 0.3333  plane waves:     776
 k-point 97 :  -0.0000-0.3333 0.3333  plane waves:     778
 k-point 98 :   0.1667-0.3333 0.3333  plane waves:     788
 k-point 99 :   0.3333-0.3333 0.3333  plane waves:     778
 k-point ** :   0.5000-0.3333 0.3333  plane waves:     788
 k-point ** :  -0.3333-0.3333 0.3333  plane waves:     778
 k-point ** :  -0.1667-0.3333 0.3333  plane waves:     788
 k-point ** :  -0.0000-0.1667 0.3333  plane waves:     778
 k-point ** :   0.1667-0.1667 0.3333  plane waves:     794
 k-point ** :   0.3333-0.1667 0.3333  plane waves:     784
 k-point ** :   0.5000-0.1667 0.3333  plane waves:     776
 k-point ** :  -0.3333-0.1667 0.3333  plane waves:     788
 k-point ** :  -0.1667-0.1667 0.3333  plane waves:     786
 k-point ** :  -0.0000 0.0000 0.5000  plane waves:     784
 k-point ** :   0.1667-0.0000 0.5000  plane waves:     786
 k-point ** :   0.3333 0.0000 0.5000  plane waves:     784
 k-point ** :   0.5000 0.0000 0.5000  plane waves:     776
 k-point ** :  -0.3333 0.0000 0.5000  plane waves:     784
 k-point ** :  -0.1667-0.0000 0.5000  plane waves:     786
 k-point ** :   0.0000 0.1667 0.5000  plane waves:     786
 k-point ** :   0.1667 0.1667 0.5000  plane waves:     778
 k-point ** :   0.3333 0.1667 0.5000  plane waves:     794
 k-point ** :   0.5000 0.1667 0.5000  plane waves:     784
 k-point ** :  -0.3333 0.1667 0.5000  plane waves:     776
 k-point ** :  -0.1667 0.1667 0.5000  plane waves:     788
 k-point ** :  -0.0000 0.3333 0.5000  plane waves:     784
 k-point ** :   0.1667 0.3333 0.5000  plane waves:     794
 k-point ** :   0.3333 0.3333 0.5000  plane waves:     778
 k-point ** :   0.5000 0.3333 0.5000  plane waves:     786
 k-point ** :  -0.3333 0.3333 0.5000  plane waves:     788
 k-point ** :  -0.1667 0.3333 0.5000  plane waves:     776
 k-point ** :   0.0000 0.5000 0.5000  plane waves:     776
 k-point ** :   0.1667 0.5000 0.5000  plane waves:     784
 k-point ** :   0.3333 0.5000 0.5000  plane waves:     786
 k-point ** :   0.5000 0.5000 0.5000  plane waves:     784
 k-point ** :  -0.3333 0.5000 0.5000  plane waves:     786
 k-point ** :  -0.1667 0.5000 0.5000  plane waves:     784
 k-point ** :  -0.0000-0.3333 0.5000  plane waves:     784
 k-point ** :   0.1667-0.3333 0.5000  plane waves:     776
 k-point ** :   0.3333-0.3333 0.5000  plane waves:     788
 k-point ** :   0.5000-0.3333 0.5000  plane waves:     786
 k-point ** :  -0.3333-0.3333 0.5000  plane waves:     778
 k-point ** :  -0.1667-0.3333 0.5000  plane waves:     794
 k-point ** :  -0.0000-0.1667 0.5000  plane waves:     786
 k-point ** :   0.1667-0.1667 0.5000  plane waves:     788
 k-point ** :   0.3333-0.1667 0.5000  plane waves:     776
 k-point ** :   0.5000-0.1667 0.5000  plane waves:     784
 k-point ** :  -0.3333-0.1667 0.5000  plane waves:     794
 k-point ** :  -0.1667-0.1667 0.5000  plane waves:     778
 k-point ** :   0.0000-0.0000-0.3333  plane waves:     778
 k-point ** :   0.1667-0.0000-0.3333  plane waves:     778
 k-point ** :   0.3333-0.0000-0.3333  plane waves:     778
 k-point ** :   0.5000 0.0000-0.3333  plane waves:     784
 k-point ** :  -0.3333-0.0000-0.3333  plane waves:     774
 k-point ** :  -0.1667-0.0000-0.3333  plane waves:     780
 k-point ** :   0.0000 0.1667-0.3333  plane waves:     778
 k-point ** :   0.1667 0.1667-0.3333  plane waves:     786
 k-point ** :   0.3333 0.1667-0.3333  plane waves:     788
 k-point ** :   0.5000 0.1667-0.3333  plane waves:     776
 k-point ** :  -0.3333 0.1667-0.3333  plane waves:     784
 k-point ** :  -0.1667 0.1667-0.3333  plane waves:     794
 k-point ** :   0.0000 0.3333-0.3333  plane waves:     778
 k-point ** :   0.1667 0.3333-0.3333  plane waves:     788
 k-point ** :   0.3333 0.3333-0.3333  plane waves:     778
[...]
 k-point ** :   0.5000 0.5000-0.1667  plane waves:     784
 k-point ** :  -0.3333 0.5000-0.1667  plane waves:     794
 k-point ** :  -0.1667 0.5000-0.1667  plane waves:     778
 k-point ** :   0.0000-0.3333-0.1667  plane waves:     780
 k-point ** :   0.1667-0.3333-0.1667  plane waves:     794
 k-point ** :   0.3333-0.3333-0.1667  plane waves:     788
 k-point ** :   0.5000-0.3333-0.1667  plane waves:     794
 k-point ** :  -0.3333-0.3333-0.1667  plane waves:     780
 k-point ** :  -0.1667-0.3333-0.1667  plane waves:     770
 k-point ** :   0.0000-0.1667-0.1667  plane waves:     742
 k-point ** :   0.1667-0.1667-0.1667  plane waves:     780
 k-point ** :   0.3333-0.1667-0.1667  plane waves:     786
 k-point ** :   0.5000-0.1667-0.1667  plane waves:     778
 k-point ** :  -0.3333-0.1667-0.1667  plane waves:     770
 k-point ** :  -0.1667-0.1667-0.1667  plane waves:     760

 maximum and minimum number of plane-waves per node :       218      176

 maximum number of plane-waves:       794
 maximum index in each direction:
   IXMAX=    5   IYMAX=    5   IZMAX=    5
   IXMIN=   -5   IYMIN=   -5   IZMIN=   -5

 parallel 3D FFT for wavefunctions:
    minimum data exchange during FFTs selected (reduces bandwidth)
 parallel 3D FFT for charge:
    minimum data exchange during FFTs selected (reduces bandwidth)

 FFT grid for exact exchange (Hartree Fock)
  NGX = 16; NGY = 16; NGZ = 16

 Radii for the augmentation spheres in the non-local exchange
 for species   1 augmentation radius   1.010 (default was   0.808)
       energy cutoff for augmentation   1200.0

 real space projection operators:
  max/ min on nodes  :         28.32         26.56

 Maximum index for augmentation-charges in exchange          145
  SETUP_FOCK is finished

 Broyden mixing: mesh for mixing (old mesh)
   NGX = 11   NGY = 11   NGZ = 11
  (NGX  = 40   NGY  = 40   NGZ  = 40)
  gives a total of   1331 points

 initial charge density was supplied:
 charge density of overlapping atoms calculated
 number of electron       8.0000000 magnetization       1.0000000      1.0000000      1.0000000
 keeping initial charge density in first step

 Maximum index for augmentation-charges         1705 (set IRDMAX)

 First call to EWALD:  gamma=   0.553
 Maximum number of real-space cells 3x 3x 3
 Maximum number of reciprocal cells 3x 3x 3

--------------------------------------- Iteration      1(   1)  ---------------------------------------

 eigenvalue-minimisations  : 14976
 total energy-change (2. order) : 0.5871995E+02  (-0.3002794E+03)
 number of electron       8.0000000 magnetization       1.0000000      1.0000000      1.0000000
 augmentation part        8.0000000 magnetization       1.0000000      1.0000000      1.0000000

 Free energy of the ion-electron system (eV)
  alpha Z        PSCENC =         9.11079249
  Ewald energy   TEWEN  =      -415.00316949
  -Hartree energ DENC   =      -129.14864416
  -exchange      EXHF   =         0.00000000
  -V(xc)+E(xc)   XCENC  =        21.31653918
  PAW double counting   =       472.32687174     -474.66209204
  entropy T*S    EENTRO =        -0.00045532
  eigenvalues    EBANDS =        -3.86342176
  atomic energy  EATOM  =       578.64352442
  free energy    TOTEN  =        58.71994504 eV

  energy without entropy =       58.72040036  energy(sigma->0) =       58.72017270
  exchange ACFDT corr.  =         0.00000000  see jH, gK, PRB 81, 115126

[...]

 eigenvalue-minimisations  : 20704
 total energy-change (2. order) :-0.3726530E+02  (-0.3318810E+02)
 number of electron       8.0000000 magnetization       1.0000000      1.0000000      1.0000000
 augmentation part        8.0000000 magnetization       1.0000000      1.0000000      1.0000000

[...]

--------------------------------------- Iteration      1(  20)  ---------------------------------------

 eigenvalue-minimisations  :     0
 total energy-change (2. order) :-0.9811151E-07  (-0.7745129E-07)
 number of electron       8.0000000 magnetization      -0.0000000     -0.0000000     -0.0000000
 augmentation part       -0.5149425 magnetization      -0.0000014     -0.0000014     -0.0000013

 Free energy of the ion-electron system (eV)
  alpha Z        PSCENC =         9.11079249
  Ewald energy   TEWEN  =      -415.00316949
  -Hartree energ DENC   =      -129.65940979
  -exchange      EXHF   =        19.83746217
  -V(xc)+E(xc)   XCENC  =        21.16987762
  PAW double counting   =       476.82119358     -479.18495657
  entropy T*S    EENTRO =        -0.00000000
  eigenvalues    EBANDS =       -81.73941500
  atomic energy  EATOM  =       578.64352442
  free energy    TOTEN  =        -0.00400564 eV

  energy without entropy =       -0.00400564  energy(sigma->0) =       -0.00400564
  exchange ACFDT corr.  =         0.00000000  see jH, gK, PRB 81, 115126

  average scaling for gradient   0.7911

 average (electrostatic) potential at core
  the test charge radii are     0.8078
  (the norm of the test charge is              1.0000)
       1-110.2068

 E-fermi :  -5.3215     XC(G=0):  -5.9993     alpha+bet : -5.1558

 k-point     1 :       0.0000    0.0000    0.0000
  band No.  band energies     occupation
      1     -21.9501      1.00000
      2     -21.9500      1.00000
      3      -5.8363      1.00000
      4      -5.8363      1.00000
      5      -5.6318      1.00000
      6      -5.6318      1.00000
      7      -5.6318      1.00000
      8      -5.6317      1.00000
      9       4.8256      0.00000
     10       4.8256      0.00000
     11      12.2570      0.00000
     12      12.2570      0.00000
     13      12.2570      0.00000
     14      12.2570      0.00000
     15      12.2585      0.00000
     16      12.2585      0.00000
     17      14.9017      0.00000
     18      14.9017      0.00000
     19      14.9017      0.00000
     20      14.9017      0.00000
     21      17.4325      0.00000
     22      17.4326      0.00000
     23      20.5825      0.00000
     24      20.5889      0.00000

[...]

 k-point   216 :      -0.1667   -0.1667   -0.1667
  band No.  band energies     occupation
      1     -21.8758      1.00000
      2     -21.8757      1.00000
      3      -6.2001      1.00000
      4      -6.2001      1.00000
      5      -5.7940      1.00000
      6      -5.7939      1.00000
      7      -5.6806      1.00000
      8      -5.6805      1.00000
      9       5.6401      0.00000
     10       5.6401      0.00000
     11      11.2690      0.00000
     12      11.2690      0.00000
     13      12.5154      0.00000
     14      12.5155      0.00000
     15      12.5163      0.00000
     16      12.5164      0.00000
     17      14.4446      0.00000
     18      14.4446      0.00000
     19      14.4461      0.00000
     20      14.4461      0.00000
     21      18.2038      0.00000
     22      18.2038      0.00000
     23      19.7519      0.00000
     24      19.7519      0.00000

 soft charge-density along one line, spin component           1
         0         1         2         3         4         5         6         7         8         9
 total charge-density along one line

[...]

 soft charge-density along one line, spin component           4
         0         1         2         3         4         5         6         7         8         9
 total charge-density along one line

------------------------ aborting loop because EDIFF is reached ----------------------------------------

  FORCE on cell =-STRESS in cart. coord.  units (eV):
  Direction    XX          YY          ZZ          XY          YZ          ZX
  Alpha Z     9.11079     9.11079     9.11079
  Ewald    -138.33439  -138.33439  -138.33439    -0.00000    -0.00000    -0.00000
  Hartree    43.21929    43.21929    43.21929    -0.00000     0.00000    -0.00000
  E(xc)     -24.13853   -24.13853   -24.13853     0.00000     0.00000    -0.00000
  Local    -111.20865  -111.20870  -111.20870     0.00004     0.00001     0.00003
  n-local    95.85761    95.85761    95.85761    -0.00000    -0.00000    -0.00000
  augment   -10.74188   -10.74184   -10.74184    -0.00003    -0.00001    -0.00002
  Kinetic   145.51896   145.51896   145.51896     0.00000    -0.00000     0.00000
  Fock       -9.10956    -9.10954    -9.10953    -0.00002    -0.00001    -0.00002
  Total       0.17363     0.17365     0.17366    -0.00002    -0.00001    -0.00001
  in kB       8.43452     8.43556     8.43583    -0.00081    -0.00054    -0.00050

 VOLUME and BASIS-vectors are now :
  energy-cutoff  :      300.00
  volume of cell :       32.98
      direct lattice vectors                 reciprocal lattice vectors
     3.599696745  0.000000000  0.000000000     0.277801179 -0.160388585 -0.113411856
     1.799848373  3.117428827 -0.000000000     0.000000000  0.320777171 -0.113411856
     1.799848373  1.039142942  2.939140085    -0.000000000  0.000000000  0.340235569

  length of vectors
     3.599696745  3.599696745  3.599696745     0.340235569  0.340235569  0.340235569

 FORCES acting on ions:
    Electron-Ion                     Ewald-Force                    Non-Local-Force
   -.170E-05 0.117E-05 -.203E-05   0.344E-15 0.140E-15 -.637E-15   0.185E-05 -.369E-05 0.204E-05
   -.171E-05 0.119E-05 -.204E-05   0.344E-15 0.140E-15 -.637E-15   0.185E-05 -.369E-05 0.204E-05

 POSITION                                       TOTAL-FORCE (eV/Angst)
      0.00000      0.00000      0.00000         0.000000     -0.000003      0.000000
    total drift:                                0.000000     -0.000003      0.000000

  FREE ENERGIE OF THE ION-ELECTRON SYSTEM (eV)
  free  energy   TOTEN  =        -0.00400564 eV

  energy  without entropy=       -0.00400564  energy(sigma->0) =       -0.00400564

 writing wavefunctions

 Spin-Orbit-Coupling matrix elements

 Ion:    1  E_soc:     -0.0048055
 l=   1
     0.0000000    -0.0008009    -0.0008009
    -0.0008009     0.0000000    -0.0008009
    -0.0008009    -0.0008009     0.0000000
 l=   2
     0.0000000    -0.0000000     0.0000000    -0.0000000    -0.0000000
    -0.0000000     0.0000000    -0.0000000    -0.0000000    -0.0000000
     0.0000000    -0.0000000     0.0000000    -0.0000000     0.0000000
    -0.0000000    -0.0000000    -0.0000000     0.0000000    -0.0000000
    -0.0000000    -0.0000000     0.0000000    -0.0000000     0.0000000
 l=   3
     0.0000000     0.0000000     0.0000000     0.0000000     0.0000000     0.0000000     0.0000000
     0.0000000     0.0000000     0.0000000     0.0000000     0.0000000     0.0000000     0.0000000
     0.0000000     0.0000000     0.0000000     0.0000000     0.0000000     0.0000000     0.0000000
     0.0000000     0.0000000     0.0000000     0.0000000     0.0000000     0.0000000     0.0000000
     0.0000000     0.0000000     0.0000000     0.0000000     0.0000000     0.0000000     0.0000000
     0.0000000     0.0000000     0.0000000     0.0000000     0.0000000     0.0000000     0.0000000
     0.0000000     0.0000000     0.0000000     0.0000000     0.0000000     0.0000000     0.0000000