 vasp.5.4.4.18Apr17-6-g9f103f2a35 (build Jul 09 2018 16:43:14) complex

 executed on             LinuxIFC date 2018.11.29  21:56:45

 INCAR:
 POTCAR:    PAW_PBE Rn_d_GW 14Apr2014

 POTCAR:    PAW_PBE Rn_d_GW 14Apr2014
   VRHFIN =Rn:

   TITEL  = PAW_PBE Rn_d_GW 14Apr2014
   POMASS =  220.170; ZVAL   =   18.000    mass and valenz
   ENMAX  =  268.495; ENMIN  =  201.371 eV

  PAW_PBE Rn_d_GW 14Apr2014             :

 POSCAR: Rn_FCC
  positions in direct lattice
  velocities in cartesian coordinates

 METAGGA = SCAN     LMAXTAU =  0    LMIXTAU =  F

 ion  position               nearest neighbor table
   1  0.000  0.000  0.000-

IMPORTANT INFORMATION: All symmetrisations will be switched off!
NOSYMM: (Re-)initialisation of all symmetry stuff for point group C_1.

 KPOINTS: k-points

Automatic generation of k-mesh.
Space group operators:
 irot       det(A)        alpha          n_x          n_y          n_z        tau_x        tau_y        tau_z
    1     1.000000     0.000000     1.000000     0.000000     0.000000     0.000000     0.000000     0.000000

 Subroutine IBZKPT returns following result:

 Found    216 irreducible k-points:

 Following reciprocal coordinates:
            Coordinates               Weight
  0.000000  0.000000  0.000000      1.000000
  0.166667  0.000000  0.000000      1.000000
  0.333333  0.000000  0.000000      1.000000
  0.500000  0.000000  0.000000      1.000000
 -0.333333 -0.000000 -0.000000      1.000000
 -0.166667 -0.000000  0.000000      1.000000
  0.000000  0.166667  0.000000      1.000000
  0.166667  0.166667  0.000000      1.000000
  0.333333  0.166667  0.000000      1.000000
  0.500000  0.166667  0.000000      1.000000
 -0.333333  0.166667  0.000000      1.000000
 -0.166667  0.166667  0.000000      1.000000
  0.000000  0.333333  0.000000      1.000000
  0.166667  0.333333  0.000000      1.000000
  0.333333  0.333333  0.000000      1.000000
  0.500000  0.333333  0.000000      1.000000
 -0.333333  0.333333 -0.000000      1.000000
 -0.166667  0.333333 -0.000000      1.000000
  0.000000  0.500000  0.000000      1.000000
  0.166667  0.500000  0.000000      1.000000
  0.333333  0.500000  0.000000      1.000000
  0.500000  0.500000 -0.000000      1.000000
 -0.333333  0.500000 -0.000000      1.000000
 -0.166667  0.500000  0.000000      1.000000
 -0.000000 -0.333333  0.000000      1.000000
  0.166667 -0.333333  0.000000      1.000000
  0.333333 -0.333333  0.000000      1.000000
  0.500000 -0.333333 -0.000000      1.000000
 -0.333333 -0.333333 -0.000000      1.000000
 -0.166667 -0.333333  0.000000      1.000000
 -0.000000 -0.166667 -0.000000      1.000000
  0.166667 -0.166667  0.000000      1.000000
  0.333333 -0.166667  0.000000      1.000000
  0.500000 -0.166667  0.000000      1.000000
 -0.333333 -0.166667 -0.000000      1.000000
 -0.166667 -0.166667  0.000000      1.000000
 -0.000000 -0.000000  0.166667      1.000000
  0.166667  0.000000  0.166667      1.000000
  0.333333  0.000000  0.166667      1.000000
  0.500000  0.000000  0.166667      1.000000
 -0.333333 -0.000000  0.166667      1.000000
 -0.166667 -0.000000  0.166667      1.000000
  0.000000  0.166667  0.166667      1.000000
  0.166667  0.166667  0.166667      1.000000
  0.333333  0.166667  0.166667      1.000000
  0.500000  0.166667  0.166667      1.000000
 -0.333333  0.166667  0.166667      1.000000
 -0.166667  0.166667  0.166667      1.000000
  0.000000  0.333333  0.166667      1.000000
  0.166667  0.333333  0.166667      1.000000
  0.333333  0.333333  0.166667      1.000000
  0.500000  0.333333  0.166667      1.000000
 -0.333333  0.333333  0.166667      1.000000
 -0.166667  0.333333  0.166667      1.000000
  0.000000  0.500000  0.166667      1.000000
  0.166667  0.500000  0.166667      1.000000
  0.333333  0.500000  0.166667      1.000000
  0.500000  0.500000  0.166667      1.000000
 -0.333333  0.500000  0.166667      1.000000
 -0.166667  0.500000  0.166667      1.000000
[...]
  0.500000  0.500000 -0.166667      1.000000
 -0.333333  0.500000 -0.166667      1.000000
 -0.166667  0.500000 -0.166667      1.000000
 -0.000000 -0.333333 -0.166667      1.000000
  0.166667 -0.333333 -0.166667      1.000000
  0.333333 -0.333333 -0.166667      1.000000
  0.500000 -0.333333 -0.166667      1.000000
 -0.333333 -0.333333 -0.166667      1.000000
 -0.166667 -0.333333 -0.166667      1.000000
  0.000000 -0.166667 -0.166667      1.000000
  0.166667 -0.166667 -0.166667      1.000000
  0.333333 -0.166667 -0.166667      1.000000
  0.500000 -0.166667 -0.166667      1.000000
 -0.333333 -0.166667 -0.166667      1.000000
 -0.166667 -0.166667 -0.166667      1.000000

 Following cartesian coordinates:
            Coordinates               Weight
  0.000000  0.000000  0.000000      1.000000
  0.036869 -0.021286 -0.015052      1.000000
  0.073737 -0.042572 -0.030103      1.000000
  0.110606 -0.063858 -0.045155      1.000000
 -0.073737  0.042572  0.030103      1.000000
 -0.036869  0.021286  0.015052      1.000000
  0.000000  0.042572 -0.015052      1.000000
  0.036869  0.021286 -0.030103      1.000000
  0.073737  0.000000 -0.045155      1.000000
  0.110606 -0.021286 -0.060206      1.000000
 -0.073737  0.085144  0.015052      1.000000
 -0.036869  0.063858  0.000000      1.000000
  0.000000  0.085144 -0.030103      1.000000
  0.036869  0.063858 -0.045155      1.000000
  0.073737  0.042572 -0.060206      1.000000
  0.110606  0.021286 -0.075258      1.000000
 -0.073737  0.127716  0.000000      1.000000
 -0.036869  0.106430 -0.015052      1.000000
  0.000000  0.127716 -0.045155      1.000000
  0.036869  0.106430 -0.060206      1.000000
  0.073737  0.085144 -0.075258      1.000000
  0.110606  0.063858 -0.090309      1.000000
 -0.073737  0.170289 -0.015052      1.000000
 -0.036869  0.149002 -0.030103      1.000000
 -0.000000 -0.085144  0.030103      1.000000
  0.036869 -0.106430  0.015052      1.000000
  0.073737 -0.127716 -0.000000      1.000000
  0.110606 -0.149002 -0.015052      1.000000
 -0.073737 -0.042572  0.060206      1.000000
 -0.036869 -0.063858  0.045155      1.000000
 -0.000000 -0.042572  0.015052      1.000000
  0.036869 -0.063858 -0.000000      1.000000
  0.073737 -0.085144 -0.015052      1.000000
  0.110606 -0.106430 -0.030103      1.000000
 -0.073737  0.000000  0.045155      1.000000
 -0.036869 -0.021286  0.030103      1.000000
 -0.000000  0.000000  0.045155      1.000000
  0.036869 -0.021286  0.030103      1.000000
  0.073737 -0.042572  0.015052      1.000000
  0.110606 -0.063858 -0.000000      1.000000
 -0.073737  0.042572  0.075258      1.000000
 -0.036869  0.021286  0.060206      1.000000
 -0.000000  0.042572  0.030103      1.000000
  0.036869  0.021286  0.015052      1.000000
  0.073737  0.000000  0.000000      1.000000
  0.110606 -0.021286 -0.015052      1.000000
 -0.073737  0.085144  0.060206      1.000000
 -0.036869  0.063858  0.045155      1.000000
 -0.000000  0.085144  0.015052      1.000000
  0.036869  0.063858  0.000000      1.000000
  0.073737  0.042572 -0.015052      1.000000
  0.110606  0.021286 -0.030103      1.000000
 -0.073737  0.127716  0.045155      1.000000
 -0.036869  0.106430  0.030103      1.000000
 -0.000000  0.127716  0.000000      1.000000
  0.036869  0.106430 -0.015052      1.000000
  0.073737  0.085144 -0.030103      1.000000
  0.110606  0.063858 -0.045155      1.000000
 -0.073737  0.170289  0.030103      1.000000
 -0.036869  0.149002  0.015052      1.000000
[...]
  0.110606  0.063858 -0.135464      1.000000
 -0.073737  0.170289 -0.060206      1.000000
 -0.036869  0.149002 -0.075258      1.000000
  0.000000 -0.085144 -0.015052      1.000000
  0.036869 -0.106430 -0.030103      1.000000
  0.073737 -0.127716 -0.045155      1.000000
  0.110606 -0.149002 -0.060206      1.000000
 -0.073737 -0.042572  0.015052      1.000000
 -0.036869 -0.063858 -0.000000      1.000000
  0.000000 -0.042572 -0.030103      1.000000
  0.036869 -0.063858 -0.045155      1.000000
  0.073737 -0.085144 -0.060206      1.000000
  0.110606 -0.106430 -0.075258      1.000000
 -0.073737  0.000000  0.000000      1.000000
 -0.036869 -0.021286 -0.015052      1.000000

 SYSTEM =  Og_FCC
 POSCAR =  Rn_FCC

 Startparameter for this run:
   NWRITE =      2    write-flag & timer
   PREC   = accura    normal or accurate (medium, high low for compatibility)
   ISTART =      1    job   : 0-new  1-cont  2-samecut
   ICHARG =      0    charge: 1-file 2-atom 10-const
   ISPIN  =      1    spin polarized calculation?
   LNONCOLLINEAR =      T non collinear calculations
   LSORBIT =      T    spin-orbit coupling
   INIWAV =      1    electr: 0-lowe 1-rand  2-diag
   LASPH  =      F    aspherical Exc in radial PAW
   METAGGA=      F    non-selfconsistent MetaGGA calc.

 Electronic Relaxation 1
   ENCUT  =  300.0 eV  22.05 Ry    4.70 a.u.   6.38  6.38  6.38*2*pi/ulx,y,z
   ENINI  =  300.0     initial cutoff
   ENAUG  =  715.6 eV  augmentation charge cutoff
   NELM   =     50;   NELMIN=  2; NELMDL= -5     # of ELM steps
   EDIFF  = 0.1E-07   stopping-criterion for ELM
   LREAL  =      F    real-space projection
   NLSPLINE    = F    spline interpolate recip. space projectors
   LCOMPAT=      F    compatible to vasp.4.4
   GGA_COMPAT  = F    GGA compatible to vasp.4.4-vasp.4.6
   LMAXPAW     = -100 max onsite density
   LMAXMIX     =    2 max onsite mixed and CHGCAR
   VOSKOWN=      0    Vosko Wilk Nusair interpolation
   ROPT   =    0.00000
 Ionic relaxation
   EDIFFG = 0.1E-04   stopping-criterion for IOM
   NSW    =      1    number of steps for IOM
   NBLOCK =      1;   KBLOCK =      1    inner block; outer block
   IBRION =     -1    ionic relax: 0-MD 1-quasi-New 2-CG
   NFREE  =      5    steps in history (QN), initial steepest desc. (CG)
   ISIF   =      3    stress and relaxation
   IWAVPR =     10    prediction:  0-non 1-charg 2-wave 3-comb
   ISYM   =      0    0-nonsym 1-usesym 2-fastsym
   LCORR  =      T    Harris-Foulkes like correction to forces

   POTIM  = 0.1000    time-step for ionic-motion
   TEIN   =    0.0    initial temperature
   TEBEG  =    0.0;   TEEND  =   0.0 temperature during run
   SMASS  =  -3.00    Nose mass-parameter (am)
   estimated Nose-frequenzy (Omega)   =  0.10E-29 period in steps =****** mass=  -0.467E-27a.u.
   SCALEE = 1.0000    scale energy and forces
   NPACO  =    256;   APACO  = 16.0  distance and # of slots for P.C.
   PSTRESS=    0.0 pullay stress

  Mass of Ions in am
   POMASS = 220.17
  Ionic Valenz
   ZVAL   =  18.00
  Atomic Wigner-Seitz radii
  virtual crystal weights
   VCA    =   1.00
   NELECT =      18.0000    total number of electrons
   NUPDOWN=      -1.0000    fix difference up-down

 DOS related values:
   EMIN   =  10.00;   EMAX   =-10.00  energy-range for DOS
   EFERMI =   0.00
   ISMEAR =     0;   SIGMA  =   0.00  broadening in eV -4-tet -1-fermi 0-gaus

 Electronic relaxation 2 (details)
   IALGO  =     90    algorithm
   LDIAG  =      T    sub-space diagonalisation (order eigenvalues)
   LSUBROT=      F    optimize rotation matrix (better conditioning)
   TURBO    =      0    0=normal 1=particle mesh
   IRESTART =      0    0=no restart 2=restart with 2 vectors
   NREBOOT  =      0    no. of reboots
   NMIN     =      0    reboot dimension
[...]
   56.222206    1.300639    1.300638    1.300635    0.000001   -0.000000    0.000001
   57.369598    1.092284    1.092288    1.092293   -0.000005   -0.000001   -0.000003
   58.516990    1.076951    1.076950    1.076951    0.000001    0.000000    0.000001
   59.664382    1.125755    1.125753    1.125752    0.000002    0.000001    0.000002
   60.811773    1.116585    1.116584    1.116583    0.000001    0.000000    0.000001
   61.959165    0.972000    0.971998    0.972004    0.000000    0.000000    0.000001
   63.106557    1.056525    1.056524    1.056527    0.000002    0.000001    0.000001
   64.253949    0.928430    0.928429    0.928431    0.000001    0.000000    0.000001
   65.401341    0.873151    0.873151    0.873148    0.000001    0.000000    0.000000
   66.548733    0.904743    0.904742    0.904742    0.000001    0.000000    0.000000
   67.696125    0.920412    0.920412    0.920412    0.000000   -0.000000    0.000000
[...]
   97.528316    0.917422    0.917422    0.917421    0.000000    0.000000    0.000000
   98.675708    0.922000    0.922000    0.922000    0.000000    0.000000    0.000000
   99.823100    0.925922    0.925922    0.925922    0.000000    0.000000    0.000000
  100.970492    0.929372    0.929372    0.929372    0.000000    0.000000    0.000000
  102.117884    0.932458    0.932458    0.932458    0.000000    0.000000    0.000000
  103.265276    0.935252    0.935252    0.935252    0.000000    0.000000    0.000000
  104.412668    0.937803    0.937803    0.937803    0.000000    0.000000    0.000000
  105.560060    0.940150    0.940150    0.940150    0.000000    0.000000    0.000000
  106.707452    0.942319    0.942319    0.942319    0.000000    0.000000    0.000000
  107.854844    0.944336    0.944336    0.944336    0.000000    0.000000    0.000000
  109.002236    0.946217    0.946217    0.946217    0.000000    0.000000    0.000000
  110.149627    0.947978    0.947978    0.947977    0.000000    0.000000    0.000000
  111.297019    0.949631    0.949631    0.949631    0.000000    0.000000    0.000000
  112.444411    0.951187    0.951187    0.951187    0.000000    0.000000    0.000000
  113.591803    0.952656    0.952656    0.952656    0.000000    0.000000    0.000000

  frequency dependent IMAGINARY DIELECTRIC FUNCTION (independent particle, no local field effects) current-current (2nd set in vasprun.xml)
     E(ev)      X         Y         Z        XY        YZ        ZX
    0.000000    0.000000    0.000000    0.000000    0.000000    0.000000    0.000000
    1.147392    0.000000    0.000000    0.000000    0.000000    0.000000    0.000000
    2.294784    0.000000    0.000000    0.000000    0.000000    0.000000    0.000000
    3.442176    0.000000    0.000000    0.000000    0.000000    0.000000    0.000000
    4.589568    0.000000    0.000000    0.000000    0.000000    0.000000    0.000000
    5.736960    3.048746    3.048733    3.048698    0.000015    0.000006    0.000012
    6.884352    4.946007    4.945963    4.945849    0.000047    0.000015    0.000037
    8.031744    1.139026    1.139028    1.139039   -0.000000    0.000000   -0.000002
    9.179136    2.731095    2.731121    2.731139   -0.000030   -0.000010   -0.000021
   10.326528    1.101284    1.101283    1.101277    0.000002    0.000001    0.000002
   11.473920    3.148830    3.148834    3.148869   -0.000004   -0.000001   -0.000003
   12.621311    3.456272    3.456280    3.456297   -0.000008   -0.000002   -0.000006
   13.768703    1.523277    1.523459    1.523934   -0.000226   -0.000063   -0.000161
   14.916095    0.450023    0.450029    0.450046   -0.000007   -0.000002   -0.000006
   16.063487    0.639987    0.639988    0.639993   -0.000001   -0.000000   -0.000002
   17.210879    0.640529    0.640532    0.640536   -0.000004   -0.000001   -0.000002
   18.358271    0.354320    0.354317    0.354319    0.000000   -0.000001    0.000002
   19.505663    0.820712    0.820694    0.820641    0.000016    0.000002    0.000016
   20.653055    0.044935    0.044935    0.044940   -0.000000   -0.000000   -0.000000
   21.800447    0.424725    0.424718    0.424680   -0.000003   -0.000003    0.000014
   22.947839    0.104976    0.104976    0.104976    0.000000    0.000000    0.000000
   24.095231    0.078011    0.078011    0.078010   -0.000000   -0.000000    0.000000
   25.242623    0.193943    0.193941    0.193939    0.000003    0.000001    0.000002
   26.390015    0.125218    0.125218    0.125219    0.000000    0.000000   -0.000000
   27.537407    0.145820    0.145823    0.145817    0.000004    0.000003   -0.000003
   28.684799    0.069639    0.069639    0.069636    0.000001    0.000000    0.000001
   29.832191    0.102687    0.102688    0.102693    0.000004    0.000003    0.000001
   30.979583    0.076021    0.076021    0.076021    0.000000    0.000000   -0.000001
   32.126975    0.057974    0.057971    0.057968    0.000003    0.000001    0.000003
   33.274367    0.051265    0.051264    0.051264   -0.000001   -0.000000    0.000000
   34.421759    0.039435    0.039437    0.039439   -0.000002   -0.000000   -0.000003
   35.569151    0.006202    0.006202    0.006202   -0.000000   -0.000000   -0.000000
   36.716542    0.008451    0.008451    0.008451    0.000000    0.000000    0.000000
   37.863934    0.018186    0.018188    0.018187    0.000001    0.000001   -0.000001
   39.011326    0.010694    0.010695    0.010696    0.000000    0.000000    0.000000
   40.158718    0.010430    0.010430    0.010431   -0.000000    0.000000   -0.000000
   41.306110    0.032776    0.032776    0.032775    0.000001    0.000000    0.000000
   42.453502    0.002152    0.002150    0.002150    0.000000   -0.000001    0.000001
   43.600894    0.003758    0.003759    0.003766   -0.000001   -0.000001    0.000000
   44.748286    0.004609    0.004609    0.004609    0.000000    0.000000    0.000000
   45.895678    0.009843    0.009843    0.009844   -0.000000    0.000000   -0.000000
   47.043070    0.037334    0.037334    0.037334    0.000000    0.000000    0.000000
   48.190462    0.011215    0.011211    0.011205    0.000004    0.000002    0.000004
   49.337854    0.021109    0.021109    0.021108   -0.000001   -0.000000   -0.000000
   50.485246    0.016598    0.016598    0.016598    0.000000    0.000000    0.000000
   51.632638    0.013636    0.013637    0.013636    0.000000    0.000000   -0.000001
   52.780030    0.103079    0.103079    0.103081   -0.000001   -0.000000   -0.000001
   53.927422    0.090570    0.090569    0.090570    0.000000   -0.000000    0.000000
   55.074814    0.003434    0.003436    0.003435    0.000000    0.000001   -0.000001
   56.222206    0.184620    0.184620    0.184620   -0.000000   -0.000000    0.000000
   57.369598    0.070116    0.070116    0.070124   -0.000001   -0.000000   -0.000001
   58.516990    0.121444    0.121450    0.121446   -0.000008   -0.000002   -0.000005
   59.664382    0.304379    0.304374    0.304375    0.000007    0.000002    0.000005
   60.811773    0.280928    0.280927    0.280924    0.000001    0.000000    0.000001
   61.959165    0.734759    0.734770    0.734733   -0.000002   -0.000002   -0.000004
   63.106557    0.326614    0.326613    0.326606    0.000000   -0.000001    0.000002
   64.253949    0.278274    0.278274    0.278274    0.000000    0.000000    0.000000
   65.401341    0.085097    0.085097    0.085092    0.000004    0.000001   -0.000001
   66.548733    0.052605    0.052605    0.052604    0.000001    0.000000    0.000000
   67.696125    0.313766    0.313767    0.313765   -0.000001   -0.000000   -0.000001
[...]
   97.528316    0.000000    0.000000    0.000000    0.000000    0.000000    0.000000
   98.675708    0.000000    0.000000    0.000000    0.000000    0.000000    0.000000
   99.823100    0.000000    0.000000    0.000000    0.000000    0.000000    0.000000
  100.970492    0.000000    0.000000    0.000000    0.000000    0.000000    0.000000
  102.117884    0.000000    0.000000    0.000000    0.000000    0.000000    0.000000
  103.265276    0.000000    0.000000    0.000000    0.000000    0.000000    0.000000
  104.412668    0.000000    0.000000    0.000000    0.000000    0.000000    0.000000
  105.560060    0.000000    0.000000    0.000000    0.000000    0.000000    0.000000
  106.707452    0.000000    0.000000    0.000000    0.000000    0.000000    0.000000
  107.854844    0.000000    0.000000    0.000000    0.000000    0.000000    0.000000
  109.002236    0.000000    0.000000    0.000000    0.000000    0.000000    0.000000
  110.149627    0.000000    0.000000    0.000000    0.000000    0.000000    0.000000
  111.297019    0.000000    0.000000    0.000000    0.000000    0.000000    0.000000
  112.444411    0.000000    0.000000    0.000000    0.000000    0.000000    0.000000
  113.591803    0.000000    0.000000    0.000000    0.000000    0.000000    0.000000

  frequency dependent      REAL DIELECTRIC FUNCTION (independent particle, no local field effects) current-current (2nd set in vasprun.xml)
     E(ev)        X           Y           Z          XY          YZ          ZX
    0.000000    2.601786    2.601786    2.604104    0.000001    0.000001    0.000001
    1.147392    2.629232    2.629255    2.629255    0.000002    0.000001    0.000001
    2.294784    2.721520    2.721520    2.721514    0.000002    0.000001    0.000002
    3.442176    2.921641    2.921638    2.921633    0.000002    0.000001    0.000002
    4.589568    3.110178    3.110176    3.110168    0.000003    0.000001    0.000003
    5.736960    3.487149    3.487150    3.487150   -0.000000    0.000001    0.000001
    6.884352    3.937637    3.937640    3.937639   -0.000002    0.000000    0.000000
    8.031744    1.784121    1.784138    1.784187   -0.000018   -0.000003   -0.000009
    9.179136    0.806857    0.806877    0.806899   -0.000027   -0.000003   -0.000000
   10.326528    1.396883    1.396885    1.396885   -0.000002   -0.000001   -0.000001
   11.473920    0.166876    0.166878    0.166891   -0.000003   -0.000001   -0.000002
   12.621311   -0.232954   -0.232953   -0.232955    0.000000   -0.000000   -0.000000
   13.768703   -0.059050   -0.059028   -0.058974   -0.000027   -0.000006   -0.000019
   14.916095    0.046072    0.046070    0.046064    0.000002    0.000001    0.000001
   16.063487    0.401962    0.401956    0.401941    0.000008    0.000002    0.000006
   17.210879    0.195869    0.195869    0.195864    0.000001    0.000000   -0.000001
   18.358271    0.633460    0.633463    0.633459   -0.000001    0.000000   -0.000002
   19.505663    0.218608    0.218660    0.218697   -0.000038   -0.000006   -0.000049
   20.653055    0.458666    0.458668    0.458665   -0.000001    0.000000   -0.000001
   21.800447    0.594428    0.594427    0.594420   -0.000001   -0.000001    0.000002
   22.947839    0.489651    0.489652    0.489653   -0.000001   -0.000000   -0.000001
   24.095231    0.633431    0.633430    0.633429   -0.000000   -0.000000    0.000000
   25.242623    0.713318    0.713317    0.713317   -0.000001   -0.000000    0.000000
   26.390015    0.706478    0.706478    0.706478   -0.000000   -0.000000    0.000000
   27.537407    0.786780    0.786778    0.786777   -0.000000   -0.000001    0.000001
   28.684799    0.799057    0.799057    0.799054    0.000001    0.000000    0.000000
   29.832191    0.834753    0.834752    0.834750   -0.000000   -0.000000    0.000000
   30.979583    0.813655    0.813655    0.813656   -0.000001   -0.000000   -0.000000
   32.126975    0.859790    0.859791    0.859791   -0.000001   -0.000000   -0.000001
   33.274367    0.881886    0.881886    0.881886    0.000001    0.000000    0.000000
   34.421759    0.874585    0.874585    0.874585    0.000001    0.000000    0.000000
   35.569151    0.892929    0.892929    0.892929    0.000000    0.000000   -0.000000
   36.716542    0.906924    0.906924    0.906924    0.000000    0.000000    0.000000
   37.863934    0.930395    0.930395    0.930395    0.000000    0.000000   -0.000000
   39.011326    0.939299    0.939299    0.939300   -0.000000   -0.000000    0.000000
   40.158718    0.948220    0.948220    0.948220    0.000000    0.000000   -0.000000
   41.306110    0.973672    0.973672    0.973672   -0.000000   -0.000000   -0.000000
   42.453502    0.986554    0.986555    0.986555   -0.000000    0.000000   -0.000000
   43.600894    0.996356    0.996356    0.996358   -0.000000   -0.000000   -0.000000
   44.748286    1.020471    1.020471    1.020471    0.000000    0.000000    0.000000
   45.895678    1.031215    1.031215    1.031215    0.000000    0.000000    0.000000
   47.043070    1.039538    1.039538    1.039538   -0.000000   -0.000000   -0.000000
   48.190462    1.049857    1.049856    1.049855    0.000001    0.000000    0.000001
   49.337854    1.058179    1.058179    1.058179   -0.000000   -0.000000   -0.000000
   50.485246    1.072646    1.072647    1.072651   -0.000002   -0.000001   -0.000001
   51.632638    1.090739    1.090739    1.090739    0.000000   -0.000000   -0.000000
   52.780030    1.092628    1.092628    1.092628   -0.000000   -0.000000    0.000000
   53.927422    1.154470    1.154470    1.154470    0.000000   -0.000000    0.000000
   55.074814    1.134954    1.134954    1.134954    0.000000   -0.000000    0.000000
   56.222206    1.300034    1.300033    1.300030    0.000001   -0.000000    0.000001
   57.369598    1.091296    1.091299    1.091304   -0.000005   -0.000001   -0.000003
   58.516990    1.076434    1.076434    1.076434    0.000002    0.000000    0.000001
   59.664382    1.124766    1.124764    1.124763    0.000002    0.000001    0.000002
   60.811773    1.115568    1.115568    1.115566    0.000001    0.000000    0.000001
   61.959165    0.970587    0.970585    0.970591    0.000000    0.000000    0.000001
   63.106557    1.055522    1.055522    1.055525    0.000002    0.000001    0.000001
   64.253949    0.927608    0.927608    0.927610    0.000001    0.000000    0.000001
   65.401341    0.872576    0.872575    0.872573    0.000001    0.000000    0.000000
   66.548733    0.904279    0.904278    0.904278    0.000001    0.000000    0.000000
   67.696125    0.919628    0.919628    0.919628    0.000000   -0.000000    0.000000
[...]
   97.528316    0.917425    0.917425    0.917425    0.000000    0.000000    0.000000
   98.675708    0.922003    0.922003    0.922003    0.000000    0.000000    0.000000
   99.823100    0.925926    0.925925    0.925925    0.000000    0.000000    0.000000
  100.970492    0.929376    0.929376    0.929375    0.000000    0.000000    0.000000
  102.117884    0.932462    0.932462    0.932462    0.000000    0.000000    0.000000
  103.265276    0.935255    0.935255    0.935255    0.000000    0.000000    0.000000
  104.412668    0.937807    0.937807    0.937807    0.000000    0.000000    0.000000
  105.560060    0.940153    0.940153    0.940153    0.000000    0.000000    0.000000
  106.707452    0.942323    0.942323    0.942323    0.000000    0.000000    0.000000
  107.854844    0.944339    0.944339    0.944339    0.000000    0.000000    0.000000
  109.002236    0.946220    0.946220    0.946220    0.000000    0.000000    0.000000
  110.149627    0.947981    0.947981    0.947980    0.000000    0.000000    0.000000
  111.297019    0.949634    0.949634    0.949634    0.000000    0.000000    0.000000
  112.444411    0.951190    0.951190    0.951190    0.000000    0.000000    0.000000
  113.591803    0.952659    0.952659    0.952659    0.000000    0.000000    0.000000

 The outermost node in the dielectric function lies at epsilon=  17.1

 Spin-Orbit-Coupling matrix elements

 Ion:    1  E_soc:     -3.6565953
 l=   1
     0.0000000    -0.4887891    -0.4887896
    -0.4887891     0.0000000    -0.4887892
    -0.4887896    -0.4887892     0.0000000
 l=   2
     0.0000000    -0.0241283     0.0000000    -0.0241283    -0.0965150
    -0.0241283     0.0000000    -0.0723863    -0.0241278    -0.0241283
     0.0000000    -0.0723863     0.0000000    -0.0723863     0.0000000
    -0.0241283    -0.0241278    -0.0723863     0.0000000    -0.0241283
    -0.0965150    -0.0241283     0.0000000    -0.0241283     0.0000000
 l=   3
     0.0000000    -0.0000000     0.0000000     0.0000000     0.0000000    -0.0000000    -0.0000003
    -0.0000000     0.0000000    -0.0000001     0.0000000    -0.0000001    -0.0000001    -0.0000001
     0.0000000    -0.0000001     0.0000000    -0.0000002    -0.0000001    -0.0000001     0.0000000
     0.0000000     0.0000000    -0.0000002     0.0000000    -0.0000002     0.0000000     0.0000000
     0.0000000    -0.0000001    -0.0000001    -0.0000002     0.0000000    -0.0000001     0.0000000
    -0.0000000    -0.0000001    -0.0000001     0.0000000    -0.0000001     0.0000000    -0.0000001
    -0.0000003    -0.0000001     0.0000000     0.0000000     0.0000000    -0.0000001     0.0000000