 vasp.5.4.4.18Apr17-6-g9f103f2a35 (build Nov 03 2018 10:20:46) complex

 executed on             LinuxIFC date 2018.12.14  05:48:38

 INCAR:
 POTCAR:    PAW_PBE Xe_GW 08Jan2009

 POTCAR:    PAW_PBE Xe_GW 08Jan2009
   VRHFIN =Xe: s2p6

   TITEL  = PAW_PBE Xe_GW 08Jan2009
   POMASS =  131.294; ZVAL   =    8.000    mass and valenz
   ENMAX  =  179.547; ENMIN  =  134.660 eV

  PAW_PBE Xe_GW 08Jan2009               :

 POSCAR: Xe_FCC
  positions in direct lattice
  velocities in cartesian coordinates
 exchange correlation table for  LEXCH =        8
   RHO(1)=    0.500       N(1)  =     2000
   RHO(2)=  100.500       N(2)  =     4000

 ion  position               nearest neighbor table
   1  0.000  0.000  0.000-

IMPORTANT INFORMATION: All symmetrisations will be switched off!
NOSYMM: (Re-)initialisation of all symmetry stuff for point group C_1.

 KPOINTS: k-points

Automatic generation of k-mesh.
Space group operators:
 irot       det(A)        alpha          n_x          n_y          n_z        tau_x        tau_y        tau_z
    1     1.000000     0.000000     1.000000     0.000000     0.000000     0.000000     0.000000     0.000000

 Subroutine IBZKPT returns following result:

 Found    172 irreducible k-points:

 Following reciprocal coordinates:
            Coordinates               Weight
  0.000000  0.000000  0.000000      1.000000
  0.142857 -0.000000 -0.000000      2.000000
  0.285714 -0.000000 -0.000000      2.000000
  0.428571  0.000000 -0.000000      2.000000
  0.000000  0.142857  0.000000      2.000000
  0.142857  0.142857 -0.000000      2.000000
  0.285714  0.142857 -0.000000      2.000000
  0.428571  0.142857 -0.000000      2.000000
 -0.428571  0.142857  0.000000      2.000000
 -0.285714  0.142857  0.000000      2.000000
 -0.142857  0.142857 -0.000000      2.000000
  0.000000  0.285714  0.000000      2.000000
  0.142857  0.285714 -0.000000      2.000000
  0.285714  0.285714 -0.000000      2.000000
  0.428571  0.285714 -0.000000      2.000000
 -0.428571  0.285714  0.000000      2.000000
 -0.285714  0.285714  0.000000      2.000000
 -0.142857  0.285714 -0.000000      2.000000
 -0.000000  0.428571  0.000000      2.000000
  0.142857  0.428571 -0.000000      2.000000
  0.285714  0.428571 -0.000000      2.000000
  0.428571  0.428571  0.000000      2.000000
 -0.428571  0.428571  0.000000      2.000000
 -0.285714  0.428571  0.000000      2.000000
 -0.142857  0.428571 -0.000000      2.000000
  0.000000  0.000000  0.142857      2.000000
  0.142857 -0.000000  0.142857      2.000000
  0.285714 -0.000000  0.142857      2.000000
  0.428571  0.000000  0.142857      2.000000
 -0.428571 -0.000000  0.142857      2.000000
 -0.285714  0.000000  0.142857      2.000000
 -0.142857 -0.000000  0.142857      2.000000
  0.000000  0.142857  0.142857      2.000000
  0.142857  0.142857  0.142857      2.000000
  0.285714  0.142857  0.142857      2.000000
  0.428571  0.142857  0.142857      2.000000
 -0.428571  0.142857  0.142857      2.000000
 -0.285714  0.142857  0.142857      2.000000
 -0.142857  0.142857  0.142857      2.000000
  0.000000  0.285714  0.142857      2.000000
  0.142857  0.285714  0.142857      2.000000
  0.285714  0.285714  0.142857      2.000000
  0.428571  0.285714  0.142857      2.000000
 -0.428571  0.285714  0.142857      2.000000
 -0.285714  0.285714  0.142857      2.000000
 -0.142857  0.285714  0.142857      2.000000
 -0.000000  0.428571  0.142857      2.000000
  0.142857  0.428571  0.142857      2.000000
  0.285714  0.428571  0.142857      2.000000
  0.428571  0.428571  0.142857      2.000000
 -0.428571  0.428571  0.142857      2.000000
 -0.285714  0.428571  0.142857      2.000000
 -0.142857  0.428571  0.142857      2.000000
  0.000000 -0.428571  0.142857      2.000000
  0.142857 -0.428571  0.142857      2.000000
  0.285714 -0.428571  0.142857      2.000000
  0.428571 -0.428571  0.142857      2.000000
 -0.428571 -0.428571  0.142857      2.000000
 -0.285714 -0.428571  0.142857      2.000000
 -0.142857 -0.428571  0.142857      2.000000
[...]
 -0.142857 -0.428571  0.428571      2.000000
  0.000000 -0.285714  0.428571      2.000000
  0.142857 -0.285714  0.428571      2.000000
  0.285714 -0.285714  0.428571      2.000000
  0.428571 -0.285714  0.428571      2.000000
 -0.428571 -0.285714  0.428571      2.000000
 -0.285714 -0.285714  0.428571      2.000000
 -0.142857 -0.285714  0.428571      2.000000
  0.000000 -0.142857  0.428571      2.000000
  0.142857 -0.142857  0.428571      2.000000
  0.285714 -0.142857  0.428571      2.000000
  0.428571 -0.142857  0.428571      2.000000
 -0.428571 -0.142857  0.428571      2.000000
 -0.285714 -0.142857  0.428571      2.000000
 -0.142857 -0.142857  0.428571      2.000000

 Following cartesian coordinates:
            Coordinates               Weight
  0.000000  0.000000  0.000000      1.000000
  0.032232 -0.018609 -0.013159      2.000000
  0.064463 -0.037218 -0.026317      2.000000
  0.096695 -0.055827 -0.039476      2.000000
  0.000000  0.037218 -0.013159      2.000000
  0.032232  0.018609 -0.026317      2.000000
  0.064463  0.000000 -0.039476      2.000000
  0.096695 -0.018609 -0.052634      2.000000
 -0.096695  0.093045  0.026317      2.000000
 -0.064463  0.074436  0.013159      2.000000
 -0.032232  0.055827  0.000000      2.000000
  0.000000  0.074436 -0.026317      2.000000
  0.032232  0.055827 -0.039476      2.000000
  0.064463  0.037218 -0.052634      2.000000
  0.096695  0.018609 -0.065793      2.000000
 -0.096695  0.130263  0.013159      2.000000
 -0.064463  0.111654  0.000000      2.000000
 -0.032232  0.093045 -0.013159      2.000000
  0.000000  0.111654 -0.039476      2.000000
  0.032232  0.093045 -0.052634      2.000000
  0.064463  0.074436 -0.065793      2.000000
  0.096695  0.055827 -0.078951      2.000000
 -0.096695  0.167481  0.000000      2.000000
 -0.064463  0.148872 -0.013159      2.000000
 -0.032232  0.130263 -0.026317      2.000000
 -0.000000  0.000000  0.039476      2.000000
  0.032232 -0.018609  0.026317      2.000000
  0.064463 -0.037218  0.013159      2.000000
  0.096695 -0.055827 -0.000000      2.000000
 -0.096695  0.055827  0.078951      2.000000
 -0.064463  0.037218  0.065793      2.000000
 -0.032232  0.018609  0.052634      2.000000
 -0.000000  0.037218  0.026317      2.000000
  0.032232  0.018609  0.013159      2.000000
  0.064463  0.000000  0.000000      2.000000
  0.096695 -0.018609 -0.013159      2.000000
 -0.096695  0.093045  0.065793      2.000000
 -0.064463  0.074436  0.052634      2.000000
 -0.032232  0.055827  0.039476      2.000000
 -0.000000  0.074436  0.013159      2.000000
  0.032232  0.055827  0.000000      2.000000
  0.064463  0.037218 -0.013159      2.000000
  0.096695  0.018609 -0.026317      2.000000
 -0.096695  0.130263  0.052634      2.000000
 -0.064463  0.111654  0.039476      2.000000
 -0.032232  0.093045  0.026317      2.000000
 -0.000000  0.111654  0.000000      2.000000
  0.032232  0.093045 -0.013159      2.000000
  0.064463  0.074436 -0.026317      2.000000
  0.096695  0.055827 -0.039476      2.000000
 -0.096695  0.167481  0.039476      2.000000
 -0.064463  0.148872  0.026317      2.000000
 -0.032232  0.130263  0.013159      2.000000
 -0.000000 -0.111654  0.078951      2.000000
  0.032232 -0.130263  0.065793      2.000000
  0.064463 -0.148872  0.052634      2.000000
  0.096695 -0.167481  0.039476      2.000000
 -0.096695 -0.055827  0.118427      2.000000
 -0.064463 -0.074436  0.105268      2.000000
 -0.032232 -0.093045  0.092110      2.000000
[...]
 -0.032232 -0.093045  0.171061      2.000000
 -0.000000 -0.074436  0.144744      2.000000
  0.032232 -0.093045  0.131585      2.000000
  0.064463 -0.111654  0.118427      2.000000
  0.096695 -0.130263  0.105268      2.000000
 -0.096695 -0.018609  0.184219      2.000000
 -0.064463 -0.037218  0.171061      2.000000
 -0.032232 -0.055827  0.157902      2.000000
 -0.000000 -0.037218  0.131585      2.000000
  0.032232 -0.055827  0.118427      2.000000
  0.064463 -0.074436  0.105268      2.000000
  0.096695 -0.093045  0.092110      2.000000
 -0.096695  0.018609  0.171061      2.000000
 -0.064463  0.000000  0.157902      2.000000
 -0.032232 -0.018609  0.144744      2.000000

 SYSTEM =  Og_FCC
 POSCAR =  Xe_FCC

 Startparameter for this run:
   NWRITE =      2    write-flag & timer
   PREC   = accura    normal or accurate (medium, high low for compatibility)
   ISTART =      1    job   : 0-new  1-cont  2-samecut
   ICHARG =      0    charge: 1-file 2-atom 10-const
   ISPIN  =      1    spin polarized calculation?
   LNONCOLLINEAR =      F non collinear calculations
   LSORBIT =      F    spin-orbit coupling
   INIWAV =      1    electr: 0-lowe 1-rand  2-diag
   LASPH  =      F    aspherical Exc in radial PAW
   METAGGA=      F    non-selfconsistent MetaGGA calc.

 Electronic Relaxation 1
   ENCUT  =  300.0 eV  22.05 Ry    4.70 a.u.   6.12  6.12  6.12*2*pi/ulx,y,z
   ENINI  =  300.0     initial cutoff
   ENAUG  =  605.9 eV  augmentation charge cutoff
   NELM   =     50;   NELMIN=  2; NELMDL= -5     # of ELM steps
   EDIFF  = 0.1E-07   stopping-criterion for ELM
   LREAL  =      F    real-space projection
   NLSPLINE    = F    spline interpolate recip. space projectors
   LCOMPAT=      F    compatible to vasp.4.4
   GGA_COMPAT  = F    GGA compatible to vasp.4.4-vasp.4.6
   LMAXPAW     = -100 max onsite density
   LMAXMIX     =    2 max onsite mixed and CHGCAR
   VOSKOWN=      0    Vosko Wilk Nusair interpolation
   ROPT   =    0.00000
 Ionic relaxation
   EDIFFG = 0.1E-04   stopping-criterion for IOM
   NSW    =      1    number of steps for IOM
   NBLOCK =      1;   KBLOCK =      1    inner block; outer block
   IBRION =     -1    ionic relax: 0-MD 1-quasi-New 2-CG
   NFREE  =      5    steps in history (QN), initial steepest desc. (CG)
   ISIF   =      3    stress and relaxation
   IWAVPR =     10    prediction:  0-non 1-charg 2-wave 3-comb
   ISYM   =      0    0-nonsym 1-usesym 2-fastsym
   LCORR  =      T    Harris-Foulkes like correction to forces

   POTIM  = 0.1000    time-step for ionic-motion
   TEIN   =    0.0    initial temperature
   TEBEG  =    0.0;   TEEND  =   0.0 temperature during run
   SMASS  =  -3.00    Nose mass-parameter (am)
   estimated Nose-frequenzy (Omega)   =  0.10E-29 period in steps =****** mass=  -0.430E-27a.u.
   SCALEE = 1.0000    scale energy and forces
   NPACO  =    256;   APACO  = 16.0  distance and # of slots for P.C.
   PSTRESS=    0.0 pullay stress

  Mass of Ions in am
   POMASS = 131.29
  Ionic Valenz
   ZVAL   =   8.00
  Atomic Wigner-Seitz radii
  virtual crystal weights
   VCA    =   1.00
   NELECT =       8.0000    total number of electrons
   NUPDOWN=      -1.0000    fix difference up-down

 DOS related values:
   EMIN   =  10.00;   EMAX   =-10.00  energy-range for DOS
   EFERMI =   0.00
   ISMEAR =     0;   SIGMA  =   0.00  broadening in eV -4-tet -1-fermi 0-gaus

 Electronic relaxation 2 (details)
   IALGO  =     90    algorithm
   LDIAG  =      T    sub-space diagonalisation (order eigenvalues)
   LSUBROT=      F    optimize rotation matrix (better conditioning)
   TURBO    =      0    0=normal 1=particle mesh
   IRESTART =      0    0=no restart 2=restart with 2 vectors
   NREBOOT  =      0    no. of reboots
[...]
   44.414324    0.881958    0.881958    0.881958    0.000000    0.000000    0.000000
   45.720627    0.891925    0.891925    0.891925    0.000000   -0.000000    0.000000
   47.026931    0.899637    0.899637    0.899637    0.000000   -0.000000    0.000000
   48.333235    0.906071    0.906071    0.906071    0.000000   -0.000000    0.000000
   49.639538    0.909893    0.909893    0.909893    0.000000   -0.000000    0.000000
   50.945842    0.910893    0.910893    0.910893    0.000000   -0.000000    0.000000
   52.252146    0.916921    0.916921    0.916921    0.000000    0.000000   -0.000000
   53.558449    0.921603    0.921603    0.921603    0.000000   -0.000000    0.000000
   54.864753    0.926401    0.926401    0.926401    0.000000    0.000000    0.000000
   56.171057    0.929980    0.929980    0.929980    0.000000   -0.000000    0.000000
   57.477360    0.931949    0.931949    0.931949    0.000000   -0.000000    0.000000
   58.783664    0.935153    0.935153    0.935153    0.000000   -0.000000    0.000000
   60.089968    0.939133    0.939133    0.939133    0.000000   -0.000000    0.000000
   61.396271    0.940919    0.940919    0.940919    0.000000   -0.000000    0.000000
   62.702575    0.943916    0.943916    0.943916    0.000000   -0.000000    0.000000
   64.008878    0.946602    0.946602    0.946602    0.000000   -0.000000    0.000000
   65.315182    0.949026    0.949026    0.949026    0.000000   -0.000000    0.000000
   66.621486    0.951396    0.951396    0.951396    0.000000   -0.000000    0.000000
   67.927789    0.953789    0.953789    0.953789    0.000000   -0.000000    0.000000
   69.234093    0.955410    0.955410    0.955410    0.000000   -0.000000    0.000000
   70.540397    0.956302    0.956302    0.956302    0.000000   -0.000000    0.000000
   71.846700    0.958784    0.958784    0.958784    0.000000   -0.000000    0.000000
   73.153004    0.958078    0.958078    0.958078    0.000000   -0.000000    0.000000
   74.459308    0.961012    0.961012    0.961012    0.000000   -0.000000    0.000000
   75.765611    0.962040    0.962040    0.962040    0.000000   -0.000000    0.000000
   77.071915    0.963259    0.963259    0.963259    0.000000   -0.000000    0.000000
[...]
  111.035810    0.982505    0.982505    0.982505   -0.000000    0.000000   -0.000000
  112.342113    0.982943    0.982943    0.982943   -0.000000    0.000000   -0.000000
  113.648417    0.983360    0.983360    0.983360   -0.000000    0.000000   -0.000000
  114.954720    0.983760    0.983760    0.983760   -0.000000    0.000000   -0.000000
  116.261024    0.984143    0.984143    0.984143   -0.000000    0.000000   -0.000000
  117.567328    0.984512    0.984512    0.984512   -0.000000    0.000000   -0.000000
  118.873631    0.984866    0.984866    0.984866   -0.000000    0.000000   -0.000000
  120.179935    0.985208    0.985208    0.985208   -0.000000    0.000000   -0.000000
  121.486239    0.985538    0.985538    0.985538   -0.000000    0.000000   -0.000000
  122.792542    0.985856    0.985856    0.985856   -0.000000    0.000000   -0.000000
  124.098846    0.986163    0.986163    0.986163   -0.000000    0.000000   -0.000000
  125.405150    0.986460    0.986460    0.986460   -0.000000    0.000000   -0.000000
  126.711453    0.986747    0.986747    0.986747   -0.000000    0.000000   -0.000000
  128.017757    0.987025    0.987025    0.987025   -0.000000    0.000000   -0.000000
  129.324061    0.987294    0.987294    0.987294   -0.000000    0.000000   -0.000000

  frequency dependent IMAGINARY DIELECTRIC FUNCTION (independent particle, no local field effects) current-current (2nd set in vasprun.xml)
     E(ev)      X         Y         Z        XY        YZ        ZX
    0.000000    0.000000    0.000000    0.000000    0.000000    0.000000    0.000000
    1.306304    0.000000    0.000000    0.000000    0.000000    0.000000    0.000000
    2.612607    0.000000    0.000000    0.000000    0.000000    0.000000    0.000000
    3.918911    0.000000    0.000000    0.000000    0.000000    0.000000    0.000000
    5.225215    0.000000    0.000000    0.000000    0.000000    0.000000    0.000000
    6.531518    0.000000    0.000000    0.000000    0.000000    0.000000    0.000000
    7.837822    2.852332    2.852332    2.852332   -0.000000    0.000000   -0.000000
    9.144125    6.606483    6.606526    6.606378    0.000053   -0.000046    0.000091
   10.450429    3.835353    3.835352    3.835354   -0.000001   -0.000000    0.000000
   11.756733    0.597509    0.597501    0.597505   -0.000007   -0.000006    0.000010
   13.063036    2.351843    2.351843    2.351843    0.000000   -0.000000    0.000000
   14.369340    0.682362    0.682362    0.682362   -0.000000   -0.000000    0.000000
   15.675644    1.197826    1.197826    1.197826   -0.000000   -0.000000    0.000000
   16.981947    0.800139    0.800139    0.800139   -0.000000    0.000000   -0.000000
   18.288251    0.015406    0.015406    0.015406    0.000000   -0.000000    0.000000
   19.594555    0.241534    0.241534    0.241534   -0.000000   -0.000000    0.000000
   20.900858    0.196005    0.196005    0.196005   -0.000000    0.000000   -0.000000
   22.207162    0.068714    0.068714    0.068714    0.000000   -0.000000    0.000000
   23.513466    0.071926    0.071926    0.071926   -0.000000    0.000000   -0.000000
   24.819769    0.091533    0.091533    0.091533    0.000000    0.000000   -0.000000
   26.126073    0.057222    0.057222    0.057222    0.000000    0.000000   -0.000000
   27.432376    0.032383    0.032383    0.032383   -0.000000    0.000000   -0.000000
   28.738680    0.080540    0.080540    0.080541   -0.000000    0.000000   -0.000000
   30.044984    0.123488    0.123488    0.123488   -0.000000    0.000000   -0.000000
   31.351287    0.007051    0.007051    0.007051   -0.000000   -0.000000    0.000000
   32.657591    0.039442    0.039442    0.039442    0.000000    0.000000   -0.000000
   33.963895    0.015228    0.015228    0.015228   -0.000000    0.000000   -0.000000
   35.270198    0.013740    0.013740    0.013740    0.000000   -0.000000    0.000000
   36.576502    0.016260    0.016260    0.016260   -0.000000   -0.000000   -0.000000
   37.882806    0.005527    0.005527    0.005527   -0.000000    0.000000   -0.000000
   39.189109    0.004753    0.004753    0.004753   -0.000000   -0.000000   -0.000000
   40.495413    0.000959    0.000959    0.000959   -0.000000   -0.000000    0.000000
   41.801717    0.004279    0.004279    0.004279   -0.000000   -0.000000   -0.000000
   43.108020    0.011256    0.011256    0.011255    0.000001    0.000000    0.000000
   44.414324    0.008224    0.008224    0.008224    0.000000    0.000000    0.000000
   45.720627    0.003937    0.003937    0.003937   -0.000000   -0.000000    0.000000
   47.026931    0.004753    0.004753    0.004753   -0.000000   -0.000000    0.000000
   48.333235    0.002129    0.002129    0.002129   -0.000000   -0.000000   -0.000000
   49.639538    0.008528    0.008528    0.008528   -0.000000   -0.000000   -0.000000
   50.945842    0.002543    0.002543    0.002543    0.000000    0.000000   -0.000000
   52.252146    0.004176    0.004176    0.004176    0.000000    0.000000   -0.000000
   53.558449    0.002601    0.002601    0.002601    0.000000    0.000000    0.000000
   54.864753    0.005812    0.005812    0.005812    0.000000   -0.000000   -0.000000
   56.171057    0.002383    0.002383    0.002383    0.000000   -0.000000    0.000000
   57.477360    0.003553    0.003553    0.003553    0.000000   -0.000000    0.000000
   58.783664    0.001780    0.001780    0.001780   -0.000000    0.000000   -0.000000
   60.089968    0.006091    0.006091    0.006091    0.000000   -0.000000    0.000000
   61.396271    0.003621    0.003621    0.003621   -0.000000    0.000000   -0.000000
   62.702575    0.003584    0.003584    0.003584   -0.000000    0.000000   -0.000000
   64.008878    0.001945    0.001945    0.001945    0.000000    0.000000   -0.000000
   65.315182    0.001628    0.001628    0.001628    0.000000    0.000000   -0.000000
   66.621486    0.001212    0.001212    0.001212    0.000000   -0.000000   -0.000000
   67.927789    0.001399    0.001399    0.001399    0.000000    0.000000   -0.000000
   69.234093    0.001478    0.001478    0.001478    0.000000   -0.000000    0.000000
   70.540397    0.001112    0.001112    0.001112    0.000000    0.000000   -0.000000
   71.846700    0.003746    0.003746    0.003746   -0.000000   -0.000000   -0.000000
   73.153004    0.001771    0.001771    0.001771    0.000000   -0.000000   -0.000000
   74.459308    0.000490    0.000490    0.000490    0.000000    0.000000   -0.000000
   75.765611    0.002092    0.002092    0.002092    0.000000   -0.000000    0.000000
   77.071915    0.000544    0.000544    0.000544    0.000000   -0.000000   -0.000000
[...]
  111.035810    0.000000    0.000000    0.000000    0.000000    0.000000    0.000000
  112.342113    0.000000    0.000000    0.000000    0.000000    0.000000    0.000000
  113.648417    0.000000    0.000000    0.000000    0.000000    0.000000    0.000000
  114.954720    0.000000    0.000000    0.000000    0.000000    0.000000    0.000000
  116.261024    0.000000    0.000000    0.000000    0.000000    0.000000    0.000000
  117.567328    0.000000    0.000000    0.000000    0.000000    0.000000    0.000000
  118.873631    0.000000    0.000000    0.000000    0.000000    0.000000    0.000000
  120.179935    0.000000    0.000000    0.000000    0.000000    0.000000    0.000000
  121.486239    0.000000    0.000000    0.000000    0.000000    0.000000    0.000000
  122.792542    0.000000    0.000000    0.000000    0.000000    0.000000    0.000000
  124.098846    0.000000    0.000000    0.000000    0.000000    0.000000    0.000000
  125.405150    0.000000    0.000000    0.000000    0.000000    0.000000    0.000000
  126.711453    0.000000    0.000000    0.000000    0.000000    0.000000    0.000000
  128.017757    0.000000    0.000000    0.000000    0.000000    0.000000    0.000000
  129.324061    0.000000    0.000000    0.000000    0.000000    0.000000    0.000000

  frequency dependent      REAL DIELECTRIC FUNCTION (independent particle, no local field effects) current-current (2nd set in vasprun.xml)
     E(ev)        X           Y           Z          XY          YZ          ZX
    0.000000    2.592560    2.592560    2.591665   -0.000000    0.000000   -0.000000
    1.306304    2.620467    2.620459    2.620459   -0.000000    0.000000   -0.000000
    2.612607    2.713249    2.713247    2.713247   -0.000000    0.000000   -0.000000
    3.918911    2.900466    2.900465    2.900465   -0.000000    0.000000   -0.000000
    5.225215    3.275054    3.275054    3.275054   -0.000000    0.000000   -0.000000
    6.531518    4.255627    4.255626    4.255626   -0.000000    0.000000   -0.000000
    7.837822    5.813061    5.813061    5.813062   -0.000001    0.000000   -0.000001
    9.144125    3.138306    3.138315    3.138284    0.000011   -0.000010    0.000019
   10.450429    2.014130    2.014127    2.014133   -0.000003    0.000001   -0.000002
   11.756733   -1.900660   -1.900662   -1.900660   -0.000002   -0.000001    0.000002
   13.063036   -1.382522   -1.382522   -1.382522    0.000000    0.000000   -0.000001
   14.369340   -0.122901   -0.122901   -0.122901    0.000000    0.000000   -0.000000
   15.675644   -0.306728   -0.306728   -0.306728   -0.000000    0.000000   -0.000000
   16.981947    0.118323    0.118323    0.118323   -0.000000    0.000000   -0.000000
   18.288251    0.079985    0.079985    0.079985    0.000000    0.000000   -0.000000
   19.594555    0.317323    0.317323    0.317323   -0.000000    0.000000   -0.000000
   20.900858    0.307608    0.307608    0.307608    0.000000    0.000000   -0.000000
   22.207162    0.413211    0.413211    0.413210    0.000000   -0.000000    0.000000
   23.513466    0.543806    0.543806    0.543806    0.000000   -0.000000    0.000000
   24.819769    0.545168    0.545168    0.545168    0.000000   -0.000000    0.000000
   26.126073    0.635265    0.635265    0.635265    0.000000   -0.000000    0.000000
   27.432376    0.684067    0.684067    0.684067    0.000000    0.000000    0.000000
   28.738680    0.703174    0.703174    0.703174    0.000000    0.000000    0.000000
   30.044984    0.752240    0.752240    0.752240    0.000000   -0.000000    0.000000
   31.351287    0.708095    0.708095    0.708095    0.000000   -0.000000    0.000000
   32.657591    0.775399    0.775399    0.775399    0.000000   -0.000000    0.000000
   33.963895    0.783441    0.783441    0.783441    0.000000   -0.000000    0.000000
   35.270198    0.799810    0.799810    0.799810    0.000000   -0.000000    0.000000
   36.576502    0.814696    0.814696    0.814696    0.000000   -0.000000    0.000000
   37.882806    0.828763    0.828763    0.828763    0.000000   -0.000000    0.000000
   39.189109    0.839970    0.839970    0.839970    0.000000   -0.000000    0.000000
   40.495413    0.860066    0.860066    0.860066    0.000000   -0.000000    0.000000
   41.801717    0.870841    0.870841    0.870841    0.000000   -0.000000    0.000000
   43.108020    0.877096    0.877096    0.877096    0.000000    0.000000    0.000000
   44.414324    0.881854    0.881854    0.881854    0.000000    0.000000    0.000000
   45.720627    0.891847    0.891847    0.891847    0.000000   -0.000000    0.000000
   47.026931    0.899560    0.899560    0.899560    0.000000   -0.000000    0.000000
   48.333235    0.906000    0.906000    0.906000    0.000000   -0.000000    0.000000
   49.639538    0.909811    0.909811    0.909811    0.000000   -0.000000    0.000000
   50.945842    0.910828    0.910828    0.910828    0.000000   -0.000000    0.000000
   52.252146    0.916862    0.916862    0.916862    0.000000    0.000000   -0.000000
   53.558449    0.921548    0.921548    0.921548    0.000000   -0.000000    0.000000
   54.864753    0.926345    0.926345    0.926345    0.000000    0.000000    0.000000
   56.171057    0.929928    0.929928    0.929928    0.000000   -0.000000    0.000000
   57.477360    0.931901    0.931901    0.931901    0.000000   -0.000000    0.000000
   58.783664    0.935112    0.935112    0.935112    0.000000   -0.000000    0.000000
   60.089968    0.939089    0.939089    0.939089    0.000000   -0.000000    0.000000
   61.396271    0.940878    0.940878    0.940878    0.000000   -0.000000    0.000000
   62.702575    0.943879    0.943879    0.943879    0.000000   -0.000000    0.000000
   64.008878    0.946568    0.946568    0.946568    0.000000   -0.000000    0.000000
   65.315182    0.948993    0.948993    0.948993    0.000000   -0.000000    0.000000
   66.621486    0.951364    0.951364    0.951364    0.000000   -0.000000    0.000000
   67.927789    0.953759    0.953759    0.953759    0.000000   -0.000000    0.000000
   69.234093    0.955380    0.955380    0.955380    0.000000   -0.000000    0.000000
   70.540397    0.956273    0.956273    0.956273    0.000000   -0.000000    0.000000
   71.846700    0.958752    0.958752    0.958752    0.000000   -0.000000    0.000000
   73.153004    0.958050    0.958050    0.958050    0.000000   -0.000000    0.000000
   74.459308    0.960988    0.960988    0.960988    0.000000   -0.000000    0.000000
   75.765611    0.962015    0.962015    0.962015    0.000000   -0.000000    0.000000
   77.071915    0.963236    0.963236    0.963236    0.000000   -0.000000    0.000000
[...]
  111.035810    0.982496    0.982496    0.982496   -0.000000    0.000000   -0.000000
  112.342113    0.982934    0.982934    0.982934   -0.000000    0.000000   -0.000000
  113.648417    0.983351    0.983351    0.983351   -0.000000    0.000000   -0.000000
  114.954720    0.983751    0.983751    0.983751   -0.000000    0.000000   -0.000000
  116.261024    0.984134    0.984134    0.984134   -0.000000    0.000000   -0.000000
  117.567328    0.984503    0.984503    0.984503   -0.000000    0.000000   -0.000000
  118.873631    0.984858    0.984858    0.984858   -0.000000    0.000000   -0.000000
  120.179935    0.985200    0.985200    0.985200   -0.000000    0.000000   -0.000000
  121.486239    0.985530    0.985530    0.985530   -0.000000    0.000000   -0.000000
  122.792542    0.985848    0.985848    0.985848   -0.000000    0.000000   -0.000000
  124.098846    0.986156    0.986156    0.986156   -0.000000    0.000000   -0.000000
  125.405150    0.986453    0.986453    0.986453   -0.000000    0.000000   -0.000000
  126.711453    0.986740    0.986740    0.986740   -0.000000    0.000000   -0.000000
  128.017757    0.987018    0.987018    0.987018   -0.000000    0.000000   -0.000000
  129.324061    0.987287    0.987287    0.987287   -0.000000    0.000000   -0.000000

 The outermost node in the dielectric function lies at epsilon=  18.3