 vasp.5.4.4.18Apr17-6-g9f103f2a35 (build Jul 09 2018 16:43:14) complex

 executed on             LinuxIFC date 2018.12.03  23:55:57

 INCAR:
 POTCAR:    PAW_PBE Xe_GW 08Jan2009

 POTCAR:    PAW_PBE Xe_GW 08Jan2009
   VRHFIN =Xe: s2p6

   TITEL  = PAW_PBE Xe_GW 08Jan2009
   POMASS =  131.294; ZVAL   =    8.000    mass and valenz
   ENMAX  =  179.547; ENMIN  =  134.660 eV

  PAW_PBE Xe_GW 08Jan2009               :

 POSCAR: Xe_FCC
  positions in direct lattice
  velocities in cartesian coordinates
 exchange correlation table for  LEXCH =        8
   RHO(1)=    0.500       N(1)  =     2000
   RHO(2)=  100.500       N(2)  =     4000

 ion  position               nearest neighbor table
   1  0.000  0.000  0.000-

IMPORTANT INFORMATION: All symmetrisations will be switched off!
NOSYMM: (Re-)initialisation of all symmetry stuff for point group C_1.

 KPOINTS: k-points

Automatic generation of k-mesh.
Space group operators:
 irot       det(A)        alpha          n_x          n_y          n_z        tau_x        tau_y        tau_z
    1     1.000000     0.000000     1.000000     0.000000     0.000000     0.000000     0.000000     0.000000

 Subroutine IBZKPT returns following result:

 Found    216 irreducible k-points:

 Following reciprocal coordinates:
            Coordinates               Weight
  0.000000  0.000000  0.000000      1.000000
  0.166667  0.000000  0.000000      1.000000
  0.333333 -0.000000 -0.000000      1.000000
  0.500000 -0.000000 -0.000000      1.000000
 -0.333333  0.000000  0.000000      1.000000
 -0.166667 -0.000000 -0.000000      1.000000
  0.000000  0.166667  0.000000      1.000000
  0.166667  0.166667  0.000000      1.000000
  0.333333  0.166667  0.000000      1.000000
  0.500000  0.166667  0.000000      1.000000
 -0.333333  0.166667  0.000000      1.000000
 -0.166667  0.166667  0.000000      1.000000
  0.000000  0.333333  0.000000      1.000000
  0.166667  0.333333  0.000000      1.000000
  0.333333  0.333333  0.000000      1.000000
  0.500000  0.333333  0.000000      1.000000
 -0.333333  0.333333  0.000000      1.000000
 -0.166667  0.333333 -0.000000      1.000000
  0.000000  0.500000  0.000000      1.000000
  0.166667  0.500000  0.000000      1.000000
  0.333333  0.500000  0.000000      1.000000
  0.500000  0.500000  0.000000      1.000000
 -0.333333  0.500000 -0.000000      1.000000
 -0.166667  0.500000 -0.000000      1.000000
  0.000000 -0.333333 -0.000000      1.000000
  0.166667 -0.333333  0.000000      1.000000
  0.333333 -0.333333 -0.000000      1.000000
  0.500000 -0.333333 -0.000000      1.000000
 -0.333333 -0.333333 -0.000000      1.000000
 -0.166667 -0.333333 -0.000000      1.000000
  0.000000 -0.166667  0.000000      1.000000
  0.166667 -0.166667 -0.000000      1.000000
  0.333333 -0.166667  0.000000      1.000000
  0.500000 -0.166667  0.000000      1.000000
 -0.333333 -0.166667  0.000000      1.000000
 -0.166667 -0.166667 -0.000000      1.000000
  0.000000  0.000000  0.166667      1.000000
  0.166667  0.000000  0.166667      1.000000
  0.333333 -0.000000  0.166667      1.000000
  0.500000 -0.000000  0.166667      1.000000
 -0.333333  0.000000  0.166667      1.000000
 -0.166667  0.000000  0.166667      1.000000
  0.000000  0.166667  0.166667      1.000000
  0.166667  0.166667  0.166667      1.000000
  0.333333  0.166667  0.166667      1.000000
  0.500000  0.166667  0.166667      1.000000
 -0.333333  0.166667  0.166667      1.000000
 -0.166667  0.166667  0.166667      1.000000
  0.000000  0.333333  0.166667      1.000000
  0.166667  0.333333  0.166667      1.000000
  0.333333  0.333333  0.166667      1.000000
  0.500000  0.333333  0.166667      1.000000
 -0.333333  0.333333  0.166667      1.000000
 -0.166667  0.333333  0.166667      1.000000
  0.000000  0.500000  0.166667      1.000000
  0.166667  0.500000  0.166667      1.000000
  0.333333  0.500000  0.166667      1.000000
  0.500000  0.500000  0.166667      1.000000
 -0.333333  0.500000  0.166667      1.000000
 -0.166667  0.500000  0.166667      1.000000
[...]
  0.500000  0.500000 -0.166667      1.000000
 -0.333333  0.500000 -0.166667      1.000000
 -0.166667  0.500000 -0.166667      1.000000
 -0.000000 -0.333333 -0.166667      1.000000
  0.166667 -0.333333 -0.166667      1.000000
  0.333333 -0.333333 -0.166667      1.000000
  0.500000 -0.333333 -0.166667      1.000000
 -0.333333 -0.333333 -0.166667      1.000000
 -0.166667 -0.333333 -0.166667      1.000000
 -0.000000 -0.166667 -0.166667      1.000000
  0.166667 -0.166667 -0.166667      1.000000
  0.333333 -0.166667 -0.166667      1.000000
  0.500000 -0.166667 -0.166667      1.000000
 -0.333333 -0.166667 -0.166667      1.000000
 -0.166667 -0.166667 -0.166667      1.000000

 Following cartesian coordinates:
            Coordinates               Weight
  0.000000  0.000000  0.000000      1.000000
  0.037604 -0.021710 -0.015352      1.000000
  0.075207 -0.043421 -0.030703      1.000000
  0.112811 -0.065131 -0.046055      1.000000
 -0.075207  0.043421  0.030703      1.000000
 -0.037604  0.021710  0.015352      1.000000
  0.000000  0.043421 -0.015352      1.000000
  0.037604  0.021710 -0.030703      1.000000
  0.075207  0.000000 -0.046055      1.000000
  0.112811 -0.021710 -0.061406      1.000000
 -0.075207  0.086842  0.015352      1.000000
 -0.037604  0.065131  0.000000      1.000000
  0.000000  0.086842 -0.030703      1.000000
  0.037604  0.065131 -0.046055      1.000000
  0.075207  0.043421 -0.061406      1.000000
  0.112811  0.021710 -0.076758      1.000000
 -0.075207  0.130263  0.000000      1.000000
 -0.037604  0.108552 -0.015352      1.000000
  0.000000  0.130263 -0.046055      1.000000
  0.037604  0.108552 -0.061406      1.000000
  0.075207  0.086842 -0.076758      1.000000
  0.112811  0.065131 -0.092110      1.000000
 -0.075207  0.173684 -0.015352      1.000000
 -0.037604  0.151973 -0.030703      1.000000
 -0.000000 -0.086842  0.030703      1.000000
  0.037604 -0.108552  0.015352      1.000000
  0.075207 -0.130263 -0.000000      1.000000
  0.112811 -0.151973 -0.015352      1.000000
 -0.075207 -0.043421  0.061406      1.000000
 -0.037604 -0.065131  0.046055      1.000000
 -0.000000 -0.043421  0.015352      1.000000
  0.037604 -0.065131 -0.000000      1.000000
  0.075207 -0.086842 -0.015352      1.000000
  0.112811 -0.108552 -0.030703      1.000000
 -0.075207 -0.000000  0.046055      1.000000
 -0.037604 -0.021710  0.030703      1.000000
 -0.000000  0.000000  0.046055      1.000000
  0.037604 -0.021710  0.030703      1.000000
  0.075207 -0.043421  0.015352      1.000000
  0.112811 -0.065131 -0.000000      1.000000
 -0.075207  0.043421  0.076758      1.000000
 -0.037604  0.021710  0.061406      1.000000
 -0.000000  0.043421  0.030703      1.000000
  0.037604  0.021710  0.015352      1.000000
  0.075207  0.000000  0.000000      1.000000
  0.112811 -0.021710 -0.015352      1.000000
 -0.075207  0.086842  0.061406      1.000000
 -0.037604  0.065131  0.046055      1.000000
 -0.000000  0.086842  0.015352      1.000000
  0.037604  0.065131  0.000000      1.000000
  0.075207  0.043421 -0.015352      1.000000
  0.112811  0.021710 -0.030703      1.000000
 -0.075207  0.130263  0.046055      1.000000
 -0.037604  0.108552  0.030703      1.000000
 -0.000000  0.130263  0.000000      1.000000
  0.037604  0.108552 -0.015352      1.000000
  0.075207  0.086842 -0.030703      1.000000
  0.112811  0.065131 -0.046055      1.000000
 -0.075207  0.173684  0.030703      1.000000
 -0.037604  0.151973  0.015352      1.000000
[...]
  0.112811  0.065131 -0.138164      1.000000
 -0.075207  0.173684 -0.061406      1.000000
 -0.037604  0.151973 -0.076758      1.000000
  0.000000 -0.086842 -0.015352      1.000000
  0.037604 -0.108552 -0.030703      1.000000
  0.075207 -0.130263 -0.046055      1.000000
  0.112811 -0.151973 -0.061406      1.000000
 -0.075207 -0.043421  0.015352      1.000000
 -0.037604 -0.065131  0.000000      1.000000
  0.000000 -0.043421 -0.030703      1.000000
  0.037604 -0.065131 -0.046055      1.000000
  0.075207 -0.086842 -0.061406      1.000000
  0.112811 -0.108552 -0.076758      1.000000
 -0.075207 -0.000000 -0.000000      1.000000
 -0.037604 -0.021710 -0.015352      1.000000

 SYSTEM =  Og_FCC
 POSCAR =  Xe_FCC

 Startparameter for this run:
   NWRITE =      2    write-flag & timer
   PREC   = accura    normal or accurate (medium, high low for compatibility)
   ISTART =      0    job   : 0-new  1-cont  2-samecut
   ICHARG =      2    charge: 1-file 2-atom 10-const
   ISPIN  =      1    spin polarized calculation?
   LNONCOLLINEAR =      T non collinear calculations
   LSORBIT =      T    spin-orbit coupling
   INIWAV =      1    electr: 0-lowe 1-rand  2-diag
   LASPH  =      F    aspherical Exc in radial PAW
   METAGGA=      F    non-selfconsistent MetaGGA calc.

 Electronic Relaxation 1
   ENCUT  =  300.0 eV  22.05 Ry    4.70 a.u.   6.12  6.12  6.12*2*pi/ulx,y,z
   ENINI  =  300.0     initial cutoff
   ENAUG  =  605.9 eV  augmentation charge cutoff
   NELM   =     50;   NELMIN=  2; NELMDL= -5     # of ELM steps
   EDIFF  = 0.1E-07   stopping-criterion for ELM
   LREAL  =      F    real-space projection
   NLSPLINE    = F    spline interpolate recip. space projectors
   LCOMPAT=      F    compatible to vasp.4.4
   GGA_COMPAT  = F    GGA compatible to vasp.4.4-vasp.4.6
   LMAXPAW     = -100 max onsite density
   LMAXMIX     =    2 max onsite mixed and CHGCAR
   VOSKOWN=      0    Vosko Wilk Nusair interpolation
   ROPT   =    0.00000
 Ionic relaxation
   EDIFFG = 0.1E-04   stopping-criterion for IOM
   NSW    =      1    number of steps for IOM
   NBLOCK =      1;   KBLOCK =      1    inner block; outer block
   IBRION =     -1    ionic relax: 0-MD 1-quasi-New 2-CG
   NFREE  =      5    steps in history (QN), initial steepest desc. (CG)
   ISIF   =      3    stress and relaxation
   IWAVPR =     10    prediction:  0-non 1-charg 2-wave 3-comb
   ISYM   =      0    0-nonsym 1-usesym 2-fastsym
   LCORR  =      T    Harris-Foulkes like correction to forces

   POTIM  = 0.1000    time-step for ionic-motion
   TEIN   =    0.0    initial temperature
   TEBEG  =    0.0;   TEEND  =   0.0 temperature during run
   SMASS  =  -3.00    Nose mass-parameter (am)
   estimated Nose-frequenzy (Omega)   =  0.10E-29 period in steps =****** mass=  -0.430E-27a.u.
   SCALEE = 1.0000    scale energy and forces
   NPACO  =    256;   APACO  = 16.0  distance and # of slots for P.C.
   PSTRESS=    0.0 pullay stress

  Mass of Ions in am
   POMASS = 131.29
  Ionic Valenz
   ZVAL   =   8.00
  Atomic Wigner-Seitz radii
  virtual crystal weights
   VCA    =   1.00
   NELECT =       8.0000    total number of electrons
   NUPDOWN=      -1.0000    fix difference up-down

 DOS related values:
   EMIN   =  10.00;   EMAX   =-10.00  energy-range for DOS
   EFERMI =   0.00
   ISMEAR =     0;   SIGMA  =   0.00  broadening in eV -4-tet -1-fermi 0-gaus

 Electronic relaxation 2 (details)
   IALGO  =     38    algorithm
   LDIAG  =      T    sub-space diagonalisation (order eigenvalues)
   LSUBROT=      F    optimize rotation matrix (better conditioning)
   TURBO    =      0    0=normal 1=particle mesh
   IRESTART =      0    0=no restart 2=restart with 2 vectors
   NREBOOT  =      0    no. of reboots
[...]
   16.234793   -0.074942   -0.075410   -0.074696    0.000359   -0.000087   -0.000148
   16.566116    0.032348    0.032183    0.032674    0.000364    0.000214    0.000222
   16.897438    0.105444    0.105015    0.105531    0.001838    0.000701    0.001116
   17.228760    0.172899    0.172561    0.172996    0.000349   -0.000072   -0.000160
   17.560082    0.231513    0.231296    0.231648    0.000180   -0.000060   -0.000161
   17.891405    0.281874    0.281718    0.282017    0.000121   -0.000042   -0.000140
   18.222727    0.326175    0.326058    0.326318    0.000090   -0.000028   -0.000121
   18.554049    0.365683    0.365593    0.365824    0.000071   -0.000018   -0.000106
   18.885372    0.401327    0.401256    0.401463    0.000057   -0.000011   -0.000095
   19.216694    0.434020    0.433964    0.434151    0.000047   -0.000005   -0.000085
   19.548016    0.462705    0.462660    0.462831    0.000040   -0.000001   -0.000077
[...]
   28.162396    0.790530    0.790536    0.790580    0.000002    0.000010   -0.000019
   28.493719    0.796235    0.796241    0.796284    0.000002    0.000010   -0.000018
   28.825041    0.801692    0.801698    0.801739    0.000002    0.000009   -0.000017
   29.156363    0.806919    0.806924    0.806964    0.000002    0.000009   -0.000017
   29.487686    0.811929    0.811934    0.811973    0.000002    0.000009   -0.000016
   29.819008    0.816735    0.816741    0.816778    0.000002    0.000009   -0.000016
   30.150330    0.821350    0.821356    0.821392    0.000001    0.000009   -0.000015
   30.481653    0.825784    0.825789    0.825825    0.000001    0.000009   -0.000015
   30.812975    0.830046    0.830052    0.830086    0.000001    0.000008   -0.000015
   31.144297    0.834147    0.834153    0.834186    0.000001    0.000008   -0.000014
   31.475620    0.838094    0.838100    0.838133    0.000001    0.000008   -0.000014
   31.806942    0.841896    0.841902    0.841934    0.000001    0.000008   -0.000013
   32.138264    0.845560    0.845566    0.845597    0.000001    0.000008   -0.000013
   32.469586    0.849093    0.849098    0.849128    0.000001    0.000008   -0.000013
   32.800909    0.852501    0.852506    0.852536    0.000001    0.000008   -0.000012

  frequency dependent IMAGINARY DIELECTRIC FUNCTION (independent particle, no local field effects) current-current (2nd set in vasprun.xml)
     E(ev)      X         Y         Z        XY        YZ        ZX
    0.000000    8.580851    8.580066    8.579512    0.063546    0.060550    0.059882
    0.331322    0.860217    0.860138    0.860083    0.006363    0.006063    0.005996
    0.662645    0.433366    0.433326    0.433298    0.003193    0.003043    0.003009
    0.993967    0.292592    0.292566    0.292547    0.002142    0.002041    0.002019
    1.325289    0.223412    0.223392    0.223378    0.001621    0.001545    0.001528
    1.656612    0.182958    0.182942    0.182930    0.001312    0.001250    0.001237
    1.987934    0.156970    0.156956    0.156946    0.001109    0.001056    0.001046
    2.319256    0.139369    0.139357    0.139348    0.000967    0.000921    0.000912
    2.650578    0.127155    0.127144    0.127136    0.000863    0.000822    0.000814
    2.981901    0.118707    0.118696    0.118690    0.000784    0.000747    0.000740
    3.313223    0.113113    0.113104    0.113098    0.000724    0.000690    0.000683
    3.644545    0.109880    0.109870    0.109865    0.000677    0.000645    0.000640
    3.975868    0.108801    0.108792    0.108787    0.000641    0.000610    0.000605
    4.307190    0.109942    0.109933    0.109928    0.000613    0.000583    0.000579
    4.638512    0.113736    0.113727    0.113723    0.000591    0.000563    0.000559
    4.969835    0.121440    0.121431    0.121427    0.000576    0.000548    0.000545
    5.301157    0.137630    0.137622    0.137618    0.000565    0.000538    0.000535
    5.632479    0.208855    0.208846    0.208842    0.000560    0.000533    0.000530
    5.963802    0.236674    0.236665    0.236661    0.000558    0.000532    0.000529
    6.295124    0.306756    0.306747    0.306743    0.000561    0.000535    0.000532
    6.626446    0.860365    0.860355    0.860352    0.000568    0.000542    0.000538
    6.957769    1.052345    1.052335    1.052331    0.000587    0.000558    0.000560
    7.289091    0.994547    0.994536    0.994532    0.000601    0.000573    0.000572
    7.620413    1.909942    1.909929    1.909926    0.000628    0.000599    0.000600
    7.951735    4.226889    4.226873    4.226871    0.000654    0.000625    0.000615
    8.283058    5.177123    5.177096    5.177095    0.000737    0.000701    0.000713
    8.614380    3.415885    3.415865    3.415863    0.000710    0.000691    0.000689
    8.945702    4.240563    4.240550    4.240546    0.000772    0.000752    0.000720
    9.277025    4.389214    4.389190    4.389189    0.000879    0.000845    0.000836
    9.608347    4.531051    4.531028    4.531025    0.001120    0.001064    0.001166
    9.939669    4.332772    4.332736    4.332737    0.001198    0.001143    0.001158
   10.270992    3.876605    3.876550    3.876556    0.001404    0.001346    0.001339
   10.602314    3.355715    3.355653    3.355661    0.001738    0.001659    0.001670
   10.933636    4.838070    4.837972    4.837993    0.002259    0.002145    0.002164
   11.264959    3.944798    3.944632    3.944687    0.003228    0.003015    0.003125
   11.596281    2.357918    2.357585    2.357781    0.005267    0.004682    0.005013
   11.927603    1.860171    1.859886    1.861981    0.014088    0.008626    0.012469
   12.258925    2.109528    2.102377    2.101913    0.013337    0.010279    0.010984
   12.590248    1.331330    1.328868    1.329660   -0.023976   -0.022362   -0.022768
   12.921570    2.337103    2.334978    2.332562   -0.010298   -0.012741   -0.010956
   13.252892    0.780966    0.780248    0.779930   -0.013000   -0.015722   -0.013702
   13.584215    1.228435    1.228076    1.231317   -0.000159   -0.001576    0.002412
   13.915537    0.526665    0.528558    0.527457    0.004191    0.005278    0.004039
   14.246859    0.537158    0.537139    0.537036    0.001396    0.002567    0.001170
   14.578182    0.620182    0.620769    0.620178   -0.000576    0.001094   -0.000216
   14.909504    0.299637    0.306345    0.299379    0.000219    0.009909    0.005731
   15.240826    0.203952    0.206250    0.204635   -0.003105   -0.000291   -0.000764
   15.572149    0.116405    0.117356    0.116736   -0.003043   -0.000944   -0.001624
   15.903471    0.090552    0.090904    0.090666    0.001063    0.001020    0.001322
   16.234793    0.025907    0.026011    0.025935    0.000272    0.000317    0.000356
   16.566116    0.017202    0.017310    0.017249   -0.000386   -0.000115   -0.000260
   16.897438    0.020890    0.021489    0.021251    0.000949    0.001434    0.001876
   17.228760    0.009911    0.009970    0.009938    0.000707    0.000555    0.000761
   17.560082    0.007567    0.007589    0.007574    0.000444    0.000344    0.000458
   17.891405    0.006194    0.006207    0.006197    0.000319    0.000248    0.000324
   18.222727    0.005209    0.005218    0.005210    0.000244    0.000191    0.000247
   18.554049    0.004469    0.004475    0.004469    0.000193    0.000152    0.000195
   18.885372    0.003931    0.003935    0.003931    0.000158    0.000125    0.000159
   19.216694    0.003917    0.003920    0.003916    0.000131    0.000104    0.000132
   19.548016    0.004414    0.004417    0.004414    0.000110    0.000087    0.000111
[...]
   28.162396    0.000274    0.000274    0.000274    0.000007    0.000005    0.000008
   28.493719    0.000253    0.000254    0.000253    0.000007    0.000005    0.000008
   28.825041    0.000236    0.000236    0.000236    0.000006    0.000005    0.000007
   29.156363    0.000220    0.000220    0.000220    0.000006    0.000004    0.000007
   29.487686    0.000205    0.000205    0.000205    0.000006    0.000004    0.000006
   29.819008    0.000192    0.000192    0.000192    0.000005    0.000004    0.000006
   30.150330    0.000180    0.000180    0.000180    0.000005    0.000004    0.000005
   30.481653    0.000169    0.000169    0.000169    0.000005    0.000003    0.000005
   30.812975    0.000159    0.000159    0.000159    0.000004    0.000003    0.000005
   31.144297    0.000149    0.000149    0.000149    0.000004    0.000003    0.000005
   31.475620    0.000140    0.000140    0.000140    0.000004    0.000003    0.000004
   31.806942    0.000132    0.000132    0.000132    0.000004    0.000003    0.000004
   32.138264    0.000125    0.000125    0.000125    0.000003    0.000002    0.000004
   32.469586    0.000118    0.000118    0.000118    0.000003    0.000002    0.000004
   32.800909    0.000111    0.000111    0.000111    0.000003    0.000002    0.000003

  frequency dependent      REAL DIELECTRIC FUNCTION (independent particle, no local field effects) current-current (2nd set in vasprun.xml)
     E(ev)        X           Y           Z          XY          YZ          ZX
    0.000000    2.420847    2.420717    2.420625    0.000042   -0.000098    0.000038
    0.331322    2.422609    2.422479    2.422387    0.000042   -0.000098    0.000038
    0.662645    2.427979    2.427849    2.427757    0.000042   -0.000098    0.000038
    0.993967    2.437032    2.436901    2.436809    0.000042   -0.000099    0.000038
    1.325289    2.449927    2.449795    2.449703    0.000043   -0.000100    0.000038
    1.656612    2.466899    2.466766    2.466674    0.000043   -0.000100    0.000038
    1.987934    2.488271    2.488136    2.488043    0.000044   -0.000101    0.000038
    2.319256    2.514470    2.514334    2.514240    0.000044   -0.000103    0.000038
    2.650578    2.546060    2.545922    2.545828    0.000045   -0.000104    0.000038
    2.981901    2.583777    2.583636    2.583542    0.000046   -0.000106    0.000039
    3.313223    2.628592    2.628448    2.628353    0.000047   -0.000108    0.000039
    3.644545    2.681804    2.681657    2.681561    0.000048   -0.000110    0.000039
    3.975868    2.745195    2.745044    2.744948    0.000050   -0.000113    0.000040
    4.307190    2.821304    2.821149    2.821051    0.000051   -0.000116    0.000040
    4.638512    2.913970    2.913810    2.913711    0.000053   -0.000120    0.000041
    4.969835    3.029645    3.029479    3.029380    0.000055   -0.000123    0.000041
    5.301157    3.181777    3.181605    3.181504    0.000058   -0.000128    0.000042
    5.632479    3.412878    3.412699    3.412597    0.000061   -0.000133    0.000042
    5.963802    3.458154    3.457966    3.457864    0.000064   -0.000139    0.000043
    6.295124    3.930498    3.930301    3.930197    0.000068   -0.000145    0.000044
    6.626446    3.818785    3.818578    3.818473    0.000074   -0.000151    0.000048
    6.957769    3.923414    3.923194    3.923088    0.000062   -0.000173    0.000023
    7.289091    4.867680    4.867445    4.867337    0.000081   -0.000173    0.000044
    7.620413    4.852643    4.852392    4.852283    0.000088   -0.000185    0.000044
    7.951735    5.580811    5.580538    5.580429    0.000075   -0.000216   -0.000001
    8.283058    4.110374    4.110087    4.109976    0.000145   -0.000195    0.000096
    8.614380    2.106347    2.106023    2.105912    0.000103   -0.000239    0.000038
    8.945702    2.399025    2.398672    2.398561    0.000174   -0.000242    0.000104
    9.277025    3.597507    3.597108    3.596999    0.000163   -0.000288    0.000071
    9.608347    0.360406    0.359952    0.359847    0.000239   -0.000300    0.000164
    9.939669    0.818745    0.818214    0.818117    0.000187   -0.000417    0.000005
   10.270992    0.079360    0.078733    0.078649    0.000268   -0.000474    0.000071
   10.602314   -0.292444   -0.293212   -0.293272    0.000315   -0.000603    0.000047
   10.933636    0.120158    0.119178    0.119168    0.000449   -0.000791    0.000074
   11.264959   -0.781110   -0.782437   -0.782339    0.000659   -0.001167    0.000086
   11.596281   -1.270530   -1.272530   -1.272122    0.001195   -0.002058    0.000117
   11.927603   -1.149479   -1.153521   -1.151985    0.002240   -0.006599   -0.000982
   12.258925   -1.198870   -1.196655   -1.199168   -0.034663   -0.021294   -0.030090
   12.590248   -0.680900   -0.677363   -0.679388   -0.006556   -0.006889   -0.004790
   12.921570   -1.358355   -1.357643   -1.360410    0.002146    0.000150    0.001128
   13.252892   -0.931239   -0.927519   -0.925970   -0.001212    0.002388    0.001238
   13.584215   -0.955660   -0.953373   -0.954527    0.023544    0.028266    0.023192
   13.915537   -0.965633   -0.963885   -0.965069    0.005592    0.008840    0.006048
   14.246859   -0.552531   -0.550597   -0.551892    0.000471    0.002722    0.001815
   14.578182   -0.581250   -0.578235   -0.580537    0.000090    0.002739    0.002078
   14.909504   -0.623652   -0.620481   -0.623181    0.004791    0.005921    0.007516
   15.240826   -0.385278   -0.387548   -0.384977   -0.001477   -0.002316   -0.002932
   15.572149   -0.293628   -0.294032   -0.293030    0.003244    0.002355    0.003339
   15.903471   -0.216974   -0.217936   -0.216846    0.000958   -0.000212   -0.000150
   16.234793   -0.075307   -0.075778   -0.075064    0.000357   -0.000089   -0.000152
   16.566116    0.032095    0.031929    0.032419    0.000370    0.000217    0.000225
   16.897438    0.105170    0.104733    0.105251    0.001825    0.000684    0.001092
   17.228760    0.172764    0.172424    0.172859    0.000341   -0.000077   -0.000168
   17.560082    0.231411    0.231193    0.231544    0.000176   -0.000063   -0.000165
   17.891405    0.281794    0.281637    0.281935    0.000119   -0.000043   -0.000143
   18.222727    0.326111    0.325993    0.326253    0.000089   -0.000029   -0.000123
   18.554049    0.365632    0.365541    0.365771    0.000070   -0.000019   -0.000108
   18.885372    0.401286    0.401214    0.401420    0.000056   -0.000011   -0.000096
   19.216694    0.433982    0.433925    0.434112    0.000047   -0.000005   -0.000086
   19.548016    0.462666    0.462620    0.462791    0.000039   -0.000001   -0.000077
[...]
   28.162396    0.790544    0.790550    0.790594    0.000003    0.000010   -0.000018
   28.493719    0.796249    0.796255    0.796297    0.000002    0.000010   -0.000018
   28.825041    0.801707    0.801712    0.801753    0.000002    0.000010   -0.000017
   29.156363    0.806933    0.806938    0.806978    0.000002    0.000010   -0.000017
   29.487686    0.811943    0.811948    0.811987    0.000002    0.000009   -0.000016
   29.819008    0.816749    0.816755    0.816792    0.000002    0.000009   -0.000016
   30.150330    0.821364    0.821369    0.821406    0.000002    0.000009   -0.000015
   30.481653    0.825797    0.825803    0.825838    0.000002    0.000009   -0.000015
   30.812975    0.830060    0.830066    0.830100    0.000001    0.000009   -0.000014
   31.144297    0.834161    0.834166    0.834200    0.000001    0.000009   -0.000014
   31.475620    0.838108    0.838114    0.838146    0.000001    0.000008   -0.000014
   31.806942    0.841910    0.841915    0.841947    0.000001    0.000008   -0.000013
   32.138264    0.845573    0.845579    0.845610    0.000001    0.000008   -0.000013
   32.469586    0.849106    0.849112    0.849141    0.000001    0.000008   -0.000012
   32.800909    0.852514    0.852519    0.852548    0.000001    0.000008   -0.000012

 The outermost node in the dielectric function lies at epsilon=  16.5

 Spin-Orbit-Coupling matrix elements

 Ion:    1  E_soc:     -0.2997954
 l=   1
     0.0000000    -0.0499594    -0.0499594
    -0.0499594     0.0000000    -0.0499594
    -0.0499594    -0.0499594     0.0000000
 l=   2
     0.0000000    -0.0000012     0.0000000    -0.0000012    -0.0000053
    -0.0000012     0.0000000    -0.0000040    -0.0000012    -0.0000012
     0.0000000    -0.0000040     0.0000000    -0.0000040     0.0000000
    -0.0000012    -0.0000012    -0.0000040     0.0000000    -0.0000012
    -0.0000053    -0.0000012     0.0000000    -0.0000012     0.0000000
 l=   3
     0.0000000     0.0000000     0.0000000     0.0000000     0.0000000     0.0000000    -0.0000000
     0.0000000     0.0000000    -0.0000000     0.0000000    -0.0000000    -0.0000000    -0.0000000
     0.0000000    -0.0000000     0.0000000    -0.0000000    -0.0000000    -0.0000000     0.0000000
     0.0000000     0.0000000    -0.0000000     0.0000000    -0.0000000     0.0000000     0.0000000
     0.0000000    -0.0000000    -0.0000000    -0.0000000     0.0000000    -0.0000000     0.0000000
     0.0000000    -0.0000000    -0.0000000     0.0000000    -0.0000000     0.0000000    -0.0000000
    -0.0000000    -0.0000000     0.0000000     0.0000000     0.0000000    -0.0000000     0.0000000