 vasp.5.4.4.18Apr17-6-g9f103f2a35 (build Nov 03 2018 10:20:46) complex

 executed on             LinuxIFC date 2018.12.10  11:52:31

 INCAR:
 POTCAR:    PAW_PBE Rn_d_GW 14Apr2014

 POTCAR:    PAW_PBE Rn_d_GW 14Apr2014
   VRHFIN =Rn:

   TITEL  = PAW_PBE Rn_d_GW 14Apr2014
   POMASS =  220.170; ZVAL   =   18.000    mass and valenz
   ENMAX  =  268.495; ENMIN  =  201.371 eV

  PAW_PBE Rn_d_GW 14Apr2014             :

 POSCAR: Rn_FCC
  positions in direct lattice
  velocities in cartesian coordinates
 exchange correlation table for  LEXCH =        8
   RHO(1)=    0.500       N(1)  =     2000
   RHO(2)=  100.500       N(2)  =     4000

 ion  position               nearest neighbor table
   1  0.000  0.000  0.000-

IMPORTANT INFORMATION: All symmetrisations will be switched off!
NOSYMM: (Re-)initialisation of all symmetry stuff for point group C_1.

 KPOINTS: k-points

Automatic generation of k-mesh.
Space group operators:
 irot       det(A)        alpha          n_x          n_y          n_z        tau_x        tau_y        tau_z
    1     1.000000     0.000000     1.000000     0.000000     0.000000     0.000000     0.000000     0.000000

 Subroutine IBZKPT returns following result:

 Found    216 irreducible k-points:

 Following reciprocal coordinates:
            Coordinates               Weight
  0.000000  0.000000  0.000000      1.000000
  0.166667  0.000000  0.000000      1.000000
  0.333333  0.000000  0.000000      1.000000
  0.500000  0.000000  0.000000      1.000000
 -0.333333 -0.000000 -0.000000      1.000000
 -0.166667 -0.000000 -0.000000      1.000000
  0.000000  0.166667 -0.000000      1.000000
  0.166667  0.166667  0.000000      1.000000
  0.333333  0.166667  0.000000      1.000000
  0.500000  0.166667  0.000000      1.000000
 -0.333333  0.166667 -0.000000      1.000000
 -0.166667  0.166667 -0.000000      1.000000
  0.000000  0.333333  0.000000      1.000000
  0.166667  0.333333  0.000000      1.000000
  0.333333  0.333333  0.000000      1.000000
  0.500000  0.333333  0.000000      1.000000
 -0.333333  0.333333 -0.000000      1.000000
 -0.166667  0.333333 -0.000000      1.000000
  0.000000  0.500000  0.000000      1.000000
  0.166667  0.500000  0.000000      1.000000
  0.333333  0.500000  0.000000      1.000000
  0.500000  0.500000  0.000000      1.000000
 -0.333333  0.500000 -0.000000      1.000000
 -0.166667  0.500000 -0.000000      1.000000
  0.000000 -0.333333  0.000000      1.000000
  0.166667 -0.333333  0.000000      1.000000
  0.333333 -0.333333  0.000000      1.000000
  0.500000 -0.333333  0.000000      1.000000
 -0.333333 -0.333333 -0.000000      1.000000
 -0.166667 -0.333333 -0.000000      1.000000
  0.000000 -0.166667  0.000000      1.000000
  0.166667 -0.166667  0.000000      1.000000
  0.333333 -0.166667  0.000000      1.000000
  0.500000 -0.166667  0.000000      1.000000
 -0.333333 -0.166667 -0.000000      1.000000
 -0.166667 -0.166667 -0.000000      1.000000
  0.000000 -0.000000  0.166667      1.000000
  0.166667  0.000000  0.166667      1.000000
  0.333333  0.000000  0.166667      1.000000
  0.500000  0.000000  0.166667      1.000000
 -0.333333 -0.000000  0.166667      1.000000
 -0.166667 -0.000000  0.166667      1.000000
  0.000000  0.166667  0.166667      1.000000
  0.166667  0.166667  0.166667      1.000000
  0.333333  0.166667  0.166667      1.000000
  0.500000  0.166667  0.166667      1.000000
 -0.333333  0.166667  0.166667      1.000000
 -0.166667  0.166667  0.166667      1.000000
  0.000000  0.333333  0.166667      1.000000
  0.166667  0.333333  0.166667      1.000000
  0.333333  0.333333  0.166667      1.000000
  0.500000  0.333333  0.166667      1.000000
 -0.333333  0.333333  0.166667      1.000000
 -0.166667  0.333333  0.166667      1.000000
  0.000000  0.500000  0.166667      1.000000
  0.166667  0.500000  0.166667      1.000000
  0.333333  0.500000  0.166667      1.000000
  0.500000  0.500000  0.166667      1.000000
 -0.333333  0.500000  0.166667      1.000000
 -0.166667  0.500000  0.166667      1.000000
[...]
  0.500000  0.500000 -0.166667      1.000000
 -0.333333  0.500000 -0.166667      1.000000
 -0.166667  0.500000 -0.166667      1.000000
 -0.000000 -0.333333 -0.166667      1.000000
  0.166667 -0.333333 -0.166667      1.000000
  0.333333 -0.333333 -0.166667      1.000000
  0.500000 -0.333333 -0.166667      1.000000
 -0.333333 -0.333333 -0.166667      1.000000
 -0.166667 -0.333333 -0.166667      1.000000
 -0.000000 -0.166667 -0.166667      1.000000
  0.166667 -0.166667 -0.166667      1.000000
  0.333333 -0.166667 -0.166667      1.000000
  0.500000 -0.166667 -0.166667      1.000000
 -0.333333 -0.166667 -0.166667      1.000000
 -0.166667 -0.166667 -0.166667      1.000000

 Following cartesian coordinates:
            Coordinates               Weight
  0.000000  0.000000  0.000000      1.000000
  0.036869 -0.021286 -0.015052      1.000000
  0.073737 -0.042572 -0.030103      1.000000
  0.110606 -0.063858 -0.045155      1.000000
 -0.073737  0.042572  0.030103      1.000000
 -0.036869  0.021286  0.015052      1.000000
  0.000000  0.042572 -0.015052      1.000000
  0.036869  0.021286 -0.030103      1.000000
  0.073737  0.000000 -0.045155      1.000000
  0.110606 -0.021286 -0.060206      1.000000
 -0.073737  0.085144  0.015052      1.000000
 -0.036869  0.063858  0.000000      1.000000
  0.000000  0.085144 -0.030103      1.000000
  0.036869  0.063858 -0.045155      1.000000
  0.073737  0.042572 -0.060206      1.000000
  0.110606  0.021286 -0.075258      1.000000
 -0.073737  0.127716  0.000000      1.000000
 -0.036869  0.106430 -0.015052      1.000000
  0.000000  0.127716 -0.045155      1.000000
  0.036869  0.106430 -0.060206      1.000000
  0.073737  0.085144 -0.075258      1.000000
  0.110606  0.063858 -0.090309      1.000000
 -0.073737  0.170289 -0.015052      1.000000
 -0.036869  0.149002 -0.030103      1.000000
 -0.000000 -0.085144  0.030103      1.000000
  0.036869 -0.106430  0.015052      1.000000
  0.073737 -0.127716 -0.000000      1.000000
  0.110606 -0.149002 -0.015052      1.000000
 -0.073737 -0.042572  0.060206      1.000000
 -0.036869 -0.063858  0.045155      1.000000
 -0.000000 -0.042572  0.015052      1.000000
  0.036869 -0.063858 -0.000000      1.000000
  0.073737 -0.085144 -0.015052      1.000000
  0.110606 -0.106430 -0.030103      1.000000
 -0.073737 -0.000000  0.045155      1.000000
 -0.036869 -0.021286  0.030103      1.000000
 -0.000000  0.000000  0.045155      1.000000
  0.036869 -0.021286  0.030103      1.000000
  0.073737 -0.042572  0.015052      1.000000
  0.110606 -0.063858 -0.000000      1.000000
 -0.073737  0.042572  0.075258      1.000000
 -0.036869  0.021286  0.060206      1.000000
 -0.000000  0.042572  0.030103      1.000000
  0.036869  0.021286  0.015052      1.000000
  0.073737  0.000000  0.000000      1.000000
  0.110606 -0.021286 -0.015052      1.000000
 -0.073737  0.085144  0.060206      1.000000
 -0.036869  0.063858  0.045155      1.000000
 -0.000000  0.085144  0.015052      1.000000
  0.036869  0.063858  0.000000      1.000000
  0.073737  0.042572 -0.015052      1.000000
  0.110606  0.021286 -0.030103      1.000000
 -0.073737  0.127716  0.045155      1.000000
 -0.036869  0.106430  0.030103      1.000000
 -0.000000  0.127716  0.000000      1.000000
  0.036869  0.106430 -0.015052      1.000000
  0.073737  0.085144 -0.030103      1.000000
  0.110606  0.063858 -0.045155      1.000000
 -0.073737  0.170289  0.030103      1.000000
 -0.036869  0.149002  0.015052      1.000000
[...]
  0.110606  0.063858 -0.135464      1.000000
 -0.073737  0.170289 -0.060206      1.000000
 -0.036869  0.149002 -0.075258      1.000000
  0.000000 -0.085144 -0.015052      1.000000
  0.036869 -0.106430 -0.030103      1.000000
  0.073737 -0.127716 -0.045155      1.000000
  0.110606 -0.149002 -0.060206      1.000000
 -0.073737 -0.042572  0.015052      1.000000
 -0.036869 -0.063858 -0.000000      1.000000
  0.000000 -0.042572 -0.030103      1.000000
  0.036869 -0.063858 -0.045155      1.000000
  0.073737 -0.085144 -0.060206      1.000000
  0.110606 -0.106430 -0.075258      1.000000
 -0.073737 -0.000000 -0.000000      1.000000
 -0.036869 -0.021286 -0.015052      1.000000

 SYSTEM =  Og_FCC
 POSCAR =  Rn_FCC

 Startparameter for this run:
   NWRITE =      2    write-flag & timer
   PREC   = accura    normal or accurate (medium, high low for compatibility)
   ISTART =      1    job   : 0-new  1-cont  2-samecut
   ICHARG =      0    charge: 1-file 2-atom 10-const
   ISPIN  =      1    spin polarized calculation?
   LNONCOLLINEAR =      T non collinear calculations
   LSORBIT =      T    spin-orbit coupling
   INIWAV =      1    electr: 0-lowe 1-rand  2-diag
   LASPH  =      F    aspherical Exc in radial PAW
   METAGGA=      F    non-selfconsistent MetaGGA calc.

 Electronic Relaxation 1
   ENCUT  =  300.0 eV  22.05 Ry    4.70 a.u.   6.23  6.23  6.23*2*pi/ulx,y,z
   ENINI  =  300.0     initial cutoff
   ENAUG  =  715.6 eV  augmentation charge cutoff
   NELM   =     50;   NELMIN=  2; NELMDL= -5     # of ELM steps
   EDIFF  = 0.1E-07   stopping-criterion for ELM
   LREAL  =      F    real-space projection
   NLSPLINE    = F    spline interpolate recip. space projectors
   LCOMPAT=      F    compatible to vasp.4.4
   GGA_COMPAT  = F    GGA compatible to vasp.4.4-vasp.4.6
   LMAXPAW     = -100 max onsite density
   LMAXMIX     =    2 max onsite mixed and CHGCAR
   VOSKOWN=      0    Vosko Wilk Nusair interpolation
   ROPT   =    0.00000
 Ionic relaxation
   EDIFFG = 0.1E-04   stopping-criterion for IOM
   NSW    =      1    number of steps for IOM
   NBLOCK =      1;   KBLOCK =      1    inner block; outer block
   IBRION =     -1    ionic relax: 0-MD 1-quasi-New 2-CG
   NFREE  =      5    steps in history (QN), initial steepest desc. (CG)
   ISIF   =      3    stress and relaxation
   IWAVPR =     10    prediction:  0-non 1-charg 2-wave 3-comb
   ISYM   =      0    0-nonsym 1-usesym 2-fastsym
   LCORR  =      T    Harris-Foulkes like correction to forces

   POTIM  = 0.1000    time-step for ionic-motion
   TEIN   =    0.0    initial temperature
   TEBEG  =    0.0;   TEEND  =   0.0 temperature during run
   SMASS  =  -3.00    Nose mass-parameter (am)
   estimated Nose-frequenzy (Omega)   =  0.10E-29 period in steps =****** mass=  -0.445E-27a.u.
   SCALEE = 1.0000    scale energy and forces
   NPACO  =    256;   APACO  = 16.0  distance and # of slots for P.C.
   PSTRESS=    0.0 pullay stress

  Mass of Ions in am
   POMASS = 220.17
  Ionic Valenz
   ZVAL   =  18.00
  Atomic Wigner-Seitz radii
  virtual crystal weights
   VCA    =   1.00
   NELECT =      18.0000    total number of electrons
   NUPDOWN=      -1.0000    fix difference up-down

 DOS related values:
   EMIN   =  10.00;   EMAX   =-10.00  energy-range for DOS
   EFERMI =   0.00
   ISMEAR =     0;   SIGMA  =   0.00  broadening in eV -4-tet -1-fermi 0-gaus

 Electronic relaxation 2 (details)
   IALGO  =     90    algorithm
   LDIAG  =      T    sub-space diagonalisation (order eigenvalues)
   LSUBROT=      F    optimize rotation matrix (better conditioning)
   TURBO    =      0    0=normal 1=particle mesh
   IRESTART =      0    0=no restart 2=restart with 2 vectors
   NREBOOT  =      0    no. of reboots
[...]
   67.771561    0.825324    0.825324    0.825324    0.000000    0.000000    0.000000
   69.154654    0.825390    0.825390    0.825390   -0.000000   -0.000000   -0.000000
   70.537747    0.906341    0.906341    0.906341    0.000000    0.000000    0.000000
   71.920840    0.802736    0.802736    0.802736   -0.000000    0.000000   -0.000000
   73.303933    0.843548    0.843548    0.843548   -0.000000   -0.000000   -0.000000
   74.687026    0.819674    0.819674    0.819674   -0.000000   -0.000000   -0.000000
   76.070119    0.844216    0.844215    0.844215    0.000000    0.000000    0.000000
   77.453212    0.863171    0.863171    0.863171    0.000000    0.000000    0.000000
   78.836305    0.863423    0.863423    0.863423    0.000000    0.000000    0.000000
   80.219398    0.877208    0.877208    0.877208   -0.000000    0.000000   -0.000000
   81.602492    0.861133    0.861133    0.861133   -0.000000   -0.000000   -0.000000
[...]
  117.562911    0.944690    0.944690    0.944690   -0.000000   -0.000000   -0.000000
  118.946005    0.947060    0.947060    0.947060   -0.000000   -0.000000   -0.000000
  120.329098    0.949159    0.949159    0.949159   -0.000000   -0.000000   -0.000000
  121.712191    0.951057    0.951057    0.951057   -0.000000   -0.000000   -0.000000
  123.095284    0.952797    0.952797    0.952797   -0.000000   -0.000000   -0.000000
  124.478377    0.954405    0.954405    0.954405   -0.000000   -0.000000   -0.000000
  125.861470    0.955901    0.955901    0.955901   -0.000000   -0.000000   -0.000000
  127.244563    0.957300    0.957300    0.957300   -0.000000   -0.000000   -0.000000
  128.627656    0.958614    0.958614    0.958614   -0.000000   -0.000000   -0.000000
  130.010749    0.959852    0.959852    0.959852   -0.000000   -0.000000   -0.000000
  131.393842    0.961021    0.961021    0.961021   -0.000000   -0.000000   -0.000000
  132.776935    0.962128    0.962128    0.962128   -0.000000   -0.000000   -0.000000
  134.160028    0.963179    0.963179    0.963179   -0.000000   -0.000000   -0.000000
  135.543121    0.964178    0.964178    0.964178   -0.000000   -0.000000   -0.000000
  136.926215    0.965130    0.965130    0.965130   -0.000000   -0.000000   -0.000000

  frequency dependent IMAGINARY DIELECTRIC FUNCTION (independent particle, no local field effects) current-current (2nd set in vasprun.xml)
     E(ev)      X         Y         Z        XY        YZ        ZX
    0.000000    0.000000    0.000000    0.000000    0.000000    0.000000    0.000000
    1.383093    0.000000    0.000000    0.000000    0.000000    0.000000    0.000000
    2.766186    0.000000    0.000000    0.000000    0.000000    0.000000    0.000000
    4.149279    0.000000    0.000000    0.000000    0.000000    0.000000    0.000000
    5.532372    0.924380    0.924380    0.924380   -0.000001   -0.000000   -0.000000
    6.915465    0.000000    0.000000    0.000000    0.000000    0.000000    0.000000
    8.298558    9.529451    9.529450    9.529450    0.000001    0.000000    0.000001
    9.681652    2.574744    2.574743    2.574743    0.000000    0.000000    0.000000
   11.064745    1.685929    1.685928    1.685928    0.000000    0.000000    0.000000
   12.447838    1.705124    1.705124    1.705124    0.000000    0.000000    0.000000
   13.830931    2.177061    2.177061    2.177061   -0.000000   -0.000000   -0.000000
   15.214024    0.797179    0.797179    0.797179    0.000000   -0.000000    0.000000
   16.597117    0.686572    0.686572    0.686572   -0.000000   -0.000000   -0.000000
   17.980210    0.293076    0.293076    0.293076    0.000000    0.000000    0.000000
   19.363303    0.464399    0.464399    0.464399   -0.000000    0.000000   -0.000000
   20.746396    0.231106    0.231106    0.231106    0.000000    0.000000    0.000000
   22.129489    0.427305    0.427305    0.427305   -0.000000    0.000000   -0.000000
   23.512582    0.085178    0.085178    0.085178    0.000000    0.000000    0.000000
   24.895675    0.082265    0.082265    0.082265    0.000000    0.000000    0.000000
   26.278768    0.040739    0.040739    0.040739   -0.000000   -0.000000   -0.000000
   27.661862    0.088822    0.088822    0.088822   -0.000000   -0.000000    0.000000
   29.044955    0.092645    0.092645    0.092645   -0.000000   -0.000000   -0.000000
   30.428048    0.159740    0.159740    0.159740    0.000000   -0.000000    0.000000
   31.811141    0.074047    0.074047    0.074047   -0.000000   -0.000000   -0.000000
   33.194234    0.048416    0.048416    0.048416   -0.000000   -0.000000    0.000000
   34.577327    0.055576    0.055576    0.055576   -0.000000    0.000000   -0.000000
   35.960420    0.024503    0.024503    0.024503   -0.000000   -0.000000   -0.000000
   37.343513    0.011418    0.011418    0.011418   -0.000000   -0.000000   -0.000000
   38.726606    0.022088    0.022088    0.022088   -0.000000   -0.000000   -0.000000
   40.109699    0.001818    0.001818    0.001818    0.000000    0.000000    0.000000
   41.492792    0.006893    0.006893    0.006893    0.000000   -0.000000    0.000000
   42.875885    0.012832    0.012832    0.012832    0.000000    0.000000    0.000000
   44.258978    0.017938    0.017938    0.017938    0.000000    0.000000    0.000000
   45.642072    0.030282    0.030282    0.030282   -0.000000   -0.000000   -0.000000
   47.025165    0.015976    0.015976    0.015976   -0.000000   -0.000000    0.000000
   48.408258    0.016186    0.016184    0.016184    0.000002    0.000001    0.000001
   49.791351    0.070156    0.070156    0.070156   -0.000000   -0.000000   -0.000000
   51.174444    0.154446    0.154449    0.154451   -0.000003   -0.000001   -0.000002
   52.557537    0.020918    0.020918    0.020918    0.000000    0.000000    0.000000
   53.940630    0.200692    0.200692    0.200692    0.000000    0.000000    0.000000
   55.323723    0.556661    0.556661    0.556661    0.000000    0.000000    0.000000
   56.706816    0.256004    0.256004    0.256004    0.000000    0.000000    0.000000
   58.089909    0.027113    0.027113    0.027113   -0.000000    0.000000   -0.000000
   59.473002    0.356846    0.356846    0.356846   -0.000000   -0.000000   -0.000000
   60.856095    0.275193    0.275193    0.275193   -0.000000    0.000000   -0.000000
   62.239188    0.664514    0.664514    0.664514    0.000000    0.000000    0.000000
   63.622282    0.279702    0.279702    0.279702    0.000000    0.000000    0.000000
   65.005375    0.294693    0.294694    0.294694   -0.000001   -0.000000   -0.000000
   66.388468    0.402265    0.402265    0.402265   -0.000000   -0.000000   -0.000000
   67.771561    0.216622    0.216619    0.216619    0.000002    0.000001    0.000001
   69.154654    0.132796    0.132796    0.132796   -0.000000   -0.000000   -0.000000
   70.537747    0.116507    0.116507    0.116507    0.000000    0.000000    0.000000
   71.920840    0.304834    0.304834    0.304834    0.000000    0.000000    0.000000
   73.303933    0.042929    0.042929    0.042929    0.000000    0.000000    0.000000
   74.687026    0.112489    0.112489    0.112489    0.000000    0.000000    0.000000
   76.070119    0.044542    0.044540    0.044540    0.000002    0.000001    0.000001
   77.453212    0.014503    0.014502    0.014502    0.000001    0.000000    0.000000
   78.836305    0.125755    0.125755    0.125755    0.000000    0.000000    0.000000
   80.219398    0.070530    0.070530    0.070530   -0.000000   -0.000000   -0.000000
   81.602492    0.089630    0.089630    0.089630    0.000000    0.000000    0.000000
[...]
  117.562911    0.000000    0.000000    0.000000    0.000000    0.000000    0.000000
  118.946005    0.000000    0.000000    0.000000    0.000000    0.000000    0.000000
  120.329098    0.000000    0.000000    0.000000    0.000000    0.000000    0.000000
  121.712191    0.000000    0.000000    0.000000    0.000000    0.000000    0.000000
  123.095284    0.000000    0.000000    0.000000    0.000000    0.000000    0.000000
  124.478377    0.000000    0.000000    0.000000    0.000000    0.000000    0.000000
  125.861470    0.000000    0.000000    0.000000    0.000000    0.000000    0.000000
  127.244563    0.000000    0.000000    0.000000    0.000000    0.000000    0.000000
  128.627656    0.000000    0.000000    0.000000    0.000000    0.000000    0.000000
  130.010749    0.000000    0.000000    0.000000    0.000000    0.000000    0.000000
  131.393842    0.000000    0.000000    0.000000    0.000000    0.000000    0.000000
  132.776935    0.000000    0.000000    0.000000    0.000000    0.000000    0.000000
  134.160028    0.000000    0.000000    0.000000    0.000000    0.000000    0.000000
  135.543121    0.000000    0.000000    0.000000    0.000000    0.000000    0.000000
  136.926215    0.000000    0.000000    0.000000    0.000000    0.000000    0.000000

  frequency dependent      REAL DIELECTRIC FUNCTION (independent particle, no local field effects) current-current (2nd set in vasprun.xml)
     E(ev)        X           Y           Z          XY          YZ          ZX
    0.000000    3.188776    3.188776    3.188776    0.000000    0.000000    0.000000
    1.383093    3.262225    3.262225    3.262225    0.000000    0.000000    0.000000
    2.766186    3.541310    3.541310    3.541310    0.000000    0.000000    0.000000
    4.149279    4.090166    4.090163    4.090163    0.000000    0.000000    0.000000
    5.532372    5.153681    5.153679    5.153679    0.000000    0.000000    0.000000
    6.915465    0.954129    0.954129    0.954129   -0.000000   -0.000000   -0.000000
    8.298558    1.038896    1.038897    1.038896    0.000000   -0.000000    0.000000
    9.681652    1.371059    1.371059    1.371059   -0.000000    0.000000    0.000000
   11.064745   -0.283901   -0.283901   -0.283901    0.000000    0.000000    0.000000
   12.447838   -0.224731   -0.224731   -0.224731    0.000000    0.000000    0.000000
   13.830931   -0.319098   -0.319098   -0.319097   -0.000001   -0.000001   -0.000001
   15.214024    0.403256    0.403256    0.403256   -0.000000   -0.000000   -0.000000
   16.597117   -0.145831   -0.145831   -0.145831    0.000000    0.000000    0.000000
   17.980210    0.604750    0.604750    0.604750    0.000000    0.000000    0.000000
   19.363303   -0.165130   -0.165130   -0.165130   -0.000000   -0.000000   -0.000000
   20.746396    0.462934    0.462934    0.462935   -0.000000   -0.000000   -0.000000
   22.129489    0.378155    0.378155    0.378155    0.000000   -0.000000    0.000000
   23.512582    0.570793    0.570793    0.570793    0.000000    0.000000    0.000000
   24.895675    0.635507    0.635507    0.635507    0.000000    0.000000    0.000000
   26.278768    0.706106    0.706106    0.706106    0.000000    0.000000   -0.000000
   27.661862    0.774070    0.774070    0.774070   -0.000000   -0.000000   -0.000000
   29.044955    0.803477    0.803477    0.803477    0.000000    0.000000    0.000000
   30.428048    0.801429    0.801429    0.801429    0.000000    0.000000    0.000000
   31.811141    0.832014    0.832014    0.832014   -0.000000    0.000000   -0.000000
   33.194234    0.863840    0.863840    0.863840    0.000000   -0.000000   -0.000000
   34.577327    0.876930    0.876930    0.876930    0.000000    0.000000    0.000000
   35.960420    0.900379    0.900379    0.900379    0.000000   -0.000000    0.000000
   37.343513    0.918314    0.918314    0.918314    0.000000   -0.000000   -0.000000
   38.726606    0.938673    0.938673    0.938673    0.000000    0.000000    0.000000
   40.109699    0.959361    0.959361    0.959361    0.000000   -0.000000    0.000000
   41.492792    0.985340    0.985340    0.985340   -0.000000   -0.000000   -0.000000
   42.875885    1.001325    1.001325    1.001325   -0.000000   -0.000000   -0.000000
   44.258978    1.029847    1.029847    1.029847    0.000000    0.000000    0.000000
   45.642072    1.053533    1.053533    1.053533   -0.000000   -0.000000   -0.000000
   47.025165    1.085767    1.085767    1.085767   -0.000000   -0.000000   -0.000000
   48.408258    1.065807    1.065807    1.065807    0.000000    0.000000    0.000000
   49.791351    1.108647    1.108647    1.108647    0.000000    0.000000    0.000000
   51.174444    1.142384    1.142385    1.142385   -0.000001   -0.000001   -0.000001
   52.557537    1.153051    1.153051    1.153051    0.000000    0.000000    0.000000
   53.940630    1.162960    1.162960    1.162960    0.000000    0.000000    0.000000
   55.323723    1.341224    1.341224    1.341224    0.000000    0.000000    0.000000
   56.706816    1.064811    1.064811    1.064811    0.000000    0.000000    0.000000
   58.089909    1.041781    1.041781    1.041781    0.000000    0.000000    0.000000
   59.473002    1.158603    1.158603    1.158603   -0.000000   -0.000000   -0.000000
   60.856095    1.017381    1.017381    1.017381    0.000000    0.000000    0.000000
   62.239188    0.852818    0.852818    0.852818   -0.000000   -0.000000   -0.000000
   63.622282    0.917135    0.917135    0.917135   -0.000000   -0.000000   -0.000000
   65.005375    0.885639    0.885639    0.885639    0.000000    0.000000    0.000000
   66.388468    0.870537    0.870537    0.870537   -0.000000   -0.000000   -0.000000
   67.771561    0.824576    0.824576    0.824576    0.000000    0.000000    0.000000
   69.154654    0.825013    0.825013    0.825013   -0.000000   -0.000000   -0.000000
   70.537747    0.905962    0.905962    0.905962    0.000000    0.000000    0.000000
   71.920840    0.801938    0.801938    0.801938   -0.000000    0.000000   -0.000000
   73.303933    0.843367    0.843367    0.843367   -0.000000   -0.000000   -0.000000
   74.687026    0.819457    0.819457    0.819457   -0.000000   -0.000000   -0.000000
   76.070119    0.844017    0.844016    0.844016    0.000000    0.000000    0.000000
   77.453212    0.862998    0.862998    0.862998    0.000000    0.000000    0.000000
   78.836305    0.863149    0.863149    0.863149    0.000000    0.000000    0.000000
   80.219398    0.877015    0.877015    0.877015   -0.000000    0.000000   -0.000000
   81.602492    0.860902    0.860902    0.860902   -0.000000   -0.000000   -0.000000
[...]
  117.562911    0.944693    0.944693    0.944693   -0.000000   -0.000000   -0.000000
  118.946005    0.947064    0.947064    0.947064   -0.000000   -0.000000   -0.000000
  120.329098    0.949162    0.949162    0.949162   -0.000000   -0.000000   -0.000000
  121.712191    0.951060    0.951060    0.951060   -0.000000   -0.000000   -0.000000
  123.095284    0.952800    0.952800    0.952800   -0.000000   -0.000000   -0.000000
  124.478377    0.954408    0.954408    0.954408   -0.000000   -0.000000   -0.000000
  125.861470    0.955904    0.955904    0.955904    0.000000   -0.000000   -0.000000
  127.244563    0.957303    0.957303    0.957303    0.000000   -0.000000   -0.000000
  128.627656    0.958617    0.958617    0.958617    0.000000   -0.000000   -0.000000
  130.010749    0.959855    0.959855    0.959855    0.000000   -0.000000   -0.000000
  131.393842    0.961024    0.961024    0.961024    0.000000   -0.000000   -0.000000
  132.776935    0.962131    0.962131    0.962131   -0.000000   -0.000000   -0.000000
  134.160028    0.963182    0.963182    0.963182   -0.000000   -0.000000   -0.000000
  135.543121    0.964181    0.964181    0.964181   -0.000000   -0.000000   -0.000000
  136.926215    0.965133    0.965133    0.965133   -0.000000   -0.000000   -0.000000

 The outermost node in the dielectric function lies at epsilon=  19.6

 Spin-Orbit-Coupling matrix elements

 Ion:    1  E_soc:     -3.6862014
 l=   1
     0.0000000    -0.4914494    -0.4914494
    -0.4914494     0.0000000    -0.4914494
    -0.4914494    -0.4914494     0.0000000
 l=   2
     0.0000000    -0.0245831     0.0000000    -0.0245831    -0.0983340
    -0.0245831     0.0000000    -0.0737505    -0.0245827    -0.0245831
     0.0000000    -0.0737505     0.0000000    -0.0737505     0.0000000
    -0.0245831    -0.0245827    -0.0737505     0.0000000    -0.0245831
    -0.0983340    -0.0245831     0.0000000    -0.0245831     0.0000000
 l=   3
     0.0000000    -0.0000000     0.0000000     0.0000000     0.0000000    -0.0000000    -0.0000006
    -0.0000000     0.0000000    -0.0000002     0.0000000    -0.0000002    -0.0000001    -0.0000001
     0.0000000    -0.0000002     0.0000000    -0.0000003    -0.0000001    -0.0000002     0.0000000
     0.0000000     0.0000000    -0.0000003     0.0000000    -0.0000003     0.0000000     0.0000000
     0.0000000    -0.0000002    -0.0000001    -0.0000003     0.0000000    -0.0000002     0.0000000
    -0.0000000    -0.0000001    -0.0000002     0.0000000    -0.0000002     0.0000000    -0.0000001
    -0.0000006    -0.0000001     0.0000000     0.0000000     0.0000000    -0.0000001     0.0000000