 vasp.5.4.4.18Apr17-6-g9f103f2a35 (build Jul 09 2018 16:43:14) complex

 executed on             LinuxIFC date 2018.12.04  00:10:34

 INCAR:
 POTCAR:    PAW_PBE Ar_GW 21Aug2013

 POTCAR:    PAW_PBE Ar_GW 21Aug2013
   VRHFIN =Ar: s2p6

   TITEL  = PAW_PBE Ar_GW 21Aug2013
   POMASS =   39.949; ZVAL   =    8.000    mass and valenz
   ENMAX  =  290.599; ENMIN  =  217.949 eV

  PAW_PBE Ar_GW 21Aug2013               :

 POSCAR: Ar_FCC
  positions in direct lattice
  velocities in cartesian coordinates
 exchange correlation table for  LEXCH =        8
   RHO(1)=    0.500       N(1)  =     2000
   RHO(2)=  100.500       N(2)  =     4000

 ion  position               nearest neighbor table
   1  0.000  0.000  0.000-

IMPORTANT INFORMATION: All symmetrisations will be switched off!
NOSYMM: (Re-)initialisation of all symmetry stuff for point group C_1.

 KPOINTS: k-points

Automatic generation of k-mesh.
Space group operators:
 irot       det(A)        alpha          n_x          n_y          n_z        tau_x        tau_y        tau_z
    1     1.000000     0.000000     1.000000     0.000000     0.000000     0.000000     0.000000     0.000000

 Subroutine IBZKPT returns following result:

 Found    216 irreducible k-points:

 Following reciprocal coordinates:
            Coordinates               Weight
  0.000000  0.000000  0.000000      1.000000
  0.166667  0.000000  0.000000      1.000000
  0.333333  0.000000  0.000000      1.000000
  0.500000  0.000000  0.000000      1.000000
 -0.333333 -0.000000 -0.000000      1.000000
 -0.166667 -0.000000 -0.000000      1.000000
  0.000000  0.166667  0.000000      1.000000
  0.166667  0.166667  0.000000      1.000000
  0.333333  0.166667  0.000000      1.000000
  0.500000  0.166667  0.000000      1.000000
 -0.333333  0.166667 -0.000000      1.000000
 -0.166667  0.166667 -0.000000      1.000000
  0.000000  0.333333  0.000000      1.000000
  0.166667  0.333333  0.000000      1.000000
  0.333333  0.333333  0.000000      1.000000
  0.500000  0.333333  0.000000      1.000000
 -0.333333  0.333333 -0.000000      1.000000
 -0.166667  0.333333  0.000000      1.000000
  0.000000  0.500000  0.000000      1.000000
  0.166667  0.500000  0.000000      1.000000
  0.333333  0.500000  0.000000      1.000000
  0.500000  0.500000  0.000000      1.000000
 -0.333333  0.500000  0.000000      1.000000
 -0.166667  0.500000  0.000000      1.000000
  0.000000 -0.333333 -0.000000      1.000000
  0.166667 -0.333333 -0.000000      1.000000
  0.333333 -0.333333  0.000000      1.000000
  0.500000 -0.333333  0.000000      1.000000
 -0.333333 -0.333333  0.000000      1.000000
 -0.166667 -0.333333 -0.000000      1.000000
  0.000000 -0.166667 -0.000000      1.000000
  0.166667 -0.166667  0.000000      1.000000
  0.333333 -0.166667  0.000000      1.000000
  0.500000 -0.166667  0.000000      1.000000
 -0.333333 -0.166667 -0.000000      1.000000
 -0.166667 -0.166667  0.000000      1.000000
  0.000000  0.000000  0.166667      1.000000
  0.166667  0.000000  0.166667      1.000000
  0.333333  0.000000  0.166667      1.000000
  0.500000  0.000000  0.166667      1.000000
 -0.333333 -0.000000  0.166667      1.000000
 -0.166667 -0.000000  0.166667      1.000000
  0.000000  0.166667  0.166667      1.000000
  0.166667  0.166667  0.166667      1.000000
  0.333333  0.166667  0.166667      1.000000
  0.500000  0.166667  0.166667      1.000000
 -0.333333  0.166667  0.166667      1.000000
 -0.166667  0.166667  0.166667      1.000000
  0.000000  0.333333  0.166667      1.000000
  0.166667  0.333333  0.166667      1.000000
  0.333333  0.333333  0.166667      1.000000
  0.500000  0.333333  0.166667      1.000000
 -0.333333  0.333333  0.166667      1.000000
 -0.166667  0.333333  0.166667      1.000000
 -0.000000  0.500000  0.166667      1.000000
  0.166667  0.500000  0.166667      1.000000
  0.333333  0.500000  0.166667      1.000000
  0.500000  0.500000  0.166667      1.000000
 -0.333333  0.500000  0.166667      1.000000
 -0.166667  0.500000  0.166667      1.000000
[...]
  0.500000  0.500000 -0.166667      1.000000
 -0.333333  0.500000 -0.166667      1.000000
 -0.166667  0.500000 -0.166667      1.000000
  0.000000 -0.333333 -0.166667      1.000000
  0.166667 -0.333333 -0.166667      1.000000
  0.333333 -0.333333 -0.166667      1.000000
  0.500000 -0.333333 -0.166667      1.000000
 -0.333333 -0.333333 -0.166667      1.000000
 -0.166667 -0.333333 -0.166667      1.000000
  0.000000 -0.166667 -0.166667      1.000000
  0.166667 -0.166667 -0.166667      1.000000
  0.333333 -0.166667 -0.166667      1.000000
  0.500000 -0.166667 -0.166667      1.000000
 -0.333333 -0.166667 -0.166667      1.000000
 -0.166667 -0.166667 -0.166667      1.000000

 Following cartesian coordinates:
            Coordinates               Weight
  0.000000  0.000000  0.000000      1.000000
  0.046300 -0.026731 -0.018902      1.000000
  0.092600 -0.053463 -0.037804      1.000000
  0.138901 -0.080194 -0.056706      1.000000
 -0.092600  0.053463  0.037804      1.000000
 -0.046300  0.026731  0.018902      1.000000
  0.000000  0.053463 -0.018902      1.000000
  0.046300  0.026731 -0.037804      1.000000
  0.092600  0.000000 -0.056706      1.000000
  0.138901 -0.026731 -0.075608      1.000000
 -0.092600  0.106926  0.018902      1.000000
 -0.046300  0.080194  0.000000      1.000000
  0.000000  0.106926 -0.037804      1.000000
  0.046300  0.080194 -0.056706      1.000000
  0.092600  0.053463 -0.075608      1.000000
  0.138901  0.026731 -0.094510      1.000000
 -0.092600  0.160389  0.000000      1.000000
 -0.046300  0.133657 -0.018902      1.000000
  0.000000  0.160389 -0.056706      1.000000
  0.046300  0.133657 -0.075608      1.000000
  0.092600  0.106926 -0.094510      1.000000
  0.138901  0.080194 -0.113412      1.000000
 -0.092600  0.213851 -0.018902      1.000000
 -0.046300  0.187120 -0.037804      1.000000
 -0.000000 -0.106926  0.037804      1.000000
  0.046300 -0.133657  0.018902      1.000000
  0.092600 -0.160389 -0.000000      1.000000
  0.138901 -0.187120 -0.018902      1.000000
 -0.092600 -0.053463  0.075608      1.000000
 -0.046300 -0.080194  0.056706      1.000000
 -0.000000 -0.053463  0.018902      1.000000
  0.046300 -0.080194 -0.000000      1.000000
  0.092600 -0.106926 -0.018902      1.000000
  0.138901 -0.133657 -0.037804      1.000000
 -0.092600  0.000000  0.056706      1.000000
 -0.046300 -0.026731  0.037804      1.000000
 -0.000000  0.000000  0.056706      1.000000
  0.046300 -0.026731  0.037804      1.000000
  0.092600 -0.053463  0.018902      1.000000
  0.138901 -0.080194 -0.000000      1.000000
 -0.092600  0.053463  0.094510      1.000000
 -0.046300  0.026731  0.075608      1.000000
 -0.000000  0.053463  0.037804      1.000000
  0.046300  0.026731  0.018902      1.000000
  0.092600  0.000000  0.000000      1.000000
  0.138901 -0.026731 -0.018902      1.000000
 -0.092600  0.106926  0.075608      1.000000
 -0.046300  0.080194  0.056706      1.000000
 -0.000000  0.106926  0.018902      1.000000
  0.046300  0.080194  0.000000      1.000000
  0.092600  0.053463 -0.018902      1.000000
  0.138901  0.026731 -0.037804      1.000000
 -0.092600  0.160389  0.056706      1.000000
 -0.046300  0.133657  0.037804      1.000000
 -0.000000  0.160389  0.000000      1.000000
  0.046300  0.133657 -0.018902      1.000000
  0.092600  0.106926 -0.037804      1.000000
  0.138901  0.080194 -0.056706      1.000000
 -0.092600  0.213851  0.037804      1.000000
 -0.046300  0.187120  0.018902      1.000000
[...]
  0.138901  0.080194 -0.170118      1.000000
 -0.092600  0.213851 -0.075608      1.000000
 -0.046300  0.187120 -0.094510      1.000000
  0.000000 -0.106926 -0.018902      1.000000
  0.046300 -0.133657 -0.037804      1.000000
  0.092600 -0.160389 -0.056706      1.000000
  0.138901 -0.187120 -0.075608      1.000000
 -0.092600 -0.053463  0.018902      1.000000
 -0.046300 -0.080194 -0.000000      1.000000
  0.000000 -0.053463 -0.037804      1.000000
  0.046300 -0.080194 -0.056706      1.000000
  0.092600 -0.106926 -0.075608      1.000000
  0.138901 -0.133657 -0.094510      1.000000
 -0.092600  0.000000  0.000000      1.000000
 -0.046300 -0.026731 -0.018902      1.000000

 SYSTEM =  Og_FCC
 POSCAR =  Ar_FCC

 Startparameter for this run:
   NWRITE =      2    write-flag & timer
   PREC   = accura    normal or accurate (medium, high low for compatibility)
   ISTART =      0    job   : 0-new  1-cont  2-samecut
   ICHARG =      2    charge: 1-file 2-atom 10-const
   ISPIN  =      1    spin polarized calculation?
   LNONCOLLINEAR =      T non collinear calculations
   LSORBIT =      T    spin-orbit coupling
   INIWAV =      1    electr: 0-lowe 1-rand  2-diag
   LASPH  =      F    aspherical Exc in radial PAW
   METAGGA=      F    non-selfconsistent MetaGGA calc.

 Electronic Relaxation 1
   ENCUT  =  300.0 eV  22.05 Ry    4.70 a.u.   5.29  5.29  5.29*2*pi/ulx,y,z
   ENINI  =  300.0     initial cutoff
   ENAUG  =  799.9 eV  augmentation charge cutoff
   NELM   =     50;   NELMIN=  2; NELMDL= -5     # of ELM steps
   EDIFF  = 0.1E-07   stopping-criterion for ELM
   LREAL  =      F    real-space projection
   NLSPLINE    = F    spline interpolate recip. space projectors
   LCOMPAT=      F    compatible to vasp.4.4
   GGA_COMPAT  = F    GGA compatible to vasp.4.4-vasp.4.6
   LMAXPAW     = -100 max onsite density
   LMAXMIX     =    2 max onsite mixed and CHGCAR
   VOSKOWN=      0    Vosko Wilk Nusair interpolation
   ROPT   =    0.00000
 Ionic relaxation
   EDIFFG = 0.1E-04   stopping-criterion for IOM
   NSW    =      1    number of steps for IOM
   NBLOCK =      1;   KBLOCK =      1    inner block; outer block
   IBRION =     -1    ionic relax: 0-MD 1-quasi-New 2-CG
   NFREE  =      5    steps in history (QN), initial steepest desc. (CG)
   ISIF   =      3    stress and relaxation
   IWAVPR =     10    prediction:  0-non 1-charg 2-wave 3-comb
   ISYM   =      0    0-nonsym 1-usesym 2-fastsym
   LCORR  =      T    Harris-Foulkes like correction to forces

   POTIM  = 0.1000    time-step for ionic-motion
   TEIN   =    0.0    initial temperature
   TEBEG  =    0.0;   TEEND  =   0.0 temperature during run
   SMASS  =  -3.00    Nose mass-parameter (am)
   estimated Nose-frequenzy (Omega)   =  0.10E-29 period in steps =****** mass=  -0.321E-27a.u.
   SCALEE = 1.0000    scale energy and forces
   NPACO  =    256;   APACO  = 16.0  distance and # of slots for P.C.
   PSTRESS=    0.0 pullay stress

  Mass of Ions in am
   POMASS =  39.95
  Ionic Valenz
   ZVAL   =   8.00
  Atomic Wigner-Seitz radii
  virtual crystal weights
   VCA    =   1.00
   NELECT =       8.0000    total number of electrons
   NUPDOWN=      -1.0000    fix difference up-down

 DOS related values:
   EMIN   =  10.00;   EMAX   =-10.00  energy-range for DOS
   EFERMI =   0.00
   ISMEAR =     0;   SIGMA  =   0.00  broadening in eV -4-tet -1-fermi 0-gaus

 Electronic relaxation 2 (details)
   IALGO  =     38    algorithm
   LDIAG  =      T    sub-space diagonalisation (order eigenvalues)
   LSUBROT=      F    optimize rotation matrix (better conditioning)
   TURBO    =      0    0=normal 1=particle mesh
   IRESTART =      0    0=no restart 2=restart with 2 vectors
   NREBOOT  =      0    no. of reboots
[...]
   20.616175   -0.009013   -0.010470   -0.009771   -0.001075   -0.001374   -0.001330
   21.036913    0.046864    0.047670    0.049015    0.002731    0.002521    0.002455
   21.457652    0.133212    0.134427    0.133071    0.000459    0.000391    0.000634
   21.878390    0.244433    0.245109    0.244489   -0.000039   -0.000196    0.000067
   22.299128    0.319459    0.319946    0.319536   -0.000049   -0.000187    0.000024
   22.719867    0.378276    0.378662    0.378352   -0.000041   -0.000160    0.000015
   23.140605    0.426894    0.427215    0.426965   -0.000033   -0.000138    0.000012
   23.561343    0.468247    0.468522    0.468312   -0.000028   -0.000120    0.000011
   23.982081    0.504086    0.504328    0.504146   -0.000024   -0.000106    0.000010
   24.402820    0.535579    0.535794    0.535634   -0.000021   -0.000094    0.000009
   24.823558    0.563581    0.563774    0.563632   -0.000019   -0.000085    0.000009
[...]
   35.762753    0.845009    0.845040    0.844996    0.000007   -0.000028    0.000001
   36.183491    0.849513    0.849547    0.849506    0.000005   -0.000026    0.000001
   36.604229    0.853783    0.853818    0.853779    0.000003   -0.000024    0.000001
   37.024968    0.857849    0.857883    0.857847    0.000002   -0.000023    0.000001
   37.445706    0.861728    0.861762    0.861727    0.000002   -0.000021    0.000001
   37.866444    0.865435    0.865469    0.865436    0.000001   -0.000020    0.000001
   38.287182    0.868983    0.869016    0.868984    0.000001   -0.000020    0.000001
   38.707921    0.872381    0.872414    0.872383    0.000001   -0.000019    0.000002
   39.128659    0.875640    0.875672    0.875643    0.000000   -0.000018    0.000002
   39.549397    0.878767    0.878798    0.878770    0.000000   -0.000017    0.000002
   39.970136    0.881770    0.881800    0.881773    0.000000   -0.000017    0.000002
   40.390874    0.884656    0.884686    0.884659   -0.000000   -0.000016    0.000002
   40.811612    0.887431    0.887461    0.887435   -0.000000   -0.000016    0.000002
   41.232350    0.890102    0.890131    0.890106   -0.000000   -0.000015    0.000002
   41.653089    0.892674    0.892702    0.892678   -0.000000   -0.000015    0.000001

  frequency dependent IMAGINARY DIELECTRIC FUNCTION (independent particle, no local field effects) current-current (2nd set in vasprun.xml)
     E(ev)      X         Y         Z        XY        YZ        ZX
    0.000000    3.652058    3.651566    3.651917    0.015143    0.012708    0.012081
    0.420738    0.365900    0.365851    0.365886    0.001516    0.001272    0.001209
    0.841477    0.184009    0.183984    0.184002    0.000760    0.000638    0.000606
    1.262215    0.123865    0.123848    0.123860    0.000508    0.000427    0.000406
    1.682953    0.094176    0.094163    0.094172    0.000383    0.000322    0.000306
    2.103691    0.076690    0.076680    0.076687    0.000309    0.000260    0.000247
    2.524430    0.065331    0.065322    0.065328    0.000260    0.000219    0.000208
    2.945168    0.057501    0.057494    0.057499    0.000225    0.000190    0.000181
    3.365906    0.051909    0.051903    0.051907    0.000199    0.000168    0.000160
    3.786644    0.047847    0.047841    0.047845    0.000180    0.000152    0.000145
    4.207383    0.044901    0.044896    0.044900    0.000164    0.000139    0.000133
    4.628121    0.042821    0.042816    0.042820    0.000152    0.000129    0.000123
    5.048859    0.041459    0.041454    0.041458    0.000142    0.000121    0.000115
    5.469597    0.040736    0.040732    0.040735    0.000134    0.000115    0.000109
    5.890336    0.040633    0.040629    0.040632    0.000127    0.000109    0.000104
    6.311074    0.041192    0.041188    0.041191    0.000122    0.000105    0.000100
    6.731812    0.042543    0.042539    0.042542    0.000118    0.000102    0.000097
    7.152551    0.044979    0.044975    0.044978    0.000114    0.000099    0.000095
    7.573289    0.049198    0.049194    0.049196    0.000112    0.000097    0.000093
    7.994027    0.057475    0.057471    0.057474    0.000110    0.000096    0.000092
    8.414765    0.090258    0.090254    0.090257    0.000108    0.000095    0.000091
    8.835504    0.159709    0.159706    0.159708    0.000108    0.000096    0.000092
    9.256242    0.417152    0.417147    0.417150    0.000110    0.000098    0.000093
    9.676980    0.729238    0.729233    0.729236    0.000096    0.000078    0.000080
   10.097718    0.271518    0.271514    0.271517    0.000111    0.000100    0.000095
   10.518457    0.636893    0.636888    0.636891    0.000108    0.000096    0.000093
   10.939195    1.868687    1.868681    1.868684    0.000094    0.000076    0.000078
   11.359933    0.641183    0.641181    0.641183    0.000374    0.000442    0.000357
   11.780672    1.164144    1.164138    1.164142    0.000145    0.000144    0.000132
   12.201410    3.243600    3.243602    3.243601   -0.000398   -0.000582   -0.000432
   12.622148    1.102133    1.102127    1.102131    0.000229    0.000252    0.000218
   13.042886    1.489183    1.489178    1.489181    0.000114    0.000096    0.000098
   13.463625    3.302733    3.302732    3.302733    0.000135    0.000119    0.000117
   13.884363    2.485802    2.485792    2.485798    0.000195    0.000182    0.000202
   14.305101    2.080583    2.080576    2.080581    0.000187    0.000180    0.000176
   14.725839    2.927440    2.927432    2.927437    0.000227    0.000222    0.000215
   15.146578    3.049857    3.049848    3.049853    0.000232    0.000234    0.000210
   15.567316    1.655541    1.655531    1.655537    0.000334    0.000336    0.000323
   15.988054    2.044888    2.044870    2.044879    0.000435    0.000441    0.000423
   16.408792    2.302146    2.302124    2.302132    0.000619    0.000637    0.000603
   16.829531    1.513071    1.513056    1.513056    0.001015    0.001060    0.000992
   17.250269    1.207935    1.207945    1.207881    0.002338    0.002443    0.002265
   17.671007    1.126104    1.126697    1.125771    0.000468    0.000267    0.001107
   18.091746    1.121831    1.120635    1.121344   -0.001000   -0.002744   -0.003053
   18.512484    1.036337    1.033606    1.035745    0.003219    0.004319    0.003762
   18.933222    0.414796    0.415436    0.415386    0.001108    0.000728   -0.000875
   19.353960    0.818619    0.816985    0.819109   -0.005873   -0.006750   -0.007506
   19.774699    0.469660    0.467765    0.468070    0.001814    0.003695    0.003443
   20.195437    0.307787    0.308058    0.308088    0.000712    0.000964    0.000905
   20.616175    0.085367    0.084098    0.084857    0.001810    0.002352    0.002658
   21.036913    0.099289    0.098601    0.099178   -0.004587   -0.005902   -0.004777
   21.457652    0.031377    0.031022    0.031557    0.001717    0.001973    0.001817
   21.878390    0.013943    0.013881    0.013957    0.000495    0.000582    0.000529
   22.299128    0.009493    0.009466    0.009495    0.000231    0.000284    0.000259
   22.719867    0.007160    0.007144    0.007159    0.000133    0.000170    0.000154
   23.140605    0.005663    0.005653    0.005662    0.000084    0.000113    0.000102
   23.561343    0.004611    0.004604    0.004610    0.000057    0.000081    0.000072
   23.982081    0.003833    0.003828    0.003833    0.000041    0.000060    0.000052
   24.402820    0.003239    0.003235    0.003238    0.000030    0.000046    0.000039
   24.823558    0.002791    0.002788    0.002791    0.000022    0.000036    0.000030
[...]
   35.762753    0.000236    0.000237    0.000237   -0.000002    0.000001    0.000013
   36.183491    0.000210    0.000210    0.000211   -0.000002    0.000001    0.000009
   36.604229    0.000191    0.000191    0.000192   -0.000002    0.000000    0.000007
   37.024968    0.000176    0.000176    0.000176   -0.000002    0.000000    0.000006
   37.445706    0.000163    0.000163    0.000163   -0.000002    0.000000    0.000005
   37.866444    0.000151    0.000151    0.000151   -0.000002    0.000000    0.000004
   38.287182    0.000141    0.000141    0.000141   -0.000002    0.000000    0.000004
   38.707921    0.000131    0.000131    0.000132   -0.000001    0.000000    0.000003
   39.128659    0.000123    0.000123    0.000123   -0.000001    0.000000    0.000003
   39.549397    0.000115    0.000115    0.000115   -0.000001   -0.000000    0.000002
   39.970136    0.000108    0.000108    0.000108   -0.000001   -0.000000    0.000002
   40.390874    0.000101    0.000101    0.000102   -0.000001   -0.000000    0.000002
   40.811612    0.000095    0.000095    0.000095   -0.000001   -0.000000    0.000002
   41.232350    0.000090    0.000090    0.000090   -0.000001   -0.000000    0.000002
   41.653089    0.000085    0.000085    0.000085   -0.000001   -0.000000    0.000001

  frequency dependent      REAL DIELECTRIC FUNCTION (independent particle, no local field effects) current-current (2nd set in vasprun.xml)
     E(ev)        X           Y           Z          XY          YZ          ZX
    0.000000    1.768107    1.768003    1.768077    0.000005    0.000043   -0.000010
    0.420738    1.768836    1.768732    1.768806    0.000005    0.000043   -0.000010
    0.841477    1.771056    1.770952    1.771026    0.000005    0.000043   -0.000010
    1.262215    1.774789    1.774685    1.774759    0.000005    0.000044   -0.000010
    1.682953    1.780084    1.779980    1.780054    0.000005    0.000044   -0.000010
    2.103691    1.787017    1.786912    1.786986    0.000005    0.000044   -0.000010
    2.524430    1.795684    1.795579    1.795654    0.000005    0.000044   -0.000010
    2.945168    1.806218    1.806112    1.806187    0.000005    0.000044   -0.000010
    3.365906    1.818782    1.818675    1.818751    0.000005    0.000045   -0.000010
    3.786644    1.833587    1.833480    1.833556    0.000005    0.000045   -0.000011
    4.207383    1.850902    1.850794    1.850871    0.000005    0.000045   -0.000011
    4.628121    1.871067    1.870958    1.871036    0.000005    0.000046   -0.000011
    5.048859    1.894523    1.894412    1.894490    0.000005    0.000046   -0.000011
    5.469597    1.921845    1.921733    1.921813    0.000005    0.000047   -0.000011
    5.890336    1.953810    1.953696    1.953777    0.000005    0.000047   -0.000011
    6.311074    1.991490    1.991374    1.991456    0.000005    0.000048   -0.000012
    6.731812    2.036443    2.036326    2.036409    0.000005    0.000049   -0.000012
    7.152551    2.091090    2.090971    2.091055    0.000005    0.000049   -0.000012
    7.573289    2.159625    2.159503    2.159589    0.000005    0.000050   -0.000012
    7.994027    2.250983    2.250858    2.250946    0.000005    0.000051   -0.000013
    8.414765    2.396129    2.396002    2.396092    0.000006    0.000052   -0.000013
    8.835504    2.452021    2.451891    2.451983    0.000004    0.000052   -0.000015
    9.256242    2.889252    2.889118    2.889212    0.000004    0.000051   -0.000016
    9.676980    2.451559    2.451423    2.451519   -0.000017    0.000025   -0.000036
   10.097718    2.592796    2.592654    2.592753    0.000007    0.000059   -0.000014
   10.518457    2.922790    2.922644    2.922746    0.000008    0.000060   -0.000015
   10.939195    2.969371    2.969221    2.969327    0.000015    0.000073   -0.000008
   11.359933    2.779886    2.779728    2.779837    0.000456    0.000652    0.000439
   11.780672    3.464120    3.463957    3.464070   -0.000041    0.000002   -0.000068
   12.201410    1.711797    1.711625    1.711745   -0.001015   -0.001286   -0.001056
   12.622148    2.078037    2.077862    2.077984    0.000058    0.000137    0.000031
   13.042886    2.845170    2.844987    2.845114    0.000096    0.000189    0.000068
   13.463625    2.077637    2.077440    2.077576    0.000109    0.000202    0.000087
   13.884363    1.525042    1.524821    1.524970   -0.000074   -0.000015   -0.000087
   14.305101    0.990571    0.990348    0.990500   -0.000000    0.000072   -0.000039
   14.725839    1.405712    1.405473    1.405635    0.000000    0.000078   -0.000041
   15.146578   -0.121706   -0.121969   -0.121793   -0.000024    0.000063   -0.000068
   15.567316    0.459760    0.459474    0.459664   -0.000003    0.000080   -0.000055
   15.988054    0.537563    0.537244    0.537450   -0.000016    0.000071   -0.000076
   16.408792   -0.007485   -0.007836   -0.007614   -0.000046    0.000043   -0.000118
   16.829531   -0.822775   -0.823173   -0.822940   -0.000137   -0.000065   -0.000230
   17.250269   -0.704578   -0.705001   -0.704826   -0.000676   -0.000702   -0.000790
   17.671007    0.035661    0.034089    0.036574   -0.013183   -0.013014   -0.012617
   18.091746   -0.038463   -0.039380   -0.038955    0.015514    0.017227    0.015268
   18.512484   -0.465870   -0.467429   -0.466552   -0.002687   -0.002338   -0.002474
   18.933222   -0.119790   -0.118380   -0.118225   -0.001603   -0.000824   -0.002987
   19.353960    0.006364    0.005080    0.005640    0.003514    0.006806    0.003745
   19.774699   -0.372687   -0.371979   -0.372449   -0.001561   -0.003931   -0.002089
   20.195437   -0.196623   -0.197091   -0.196450    0.000238   -0.000617    0.000288
   20.616175   -0.009866   -0.011313   -0.010622   -0.001095   -0.001402   -0.001358
   21.036913    0.045854    0.046668    0.048007    0.002765    0.002580    0.002513
   21.457652    0.132840    0.134067    0.132698    0.000443    0.000377    0.000616
   21.878390    0.244259    0.244939    0.244315   -0.000045   -0.000199    0.000062
   22.299128    0.319341    0.319831    0.319418   -0.000053   -0.000189    0.000021
   22.719867    0.378187    0.378576    0.378264   -0.000043   -0.000161    0.000014
   23.140605    0.426826    0.427149    0.426896   -0.000035   -0.000138    0.000011
   23.561343    0.468192    0.468469    0.468257   -0.000030   -0.000120    0.000010
   23.982081    0.504042    0.504285    0.504102   -0.000025   -0.000106    0.000010
   24.402820    0.535542    0.535759    0.535598   -0.000022   -0.000094    0.000009
   24.823558    0.563550    0.563745    0.563602   -0.000020   -0.000085    0.000009
[...]
   35.762753    0.845011    0.845042    0.844997    0.000006   -0.000028    0.000001
   36.183491    0.849515    0.849549    0.849508    0.000004   -0.000026    0.000001
   36.604229    0.853785    0.853820    0.853781    0.000003   -0.000024    0.000001
   37.024968    0.857851    0.857885    0.857849    0.000002   -0.000022    0.000001
   37.445706    0.861730    0.861764    0.861730    0.000002   -0.000021    0.000001
   37.866444    0.865437    0.865471    0.865438    0.000001   -0.000020    0.000001
   38.287182    0.868985    0.869018    0.868987    0.000001   -0.000019    0.000002
   38.707921    0.872383    0.872416    0.872386    0.000000   -0.000019    0.000002
   39.128659    0.875642    0.875674    0.875645    0.000000   -0.000018    0.000002
   39.549397    0.878769    0.878800    0.878772    0.000000   -0.000017    0.000002
   39.970136    0.881772    0.881803    0.881776   -0.000000   -0.000017    0.000002
   40.390874    0.884658    0.884688    0.884662   -0.000000   -0.000016    0.000002
   40.811612    0.887434    0.887463    0.887438   -0.000000   -0.000016    0.000002
   41.232350    0.890105    0.890134    0.890109   -0.000000   -0.000015    0.000002
   41.653089    0.892677    0.892705    0.892681   -0.000000   -0.000015    0.000002

 The outermost node in the dielectric function lies at epsilon=  20.7

 Spin-Orbit-Coupling matrix elements

 Ion:    1  E_soc:     -0.0049067
 l=   1
     0.0000000    -0.0008178    -0.0008178
    -0.0008178     0.0000000    -0.0008178
    -0.0008178    -0.0008178     0.0000000
 l=   2
     0.0000000    -0.0000000     0.0000000    -0.0000000    -0.0000000
    -0.0000000     0.0000000    -0.0000000    -0.0000000    -0.0000000
     0.0000000    -0.0000000     0.0000000    -0.0000000     0.0000000
    -0.0000000    -0.0000000    -0.0000000     0.0000000    -0.0000000
    -0.0000000    -0.0000000     0.0000000    -0.0000000     0.0000000
 l=   3
     0.0000000     0.0000000     0.0000000     0.0000000     0.0000000     0.0000000     0.0000000
     0.0000000     0.0000000     0.0000000     0.0000000     0.0000000     0.0000000     0.0000000
     0.0000000     0.0000000     0.0000000     0.0000000     0.0000000     0.0000000     0.0000000
     0.0000000     0.0000000     0.0000000     0.0000000     0.0000000     0.0000000     0.0000000
     0.0000000     0.0000000     0.0000000     0.0000000     0.0000000     0.0000000     0.0000000
     0.0000000     0.0000000     0.0000000     0.0000000     0.0000000     0.0000000     0.0000000
     0.0000000     0.0000000     0.0000000     0.0000000     0.0000000     0.0000000     0.0000000