 vasp.5.4.4.18Apr17-6-g9f103f2a35 (build Nov 03 2018 10:20:46) complex

 executed on             LinuxIFC date 2018.12.05  16:26:25

 INCAR:
 POTCAR:    PAW_PBE Ar_GW 21Aug2013

 POTCAR:    PAW_PBE Ar_GW 21Aug2013
   VRHFIN =Ar: s2p6

   TITEL  = PAW_PBE Ar_GW 21Aug2013
   POMASS =   39.949; ZVAL   =    8.000    mass and valenz
   ENMAX  =  290.599; ENMIN  =  217.949 eV

  PAW_PBE Ar_GW 21Aug2013               :

 POSCAR: Ar_FCC
  positions in direct lattice
  velocities in cartesian coordinates
 exchange correlation table for  LEXCH =        8
   RHO(1)=    0.500       N(1)  =     2000
   RHO(2)=  100.500       N(2)  =     4000

 ion  position               nearest neighbor table
   1  0.000  0.000  0.000-

IMPORTANT INFORMATION: All symmetrisations will be switched off!
NOSYMM: (Re-)initialisation of all symmetry stuff for point group C_1.

 KPOINTS: k-points

Automatic generation of k-mesh.
Space group operators:
 irot       det(A)        alpha          n_x          n_y          n_z        tau_x        tau_y        tau_z
    1     1.000000     0.000000     1.000000     0.000000     0.000000     0.000000     0.000000     0.000000

 Subroutine IBZKPT returns following result:

 Found    343 irreducible k-points:

 Following reciprocal coordinates:
            Coordinates               Weight
  0.000000  0.000000  0.000000      1.000000
  0.142857  0.000000 -0.000000      1.000000
  0.285714  0.000000  0.000000      1.000000
  0.428571  0.000000  0.000000      1.000000
 -0.428571 -0.000000  0.000000      1.000000
 -0.285714 -0.000000 -0.000000      1.000000
 -0.142857 -0.000000  0.000000      1.000000
 -0.000000  0.142857  0.000000      1.000000
  0.142857  0.142857  0.000000      1.000000
  0.285714  0.142857  0.000000      1.000000
  0.428571  0.142857  0.000000      1.000000
 -0.428571  0.142857  0.000000      1.000000
 -0.285714  0.142857 -0.000000      1.000000
 -0.142857  0.142857  0.000000      1.000000
  0.000000  0.285714  0.000000      1.000000
  0.142857  0.285714 -0.000000      1.000000
  0.285714  0.285714  0.000000      1.000000
  0.428571  0.285714  0.000000      1.000000
 -0.428571  0.285714 -0.000000      1.000000
 -0.285714  0.285714 -0.000000      1.000000
 -0.142857  0.285714 -0.000000      1.000000
  0.000000  0.428571  0.000000      1.000000
  0.142857  0.428571 -0.000000      1.000000
  0.285714  0.428571  0.000000      1.000000
  0.428571  0.428571  0.000000      1.000000
 -0.428571  0.428571 -0.000000      1.000000
 -0.285714  0.428571 -0.000000      1.000000
 -0.142857  0.428571 -0.000000      1.000000
  0.000000 -0.428571  0.000000      1.000000
  0.142857 -0.428571  0.000000      1.000000
  0.285714 -0.428571  0.000000      1.000000
  0.428571 -0.428571  0.000000      1.000000
 -0.428571 -0.428571 -0.000000      1.000000
 -0.285714 -0.428571 -0.000000      1.000000
 -0.142857 -0.428571  0.000000      1.000000
 -0.000000 -0.285714  0.000000      1.000000
  0.142857 -0.285714 -0.000000      1.000000
  0.285714 -0.285714  0.000000      1.000000
  0.428571 -0.285714  0.000000      1.000000
 -0.428571 -0.285714 -0.000000      1.000000
 -0.285714 -0.285714  0.000000      1.000000
 -0.142857 -0.285714 -0.000000      1.000000
  0.000000 -0.142857  0.000000      1.000000
  0.142857 -0.142857  0.000000      1.000000
  0.285714 -0.142857  0.000000      1.000000
  0.428571 -0.142857 -0.000000      1.000000
 -0.428571 -0.142857  0.000000      1.000000
 -0.285714 -0.142857  0.000000      1.000000
 -0.142857 -0.142857  0.000000      1.000000
  0.000000 -0.000000  0.142857      1.000000
  0.142857  0.000000  0.142857      1.000000
  0.285714  0.000000  0.142857      1.000000
  0.428571  0.000000  0.142857      1.000000
 -0.428571 -0.000000  0.142857      1.000000
 -0.285714 -0.000000  0.142857      1.000000
 -0.142857 -0.000000  0.142857      1.000000
  0.000000  0.142857  0.142857      1.000000
  0.142857  0.142857  0.142857      1.000000
  0.285714  0.142857  0.142857      1.000000
  0.428571  0.142857  0.142857      1.000000
[...]
 -0.142857 -0.428571 -0.142857      1.000000
 -0.000000 -0.285714 -0.142857      1.000000
  0.142857 -0.285714 -0.142857      1.000000
  0.285714 -0.285714 -0.142857      1.000000
  0.428571 -0.285714 -0.142857      1.000000
 -0.428571 -0.285714 -0.142857      1.000000
 -0.285714 -0.285714 -0.142857      1.000000
 -0.142857 -0.285714 -0.142857      1.000000
  0.000000 -0.142857 -0.142857      1.000000
  0.142857 -0.142857 -0.142857      1.000000
  0.285714 -0.142857 -0.142857      1.000000
  0.428571 -0.142857 -0.142857      1.000000
 -0.428571 -0.142857 -0.142857      1.000000
 -0.285714 -0.142857 -0.142857      1.000000
 -0.142857 -0.142857 -0.142857      1.000000

 Following cartesian coordinates:
            Coordinates               Weight
  0.000000  0.000000  0.000000      1.000000
  0.039686 -0.022913 -0.016202      1.000000
  0.079372 -0.045825 -0.032403      1.000000
  0.119058 -0.068738 -0.048605      1.000000
 -0.119058  0.068738  0.048605      1.000000
 -0.079372  0.045825  0.032403      1.000000
 -0.039686  0.022913  0.016202      1.000000
  0.000000  0.045825 -0.016202      1.000000
  0.039686  0.022913 -0.032403      1.000000
  0.079372  0.000000 -0.048605      1.000000
  0.119058 -0.022913 -0.064807      1.000000
 -0.119058  0.114563  0.032403      1.000000
 -0.079372  0.091651  0.016202      1.000000
 -0.039686  0.068738  0.000000      1.000000
  0.000000  0.091651 -0.032403      1.000000
  0.039686  0.068738 -0.048605      1.000000
  0.079372  0.045825 -0.064807      1.000000
  0.119058  0.022913 -0.081008      1.000000
 -0.119058  0.160389  0.016202      1.000000
 -0.079372  0.137476  0.000000      1.000000
 -0.039686  0.114563 -0.016202      1.000000
  0.000000  0.137476 -0.048605      1.000000
  0.039686  0.114563 -0.064807      1.000000
  0.079372  0.091651 -0.081008      1.000000
  0.119058  0.068738 -0.097210      1.000000
 -0.119058  0.206214  0.000000      1.000000
 -0.079372  0.183301 -0.016202      1.000000
 -0.039686  0.160389 -0.032403      1.000000
 -0.000000 -0.137476  0.048605      1.000000
  0.039686 -0.160389  0.032403      1.000000
  0.079372 -0.183301  0.016202      1.000000
  0.119058 -0.206214 -0.000000      1.000000
 -0.119058 -0.068738  0.097210      1.000000
 -0.079372 -0.091651  0.081008      1.000000
 -0.039686 -0.114563  0.064807      1.000000
 -0.000000 -0.091651  0.032403      1.000000
  0.039686 -0.114563  0.016202      1.000000
  0.079372 -0.137476 -0.000000      1.000000
  0.119058 -0.160389 -0.016202      1.000000
 -0.119058 -0.022913  0.081008      1.000000
 -0.079372 -0.045825  0.064807      1.000000
 -0.039686 -0.068738  0.048605      1.000000
 -0.000000 -0.045825  0.016202      1.000000
  0.039686 -0.068738 -0.000000      1.000000
  0.079372 -0.091651 -0.016202      1.000000
  0.119058 -0.114563 -0.032403      1.000000
 -0.119058  0.022913  0.064807      1.000000
 -0.079372  0.000000  0.048605      1.000000
 -0.039686 -0.022913  0.032403      1.000000
 -0.000000  0.000000  0.048605      1.000000
  0.039686 -0.022913  0.032403      1.000000
  0.079372 -0.045825  0.016202      1.000000
  0.119058 -0.068738 -0.000000      1.000000
 -0.119058  0.068738  0.097210      1.000000
 -0.079372  0.045825  0.081008      1.000000
 -0.039686  0.022913  0.064807      1.000000
 -0.000000  0.045825  0.032403      1.000000
  0.039686  0.022913  0.016202      1.000000
  0.079372  0.000000  0.000000      1.000000
  0.119058 -0.022913 -0.016202      1.000000
[...]
 -0.039686 -0.114563  0.016202      1.000000
  0.000000 -0.091651 -0.016202      1.000000
  0.039686 -0.114563 -0.032403      1.000000
  0.079372 -0.137476 -0.048605      1.000000
  0.119058 -0.160389 -0.064807      1.000000
 -0.119058 -0.022913  0.032403      1.000000
 -0.079372 -0.045825  0.016202      1.000000
 -0.039686 -0.068738 -0.000000      1.000000
  0.000000 -0.045825 -0.032403      1.000000
  0.039686 -0.068738 -0.048605      1.000000
  0.079372 -0.091651 -0.064807      1.000000
  0.119058 -0.114563 -0.081008      1.000000
 -0.119058  0.022913  0.016202      1.000000
 -0.079372  0.000000  0.000000      1.000000
 -0.039686 -0.022913 -0.016202      1.000000

 SYSTEM =  Og_FCC
 POSCAR =  Ar_FCC

 Startparameter for this run:
   NWRITE =      2    write-flag & timer
   PREC   = accura    normal or accurate (medium, high low for compatibility)
   ISTART =      0    job   : 0-new  1-cont  2-samecut
   ICHARG =      2    charge: 1-file 2-atom 10-const
   ISPIN  =      1    spin polarized calculation?
   LNONCOLLINEAR =      T non collinear calculations
   LSORBIT =      T    spin-orbit coupling
   INIWAV =      1    electr: 0-lowe 1-rand  2-diag
   LASPH  =      F    aspherical Exc in radial PAW
   METAGGA=      F    non-selfconsistent MetaGGA calc.

 Electronic Relaxation 1
   ENCUT  =  300.0 eV  22.05 Ry    4.70 a.u.   5.08  5.08  5.08*2*pi/ulx,y,z
   ENINI  =  300.0     initial cutoff
   ENAUG  =  799.9 eV  augmentation charge cutoff
   NELM   =     50;   NELMIN=  2; NELMDL= -5     # of ELM steps
   EDIFF  = 0.1E-07   stopping-criterion for ELM
   LREAL  =      F    real-space projection
   NLSPLINE    = F    spline interpolate recip. space projectors
   LCOMPAT=      F    compatible to vasp.4.4
   GGA_COMPAT  = F    GGA compatible to vasp.4.4-vasp.4.6
   LMAXPAW     = -100 max onsite density
   LMAXMIX     =    2 max onsite mixed and CHGCAR
   VOSKOWN=      0    Vosko Wilk Nusair interpolation
   ROPT   =    0.00000
 Ionic relaxation
   EDIFFG = 0.1E-04   stopping-criterion for IOM
   NSW    =      1    number of steps for IOM
   NBLOCK =      1;   KBLOCK =      1    inner block; outer block
   IBRION =     -1    ionic relax: 0-MD 1-quasi-New 2-CG
   NFREE  =      5    steps in history (QN), initial steepest desc. (CG)
   ISIF   =      3    stress and relaxation
   IWAVPR =     10    prediction:  0-non 1-charg 2-wave 3-comb
   ISYM   =      0    0-nonsym 1-usesym 2-fastsym
   LCORR  =      T    Harris-Foulkes like correction to forces

   POTIM  = 0.1000    time-step for ionic-motion
   TEIN   =    0.0    initial temperature
   TEBEG  =    0.0;   TEEND  =   0.0 temperature during run
   SMASS  =  -3.00    Nose mass-parameter (am)
   estimated Nose-frequenzy (Omega)   =  0.10E-29 period in steps =****** mass=  -0.296E-27a.u.
   SCALEE = 1.0000    scale energy and forces
   NPACO  =    256;   APACO  = 16.0  distance and # of slots for P.C.
   PSTRESS=    0.0 pullay stress

  Mass of Ions in am
   POMASS =  39.95
  Ionic Valenz
   ZVAL   =   8.00
  Atomic Wigner-Seitz radii
  virtual crystal weights
   VCA    =   1.00
   NELECT =       8.0000    total number of electrons
   NUPDOWN=      -1.0000    fix difference up-down

 DOS related values:
   EMIN   =  10.00;   EMAX   =-10.00  energy-range for DOS
   EFERMI =   0.00
   ISMEAR =     0;   SIGMA  =   0.00  broadening in eV -4-tet -1-fermi 0-gaus

 Electronic relaxation 2 (details)
   IALGO  =     38    algorithm
   LDIAG  =      T    sub-space diagonalisation (order eigenvalues)
   LSUBROT=      F    optimize rotation matrix (better conditioning)
   TURBO    =      0    0=normal 1=particle mesh
   IRESTART =      0    0=no restart 2=restart with 2 vectors
   NREBOOT  =      0    no. of reboots
[...]
   21.164679   -0.185480   -0.185480   -0.185481   -0.000001   -0.000000   -0.000000
   21.596611   -0.734564   -0.734562   -0.734568   -0.000001    0.000002    0.000001
   22.028543   -0.333615   -0.333616   -0.333615    0.000003    0.000001    0.000001
   22.460475   -0.428407   -0.428409   -0.428411   -0.000001   -0.000001   -0.000001
   22.892408   -0.130560   -0.130561   -0.130561   -0.000000   -0.000000   -0.000001
   23.324340    0.023465    0.023465    0.023464    0.000000   -0.000000   -0.000000
   23.756272    0.129481    0.129481    0.129480    0.000000    0.000000   -0.000000
   24.188204    0.210632    0.210631    0.210631    0.000000    0.000000   -0.000000
   24.620137    0.276206    0.276206    0.276205    0.000000    0.000000   -0.000000
   25.052069    0.331028    0.331028    0.331028    0.000000    0.000000   -0.000000
   25.484001    0.377848    0.377848    0.377847    0.000000    0.000000   -0.000000
[...]
   36.714239    0.793379    0.793379    0.793379    0.000000    0.000000   -0.000000
   37.146171    0.799542    0.799542    0.799542    0.000000    0.000000   -0.000000
   37.578103    0.805372    0.805372    0.805372    0.000000    0.000000   -0.000000
   38.010035    0.810911    0.810911    0.810911    0.000000    0.000000   -0.000000
   38.441968    0.816187    0.816187    0.816187    0.000000    0.000000   -0.000000
   38.873900    0.821221    0.821221    0.821221    0.000000    0.000000   -0.000000
   39.305832    0.826031    0.826031    0.826031    0.000000    0.000000   -0.000000
   39.737764    0.830632    0.830632    0.830632    0.000000    0.000000   -0.000000
   40.169697    0.835039    0.835039    0.835039    0.000000    0.000000   -0.000000
   40.601629    0.839262    0.839262    0.839262    0.000000    0.000000   -0.000000
   41.033561    0.843314    0.843314    0.843314    0.000000    0.000000   -0.000000
   41.465493    0.847204    0.847204    0.847204    0.000000    0.000000   -0.000000
   41.897425    0.850941    0.850941    0.850941    0.000000    0.000000   -0.000000
   42.329358    0.854535    0.854535    0.854535    0.000000    0.000000   -0.000000
   42.761290    0.857992    0.857992    0.857992    0.000000    0.000000   -0.000000

  frequency dependent IMAGINARY DIELECTRIC FUNCTION (independent particle, no local field effects) current-current (2nd set in vasprun.xml)
     E(ev)      X         Y         Z        XY        YZ        ZX
    0.000000    4.458868    4.458868    4.458868    0.000017   -0.000007    0.000037
    0.431932    0.446720    0.446720    0.446720    0.000002   -0.000001    0.000004
    0.863864    0.224630    0.224630    0.224631    0.000001   -0.000000    0.000002
    1.295797    0.151184    0.151184    0.151184    0.000001   -0.000000    0.000001
    1.727729    0.114920    0.114920    0.114920    0.000000   -0.000000    0.000001
    2.159661    0.093555    0.093555    0.093555    0.000000   -0.000000    0.000001
    2.591593    0.079668    0.079668    0.079668    0.000000   -0.000000    0.000001
    3.023526    0.070089    0.070089    0.070089    0.000000   -0.000000    0.000001
    3.455458    0.063240    0.063240    0.063240    0.000000   -0.000000    0.000000
    3.887390    0.058257    0.058257    0.058257    0.000000   -0.000000    0.000000
    4.319322    0.054633    0.054633    0.054633    0.000000   -0.000000    0.000000
    4.751254    0.052062    0.052062    0.052062    0.000000   -0.000000    0.000000
    5.183187    0.050362    0.050362    0.050362    0.000000   -0.000000    0.000000
    5.615119    0.049434    0.049434    0.049434    0.000000   -0.000000    0.000000
    6.047051    0.049252    0.049252    0.049252    0.000000   -0.000000    0.000000
    6.478983    0.049862    0.049862    0.049862    0.000000   -0.000000    0.000000
    6.910916    0.051413    0.051413    0.051413    0.000000   -0.000000    0.000000
    7.342848    0.054245    0.054245    0.054245    0.000000    0.000000    0.000000
    7.774780    0.059182    0.059182    0.059182    0.000000    0.000000    0.000000
    8.206712    0.069036    0.069036    0.069036    0.000000    0.000000    0.000000
    8.638644    0.119436    0.119436    0.119436    0.000000    0.000000    0.000000
    9.070577    0.155665    0.155665    0.155665    0.000000    0.000000    0.000000
    9.502509    0.678159    0.678159    0.678159    0.000001    0.000000    0.000001
    9.934441    0.373384    0.373384    0.373384    0.000001    0.000000    0.000001
   10.366373    0.639862    0.639862    0.639862    0.000000    0.000000    0.000001
   10.798306    1.578977    1.578978    1.578979    0.000000    0.000001    0.000000
   11.230238    0.517221    0.517221    0.517221    0.000001    0.000001    0.000002
   11.662170    1.937025    1.937025    1.937026    0.000001    0.000001    0.000001
   12.094102    3.057739    3.057737    3.057737    0.000014    0.000010    0.000014
   12.526034    1.909260    1.909258    1.909259    0.000003    0.000002    0.000005
   12.957967    2.517026    2.517026    2.517026    0.000004    0.000003    0.000004
   13.389899    2.552105    2.552104    2.552104    0.000002    0.000000    0.000002
   13.821831    3.352924    3.352926    3.352925    0.000003   -0.000002   -0.000001
   14.253763    2.642923    2.642923    2.642923    0.000001   -0.000002    0.000002
   14.685696    2.694686    2.694682    2.694683    0.000001    0.000000    0.000003
   15.117628    3.781545    3.781545    3.781545    0.000001   -0.000000    0.000001
   15.549560    3.061557    3.061554    3.061554   -0.000004    0.000002   -0.000003
   15.981492    2.085954    2.085954    2.085954    0.000001   -0.000000    0.000001
   16.413424    2.602994    2.602994    2.602994   -0.000002    0.000000   -0.000002
   16.845357    1.717438    1.717438    1.717438   -0.000001   -0.000000    0.000000
   17.277289    1.825480    1.825480    1.825480    0.000000   -0.000000    0.000000
   17.709221    1.196245    1.196245    1.196245    0.000000   -0.000000    0.000000
   18.141153    2.148166    2.148167    2.148167   -0.000000   -0.000000    0.000000
   18.573085    0.927255    0.927255    0.927255   -0.000002    0.000000   -0.000001
   19.005018    0.696944    0.696943    0.696943    0.000000   -0.000000    0.000001
   19.436950    1.460817    1.460818    1.460818   -0.000001   -0.000000   -0.000000
   19.868882    1.213268    1.213268    1.213268   -0.000000   -0.000000    0.000000
   20.300814    1.292986    1.292986    1.292986   -0.000000   -0.000000    0.000000
   20.732747    0.960808    0.960808    0.960810   -0.000001   -0.000000    0.000002
   21.164679    0.981681    0.981682    0.981682    0.000000   -0.000001   -0.000001
   21.596611    0.719794    0.719798    0.719799   -0.000008   -0.000008    0.000002
   22.028543    0.541581    0.541583    0.541583   -0.000000    0.000003   -0.000003
   22.460475    0.146784    0.146785    0.146786    0.000001    0.000000    0.000003
   22.892408    0.036177    0.036177    0.036177    0.000000    0.000000    0.000000
   23.324340    0.020457    0.020457    0.020457   -0.000000    0.000000   -0.000000
   23.756272    0.013885    0.013885    0.013885   -0.000000    0.000000   -0.000000
   24.188204    0.010240    0.010240    0.010240   -0.000000    0.000000   -0.000000
   24.620137    0.007933    0.007933    0.007933   -0.000000    0.000000   -0.000000
   25.052069    0.006379    0.006379    0.006379   -0.000000    0.000000   -0.000000
   25.484001    0.005432    0.005433    0.005433   -0.000000    0.000000   -0.000000
[...]
   36.714239    0.000345    0.000345    0.000345    0.000000    0.000000   -0.000000
   37.146171    0.000307    0.000307    0.000307    0.000000    0.000000   -0.000000
   37.578103    0.000279    0.000279    0.000279    0.000000    0.000000   -0.000000
   38.010035    0.000256    0.000256    0.000256    0.000000    0.000000   -0.000000
   38.441968    0.000236    0.000236    0.000236    0.000000    0.000000   -0.000000
   38.873900    0.000219    0.000219    0.000219   -0.000000    0.000000   -0.000000
   39.305832    0.000204    0.000204    0.000204   -0.000000    0.000000   -0.000000
   39.737764    0.000190    0.000190    0.000190   -0.000000    0.000000   -0.000000
   40.169697    0.000177    0.000177    0.000177   -0.000000    0.000000   -0.000000
   40.601629    0.000166    0.000166    0.000166   -0.000000    0.000000   -0.000000
   41.033561    0.000155    0.000155    0.000155   -0.000000    0.000000   -0.000000
   41.465493    0.000146    0.000146    0.000146   -0.000000    0.000000   -0.000000
   41.897425    0.000137    0.000137    0.000137   -0.000000    0.000000   -0.000000
   42.329358    0.000129    0.000129    0.000129   -0.000000    0.000000   -0.000000
   42.761290    0.000121    0.000121    0.000121   -0.000000    0.000000   -0.000000

  frequency dependent      REAL DIELECTRIC FUNCTION (independent particle, no local field effects) current-current (2nd set in vasprun.xml)
     E(ev)        X           Y           Z          XY          YZ          ZX
    0.000000    1.962761    1.962761    1.962761   -0.000000    0.000000    0.000000
    0.431932    1.963659    1.963659    1.963659   -0.000000    0.000000    0.000000
    0.863864    1.966394    1.966394    1.966394   -0.000000    0.000000    0.000000
    1.295797    1.970992    1.970992    1.970992   -0.000000    0.000000    0.000000
    1.727729    1.977516    1.977516    1.977516   -0.000000    0.000000    0.000000
    2.159661    1.986053    1.986053    1.986054   -0.000000    0.000000    0.000000
    2.591593    1.996727    1.996728    1.996728   -0.000000    0.000000    0.000000
    3.023526    2.009696    2.009696    2.009696   -0.000000    0.000000    0.000000
    3.455458    2.025162    2.025162    2.025162   -0.000000    0.000000    0.000000
    3.887390    2.043382    2.043382    2.043382   -0.000000    0.000000    0.000000
    4.319322    2.064683    2.064683    2.064684   -0.000000    0.000000    0.000000
    4.751254    2.089482    2.089482    2.089482   -0.000000    0.000000    0.000000
    5.183187    2.118313    2.118313    2.118313   -0.000000    0.000000    0.000000
    5.615119    2.151878    2.151878    2.151878   -0.000000    0.000000    0.000000
    6.047051    2.191118    2.191118    2.191118   -0.000000    0.000000    0.000000
    6.478983    2.237333    2.237333    2.237333   -0.000000    0.000000    0.000000
    6.910916    2.292404    2.292405    2.292405   -0.000000    0.000000    0.000000
    7.342848    2.359250    2.359250    2.359250   -0.000000    0.000000    0.000000
    7.774780    2.442926    2.442926    2.442926   -0.000000    0.000000    0.000000
    8.206712    2.554354    2.554354    2.554354   -0.000000    0.000000    0.000000
    8.638644    2.731677    2.731677    2.731677   -0.000000    0.000000   -0.000000
    9.070577    2.869527    2.869527    2.869528   -0.000000    0.000000   -0.000000
    9.502509    2.894117    2.894117    2.894117    0.000000    0.000000    0.000000
    9.934441    2.822018    2.822018    2.822018    0.000000    0.000000   -0.000000
   10.366373    3.189763    3.189763    3.189763    0.000000    0.000000    0.000000
   10.798306    3.392908    3.392906    3.392906    0.000001    0.000000    0.000001
   11.230238    3.317836    3.317836    3.317837   -0.000000   -0.000000   -0.000000
   11.662170    4.007998    4.007997    4.007997   -0.000003   -0.000003   -0.000003
   12.094102    2.496294    2.496293    2.496293   -0.000006   -0.000005   -0.000006
   12.526034    2.598995    2.598995    2.598995    0.000063    0.000048    0.000064
   12.957967    2.684759    2.684760    2.684760    0.000001    0.000001    0.000002
   13.389899    2.970813    2.970814    2.970814   -0.000001   -0.000000   -0.000001
   13.821831    1.158044    1.158044    1.158043   -0.000003    0.000006   -0.000003
   14.253763    0.935117    0.935118    0.935117    0.000001   -0.000001   -0.000000
   14.685696    2.030255    2.030254    2.030255    0.000001   -0.000000    0.000002
   15.117628    1.591257    1.591258    1.591258   -0.000000   -0.000000   -0.000000
   15.549560    0.206516    0.206511    0.206511    0.000006    0.000001    0.000005
   15.981492    0.660834    0.660835    0.660835   -0.000001   -0.000000   -0.000001
   16.413424   -0.472658   -0.472658   -0.472658    0.000008    0.000002    0.000007
   16.845357   -0.227167   -0.227166   -0.227166    0.000005   -0.000000    0.000004
   17.277289   -0.136050   -0.136049   -0.136049   -0.000000   -0.000000   -0.000000
   17.709221    0.190565    0.190565    0.190565   -0.000000   -0.000000    0.000000
   18.141153   -0.299317   -0.299317   -0.299316    0.000000    0.000000    0.000000
   18.573085   -0.515749   -0.515749   -0.515749    0.000001   -0.000000    0.000001
   19.005018    0.264290    0.264290    0.264291   -0.000000    0.000000    0.000000
   19.436950   -0.272995   -0.272995   -0.272995    0.000001   -0.000000    0.000001
   19.868882    0.036887    0.036887    0.036888   -0.000000   -0.000000   -0.000000
   20.300814    0.255199    0.255199    0.255200   -0.000000   -0.000000    0.000000
   20.732747   -0.365175   -0.365175   -0.365173    0.000001   -0.000002    0.000001
   21.164679   -0.194766   -0.194767   -0.194768   -0.000001   -0.000000   -0.000000
   21.596611   -0.741074   -0.741071   -0.741078   -0.000001    0.000002    0.000001
   22.028543   -0.338543   -0.338545   -0.338543    0.000003    0.000001    0.000001
   22.460475   -0.429479   -0.429481   -0.429483   -0.000001   -0.000001   -0.000001
   22.892408   -0.130757   -0.130758   -0.130759   -0.000000   -0.000000   -0.000001
   23.324340    0.023379    0.023378    0.023378    0.000000   -0.000000   -0.000000
   23.756272    0.129440    0.129440    0.129439    0.000000    0.000000   -0.000000
   24.188204    0.210615    0.210614    0.210614    0.000000    0.000000   -0.000000
   24.620137    0.276204    0.276203    0.276203    0.000000    0.000000   -0.000000
   25.052069    0.331035    0.331035    0.331035    0.000000    0.000000   -0.000000
   25.484001    0.377859    0.377859    0.377859    0.000000    0.000000   -0.000000
[...]
   36.714239    0.793400    0.793400    0.793400    0.000000    0.000000   -0.000000
   37.146171    0.799563    0.799563    0.799563    0.000000    0.000000   -0.000000
   37.578103    0.805392    0.805392    0.805392    0.000000    0.000000   -0.000000
   38.010035    0.810931    0.810931    0.810931    0.000000    0.000000   -0.000000
   38.441968    0.816206    0.816206    0.816206    0.000000    0.000000   -0.000000
   38.873900    0.821240    0.821240    0.821240    0.000000    0.000000   -0.000000
   39.305832    0.826049    0.826049    0.826049    0.000000    0.000000   -0.000000
   39.737764    0.830651    0.830650    0.830650    0.000000    0.000000   -0.000000
   40.169697    0.835057    0.835057    0.835057    0.000000    0.000000   -0.000000
   40.601629    0.839280    0.839280    0.839280    0.000000    0.000000   -0.000000
   41.033561    0.843331    0.843331    0.843331    0.000000    0.000000   -0.000000
   41.465493    0.847221    0.847221    0.847221    0.000000    0.000000   -0.000000
   41.897425    0.850958    0.850958    0.850958    0.000000    0.000000   -0.000000
   42.329358    0.854551    0.854551    0.854551    0.000000    0.000000   -0.000000
   42.761290    0.858008    0.858008    0.858008    0.000000    0.000000   -0.000000

 The outermost node in the dielectric function lies at epsilon=  23.3

 Spin-Orbit-Coupling matrix elements

 Ion:    1  E_soc:     -0.0049059
 l=   1
     0.0000000    -0.0008176    -0.0008176
    -0.0008176     0.0000000    -0.0008176
    -0.0008176    -0.0008176     0.0000000
 l=   2
     0.0000000    -0.0000000     0.0000000    -0.0000000    -0.0000000
    -0.0000000     0.0000000    -0.0000000    -0.0000000    -0.0000000
     0.0000000    -0.0000000     0.0000000    -0.0000000     0.0000000
    -0.0000000    -0.0000000    -0.0000000     0.0000000    -0.0000000
    -0.0000000    -0.0000000     0.0000000    -0.0000000     0.0000000
 l=   3
     0.0000000     0.0000000     0.0000000     0.0000000     0.0000000     0.0000000     0.0000000
     0.0000000     0.0000000     0.0000000     0.0000000     0.0000000     0.0000000     0.0000000
     0.0000000     0.0000000     0.0000000     0.0000000     0.0000000     0.0000000     0.0000000
     0.0000000     0.0000000     0.0000000     0.0000000     0.0000000     0.0000000     0.0000000
     0.0000000     0.0000000     0.0000000     0.0000000     0.0000000     0.0000000     0.0000000
     0.0000000     0.0000000     0.0000000     0.0000000     0.0000000     0.0000000     0.0000000
     0.0000000     0.0000000     0.0000000     0.0000000     0.0000000     0.0000000     0.0000000