 vasp.5.4.4.18Apr17-6-g9f103f2a35 (build Jul 09 2018 16:43:14) complex

 executed on             LinuxIFC date 2018.11.23  02:21:03

 INCAR:
 POTCAR:    PAW Og, JanMewes Oct 18

 POTCAR:    PAW Og, JanMewes Oct 18
   VRHFIN =Og : 10d 2s 6p, PE

   TITEL  = PAW Og, JanMewes Oct 18
   POMASS =    0.010; ZVAL   =   18.000    mass and valenz
   ENMAX  =  339.336; ENMIN  =  254.502 eV
   QCUT   =   -4.994; QGAM   =    9.988    optimization parameters

  PAW Og, JanMewes Oct 18               :

 POSCAR: Og_FCC
  positions in direct lattice
  velocities in cartesian coordinates
 exchange correlation table for  LEXCH =       14
   RHO(1)=    0.500       N(1)  =     2000
   RHO(2)=  100.500       N(2)  =     4000

 ion  position               nearest neighbor table
   1  0.000  0.000  0.000-

  LATTYP: Found a face centered cubic cell.
 ALAT       =     6.1578096498

  Lattice vectors:

 A1 = (   4.3542289606,   0.0000000000,   0.0000000000)
 A2 = (   2.1771144803,   3.7708728937,  -0.0000000000)
 A3 = (   2.1771144803,   1.2569576312,   3.5552130590)

Analysis of symmetry for initial positions (statically):
 Subroutine PRICEL returns:
 Original cell was already a primitive cell.

 Routine SETGRP: Setting up the symmetry group for a
 face centered cubic supercell.

 Subroutine GETGRP returns: Found 48 space group operations
 (whereof 48 operations were pure point group operations)
 out of a pool of 48 trial point group operations.

The static configuration has the point symmetry O_h .

Analysis of symmetry for dynamics (positions and initial velocities):
 Subroutine PRICEL returns:
 Original cell was already a primitive cell.

[...]

The dynamic configuration has the point symmetry O_h .

Analysis of structural, dynamic, and magnetic symmetry:
 Subroutine PRICEL returns:
 Original cell was already a primitive cell.

 Routine SETGRP: Setting up the symmetry group for a
 face centered cubic supercell.

 Subroutine GETGRP returns: Found  2 space group operations
 (whereof  2 operations were pure point group operations)
 out of a pool of 48 trial point group operations.

The (compounded) configuration has the point symmetry S_2 .

 Subroutine INISYM returns: Found  2 space group operations
 (whereof  2 operations are pure point group operations),
 and found     1 'primitive' translations

Automatic generation of k-mesh.
 generate k-points for:    9    9    9
Space group operators:
 irot       det(A)        alpha          n_x          n_y          n_z        tau_x        tau_y        tau_z
    1     1.000000     0.000000     1.000000     0.000000     0.000000     0.000000     0.000000     0.000000
    2    -1.000000     0.000000     1.000000     0.000000     0.000000     0.000000     0.000000     0.000000

 Subroutine IBZKPT returns following result:

 Found    365 irreducible k-points:

 Following reciprocal coordinates:
            Coordinates               Weight
  0.000000  0.000000  0.000000      1.000000
  0.111111  0.000000  0.000000      2.000000
  0.222222  0.000000  0.000000      2.000000
  0.333333  0.000000 -0.000000      2.000000
  0.444444  0.000000  0.000000      2.000000
  0.000000  0.111111 -0.000000      2.000000
  0.111111  0.111111 -0.000000      2.000000
  0.222222  0.111111  0.000000      2.000000
  0.333333  0.111111  0.000000      2.000000
  0.444444  0.111111 -0.000000      2.000000
 -0.444444  0.111111 -0.000000      2.000000
 -0.333333  0.111111 -0.000000      2.000000
 -0.222222  0.111111 -0.000000      2.000000
 -0.111111  0.111111 -0.000000      2.000000
 -0.000000  0.222222 -0.000000      2.000000
  0.111111  0.222222 -0.000000      2.000000
  0.222222  0.222222  0.000000      2.000000
  0.333333  0.222222  0.000000      2.000000
  0.444444  0.222222  0.000000      2.000000
 -0.444444  0.222222 -0.000000      2.000000
 -0.333333  0.222222  0.000000      2.000000
 -0.222222  0.222222 -0.000000      2.000000
 -0.111111  0.222222 -0.000000      2.000000
 -0.000000  0.333333  0.000000      2.000000
  0.111111  0.333333 -0.000000      2.000000
  0.222222  0.333333  0.000000      2.000000
  0.333333  0.333333  0.000000      2.000000
  0.444444  0.333333 -0.000000      2.000000
 -0.444444  0.333333 -0.000000      2.000000
 -0.333333  0.333333 -0.000000      2.000000
 -0.222222  0.333333 -0.000000      2.000000
 -0.111111  0.333333  0.000000      2.000000
 -0.000000  0.444444 -0.000000      2.000000
  0.111111  0.444444 -0.000000      2.000000
  0.222222  0.444444 -0.000000      2.000000
  0.333333  0.444444 -0.000000      2.000000
  0.444444  0.444444  0.000000      2.000000
 -0.444444  0.444444 -0.000000      2.000000
 -0.333333  0.444444  0.000000      2.000000
 -0.222222  0.444444  0.000000      2.000000
 -0.111111  0.444444  0.000000      2.000000
 -0.000000 -0.000000  0.111111      2.000000
  0.111111  0.000000  0.111111      2.000000
  0.222222  0.000000  0.111111      2.000000
  0.333333  0.000000  0.111111      2.000000
  0.444444  0.000000  0.111111      2.000000
 -0.444444 -0.000000  0.111111      2.000000
 -0.333333 -0.000000  0.111111      2.000000
 -0.222222 -0.000000  0.111111      2.000000
 -0.111111 -0.000000  0.111111      2.000000
 -0.000000  0.111111  0.111111      2.000000
  0.111111  0.111111  0.111111      2.000000
  0.222222  0.111111  0.111111      2.000000
  0.333333  0.111111  0.111111      2.000000
  0.444444  0.111111  0.111111      2.000000
 -0.444444  0.111111  0.111111      2.000000
 -0.333333  0.111111  0.111111      2.000000
 -0.222222  0.111111  0.111111      2.000000
 -0.111111  0.111111  0.111111      2.000000
 -0.000000  0.222222  0.111111      2.000000
[...]
  0.333333 -0.222222  0.444444      2.000000
  0.444444 -0.222222  0.444444      2.000000
 -0.444444 -0.222222  0.444444      2.000000
 -0.333333 -0.222222  0.444444      2.000000
 -0.222222 -0.222222  0.444444      2.000000
 -0.111111 -0.222222  0.444444      2.000000
 -0.000000 -0.111111  0.444444      2.000000
  0.111111 -0.111111  0.444444      2.000000
  0.222222 -0.111111  0.444444      2.000000
  0.333333 -0.111111  0.444444      2.000000
  0.444444 -0.111111  0.444444      2.000000
 -0.444444 -0.111111  0.444444      2.000000
 -0.333333 -0.111111  0.444444      2.000000
 -0.222222 -0.111111  0.444444      2.000000
 -0.111111 -0.111111  0.444444      2.000000

 Following cartesian coordinates:
            Coordinates               Weight
  0.000000  0.000000  0.000000      1.000000
  0.025518 -0.014733 -0.010418      2.000000
  0.051036 -0.029466 -0.020835      2.000000
  0.076554 -0.044198 -0.031253      2.000000
  0.102072 -0.058931 -0.041671      2.000000
  0.000000  0.029466 -0.010418      2.000000
  0.025518  0.014733 -0.020835      2.000000
  0.051036 -0.000000 -0.031253      2.000000
  0.076554 -0.014733 -0.041671      2.000000
  0.102072 -0.029466 -0.052088      2.000000
 -0.102072  0.088397  0.031253      2.000000
 -0.076554  0.073664  0.020835      2.000000
 -0.051036  0.058931  0.010418      2.000000
 -0.025518  0.044198 -0.000000      2.000000
  0.000000  0.058931 -0.020835      2.000000
  0.025518  0.044198 -0.031253      2.000000
  0.051036  0.029466 -0.041671      2.000000
  0.076554  0.014733 -0.052088      2.000000
  0.102072  0.000000 -0.062506      2.000000
 -0.102072  0.117862  0.020835      2.000000
 -0.076554  0.103130  0.010418      2.000000
 -0.051036  0.088397  0.000000      2.000000
 -0.025518  0.073664 -0.010418      2.000000
  0.000000  0.088397 -0.031253      2.000000
  0.025518  0.073664 -0.041671      2.000000
  0.051036  0.058931 -0.052088      2.000000
  0.076554  0.044198 -0.062506      2.000000
  0.102072  0.029466 -0.072924      2.000000
 -0.102072  0.147328  0.010418      2.000000
 -0.076554  0.132595  0.000000      2.000000
 -0.051036  0.117862 -0.010418      2.000000
 -0.025518  0.103130 -0.020835      2.000000
  0.000000  0.117862 -0.041671      2.000000
  0.025518  0.103130 -0.052088      2.000000
  0.051036  0.088397 -0.062506      2.000000
  0.076554  0.073664 -0.072924      2.000000
  0.102072  0.058931 -0.083341      2.000000
 -0.102072  0.176794  0.000000      2.000000
 -0.076554  0.162061 -0.010418      2.000000
 -0.051036  0.147328 -0.020835      2.000000
 -0.025518  0.132595 -0.031253      2.000000
 -0.000000  0.000000  0.031253      2.000000
  0.025518 -0.014733  0.020835      2.000000
  0.051036 -0.029466  0.010418      2.000000
  0.076554 -0.044198 -0.000000      2.000000
  0.102072 -0.058931 -0.010418      2.000000
 -0.102072  0.058931  0.072924      2.000000
 -0.076554  0.044198  0.062506      2.000000
 -0.051036  0.029466  0.052088      2.000000
 -0.025518  0.014733  0.041671      2.000000
 -0.000000  0.029466  0.020835      2.000000
  0.025518  0.014733  0.010418      2.000000
  0.051036 -0.000000 -0.000000      2.000000
  0.076554 -0.014733 -0.010418      2.000000
  0.102072 -0.029466 -0.020835      2.000000
 -0.102072  0.088397  0.062506      2.000000
 -0.076554  0.073664  0.052088      2.000000
 -0.051036  0.058931  0.041671      2.000000
 -0.025518  0.044198  0.031253      2.000000
 -0.000000  0.058931  0.010418      2.000000
[...]
  0.076554 -0.103130  0.114594      2.000000
  0.102072 -0.117862  0.104177      2.000000
 -0.102072  0.000000  0.187518      2.000000
 -0.076554 -0.014733  0.177100      2.000000
 -0.051036 -0.029466  0.166683      2.000000
 -0.025518 -0.044198  0.156265      2.000000
 -0.000000 -0.029466  0.135430      2.000000
  0.025518 -0.044198  0.125012      2.000000
  0.051036 -0.058931  0.114594      2.000000
  0.076554 -0.073664  0.104177      2.000000
  0.102072 -0.088397  0.093759      2.000000
 -0.102072  0.029466  0.177100      2.000000
 -0.076554  0.014733  0.166683      2.000000
 -0.051036  0.000000  0.156265      2.000000
 -0.025518 -0.014733  0.145847      2.000000

 SYSTEM =  Og_FCC
 POSCAR =  Og_FCC

 Startparameter for this run:
   NWRITE =      2    write-flag & timer
   PREC   = accura    normal or accurate (medium, high low for compatibility)
   ISTART =      0    job   : 0-new  1-cont  2-samecut
   ICHARG =      2    charge: 1-file 2-atom 10-const
   ISPIN  =      1    spin polarized calculation?
   LNONCOLLINEAR =      T non collinear calculations
   LSORBIT =      T    spin-orbit coupling
   INIWAV =      1    electr: 0-lowe 1-rand  2-diag
   LASPH  =      F    aspherical Exc in radial PAW
   METAGGA=      F    non-selfconsistent MetaGGA calc.

 Electronic Relaxation 1
   ENCUT  =  600.0 eV  44.10 Ry    6.64 a.u.   8.70  8.70  8.70*2*pi/ulx,y,z
   ENINI  =  600.0     initial cutoff
   ENAUG  =  361.0 eV  augmentation charge cutoff
   NELM   =    100;   NELMIN=  5; NELMDL= -5     # of ELM steps
   EDIFF  = 0.1E-06   stopping-criterion for ELM
   LREAL  =      F    real-space projection
   NLSPLINE    = F    spline interpolate recip. space projectors
   LCOMPAT=      F    compatible to vasp.4.4
   GGA_COMPAT  = F    GGA compatible to vasp.4.4-vasp.4.6
   LMAXPAW     = -100 max onsite density
   LMAXMIX     =    2 max onsite mixed and CHGCAR
   VOSKOWN=      0    Vosko Wilk Nusair interpolation
   ROPT   =    0.00000
 Ionic relaxation
   EDIFFG = 0.1E-04   stopping-criterion for IOM
   NSW    =    999    number of steps for IOM
[...]
 k-point ** :  -0.3333-0.0000 0.2222  plane waves:    3894
 k-point ** :  -0.2222-0.0000 0.2222  plane waves:    3898
 k-point ** :  -0.1111-0.0000 0.2222  plane waves:    3890
 k-point ** :  -0.0000 0.1111 0.2222  plane waves:    3910
 k-point ** :   0.1111 0.1111 0.2222  plane waves:    3898
 k-point ** :   0.2222 0.1111 0.2222  plane waves:    3910
 k-point ** :   0.3333 0.1111 0.2222  plane waves:    3902
 k-point ** :   0.4444 0.1111 0.2222  plane waves:    3892
 k-point ** :  -0.4444 0.1111 0.2222  plane waves:    3898
 k-point ** :  -0.3333 0.1111 0.2222  plane waves:    3898
 k-point ** :  -0.2222 0.1111 0.2222  plane waves:    3892
 k-point ** :  -0.1111 0.1111 0.2222  plane waves:    3902
 k-point ** :   0.0000 0.2222 0.2222  plane waves:    3928
 k-point ** :   0.1111 0.2222 0.2222  plane waves:    3910
 k-point ** :   0.2222 0.2222 0.2222  plane waves:    3898
 k-point ** :   0.3333 0.2222 0.2222  plane waves:    3890
 k-point ** :   0.4444 0.2222 0.2222  plane waves:    3898
 k-point ** :  -0.4444 0.2222 0.2222  plane waves:    3894
 k-point ** :  -0.3333 0.2222 0.2222  plane waves:    3912
 k-point ** :  -0.2222 0.2222 0.2222  plane waves:    3904
 k-point ** :  -0.1111 0.2222 0.2222  plane waves:    3904
 k-point ** :  -0.0000 0.3333 0.2222  plane waves:    3904
 k-point ** :   0.1111 0.3333 0.2222  plane waves:    3902
 k-point ** :   0.2222 0.3333 0.2222  plane waves:    3890
 k-point ** :   0.3333 0.3333 0.2222  plane waves:    3902
 k-point ** :   0.4444 0.3333 0.2222  plane waves:    3892
 k-point ** :  -0.4444 0.3333 0.2222  plane waves:    3884
 k-point ** :  -0.3333 0.3333 0.2222  plane waves:    3898
 k-point ** :  -0.2222 0.3333 0.2222  plane waves:    3898
 k-point ** :  -0.1111 0.3333 0.2222  plane waves:    3914
 k-point ** :  -0.0000 0.4444 0.2222  plane waves:    3904
[...]
 k-point ** :   0.3333-0.2222 0.4444  plane waves:    3874
 k-point ** :   0.4444-0.2222 0.4444  plane waves:    3874
 k-point ** :  -0.4444-0.2222 0.4444  plane waves:    3898
 k-point ** :  -0.3333-0.2222 0.4444  plane waves:    3884
 k-point ** :  -0.2222-0.2222 0.4444  plane waves:    3894
 k-point ** :  -0.1111-0.2222 0.4444  plane waves:    3898
 k-point ** :  -0.0000-0.1111 0.4444  plane waves:    3924
 k-point ** :   0.1111-0.1111 0.4444  plane waves:    3898
 k-point ** :   0.2222-0.1111 0.4444  plane waves:    3898
 k-point ** :   0.3333-0.1111 0.4444  plane waves:    3912
 k-point ** :   0.4444-0.1111 0.4444  plane waves:    3912
 k-point ** :  -0.4444-0.1111 0.4444  plane waves:    3912
 k-point ** :  -0.3333-0.1111 0.4444  plane waves:    3898
 k-point ** :  -0.2222-0.1111 0.4444  plane waves:    3898
 k-point ** :  -0.1111-0.1111 0.4444  plane waves:    3924

 maximum and minimum number of plane-waves per node :      1008      902

 maximum number of plane-waves:      3928
 maximum index in each direction:
   IXMAX=    9   IYMAX=    9   IZMAX=    8
   IXMIN=   -9   IYMIN=   -9   IZMIN=   -9

 parallel 3D FFT for wavefunctions:
    minimum data exchange during FFTs selected (reduces bandwidth)
 parallel 3D FFT for charge:
    minimum data exchange during FFTs selected (reduces bandwidth)

 Broyden mixing: mesh for mixing (old mesh)
   NGX = 17   NGY = 17   NGZ = 17
  (NGX  = 72   NGY  = 72   NGZ  = 72)
  gives a total of   4913 points

 initial charge density was supplied:
 charge density of overlapping atoms calculated
 number of electron      18.0000000 magnetization       1.0000000      1.0000000      1.0000000
 keeping initial charge density in first step

 Maximum index for augmentation-charges        93105 (set IRDMAX)

 First call to EWALD:  gamma=   0.457
 Maximum number of real-space cells 3x 3x 3
 Maximum number of reciprocal cells 3x 3x 3

--------------------------------------- Iteration      1(   1)  ---------------------------------------

 eigenvalue-minimisations  : 20968
 total energy-change (2. order) : 0.3073435E+03  (-0.9597254E+03)
 number of electron      18.0000000 magnetization       1.0000000      1.0000000      1.0000000
 augmentation part       18.0000000 magnetization       1.0000000      1.0000000      1.0000000

 Free energy of the ion-electron system (eV)
  alpha Z        PSCENC =        65.35893457
  Ewald energy   TEWEN  =     -1736.88515430
  -Hartree energ DENC   =      -663.01894307
  -exchange      EXHF   =         0.00000000
  -V(xc)+E(xc)   XCENC  =       -66.97878209
  PAW double counting   =      2266.13158641    -2183.94925607
  entropy T*S    EENTRO =        -0.00011666
  eigenvalues    EBANDS =       -15.33224916
  atomic energy  EATOM  =      2642.01744135
  Solvation  Ediel_sol  =         0.00000000
  free energy    TOTEN  =       307.34346099 eV

  energy without entropy =      307.34357765  energy(sigma->0) =      307.34349988

[...]

 eigenvalue-minimisations  : 26876
 total energy-change (2. order) :-0.3058532E+03  (-0.2963785E+03)
 number of electron      18.0000000 magnetization       1.0000000      1.0000000      1.0000000
 augmentation part       18.0000000 magnetization       1.0000000      1.0000000      1.0000000

[...]

 Broyden mixing:
  rms(total) = 0.63261E+00    rms(broyden)= 0.63257E+00
  rms(prec ) = 0.86770E+00
  weight for this iteration     100.00

[...]

 eigenvalues of (default mixing * dielectric matrix)
  average eigenvalue GAMMA=   0.7685
  0.7685

[...]

 average (electrostatic) potential at core
  the test charge radii are     1.2024
  (the norm of the test charge is              1.0000)
       1-109.8802

 E-fermi :   3.7398     XC(G=0):  -8.3775     alpha+bet : -7.5174

 k-point     1 :       0.0000    0.0000    0.0000
  band No.  band energies     occupation
      1     -30.6787      1.00000
      2     -30.6787      1.00000
      3     -30.6787      1.00000
      4     -30.6787      1.00000
      5     -23.9912      1.00000
      6     -23.9912      1.00000
      7     -23.9873      1.00000
      8     -23.9873      1.00000
      9     -23.9873      1.00000
     10     -23.9873      1.00000
     11     -20.4160      1.00000
     12     -20.4160      1.00000
     13      -7.1680      1.00000
     14      -7.1680      1.00000
     15       3.4294      1.00005
     16       3.4294      1.00005
     17       3.7349      0.54094
     18       3.7349      0.54093
     19       3.7349      0.54092
     20       3.7349      0.54092
     21      10.6111      0.00000
     22      10.6111      0.00000
     23      10.6111      0.00000
     24      10.6111      0.00000
     25      10.8404      0.00000
     26      10.8405      0.00000
     27      11.0293      0.00000
     28      11.0306      0.00000

[...]

 soft charge-density along one line, spin component           1
         0         1         2         3         4         5         6         7         8         9
 total charge-density along one line

[...]

------------------------ aborting loop because EDIFF is reached ----------------------------------------

  FORCE on cell =-STRESS in cart. coord.  units (eV):
  Direction    XX          YY          ZZ          XY          YZ          ZX
  Alpha Z    65.35893    65.35893    65.35893
  Ewald    -578.96174  -578.96174  -578.96174    -0.00000    -0.00000    -0.00000
  Hartree   225.01210   225.01210   225.01210    -0.00000    -0.00000    -0.00000
  E(xc)    -110.14479  -110.14479  -110.14479    -0.00000    -0.00000    -0.00000
  Local    -168.11764  -168.11765  -168.11764     0.00002     0.00001     0.00001
  n-local    95.73903    95.73904    95.73903     0.00001     0.00001     0.00001
  augment    73.91446    73.91447    73.91447    -0.00000    -0.00000    -0.00000
  Kinetic   397.20829   397.20829   397.20829    -0.00000    -0.00000    -0.00001
  Fock        0.00000     0.00000     0.00000     0.00000     0.00000     0.00000
  Total       0.00864     0.00865     0.00865     0.00002     0.00001     0.00001
  in kB       0.23716     0.23731     0.23745     0.00050     0.00041     0.00034

 VOLUME and BASIS-vectors are now :
  energy-cutoff  :      600.00
  volume of cell :       58.37
      direct lattice vectors                 reciprocal lattice vectors
     4.354228961  0.000000000  0.000000000     0.229661786 -0.132595294 -0.093759032
     2.177114480  3.770872894 -0.000000000     0.000000000  0.265190588 -0.093759032
     2.177114480  1.256957631  3.555213059    -0.000000000  0.000000000  0.281277095

[...]

 FORCES acting on ions
    electron-ion (+dipol)            ewald-force                    non-local-force                 convergence-correction
   0.147E-13 0.329E-13 -.741E-14   -.544E-14 0.232E-15 0.198E-15   0.424E-21 0.212E-21 0.000E+00   -.120E-12 -.540E-14 -.617E-13
   0.147E-13 0.329E-13 -.741E-14   -.544E-14 0.232E-15 0.198E-15   0.424E-21 0.212E-21 0.000E+00   -.120E-12 -.540E-14 -.617E-13

 POSITION                                       TOTAL-FORCE (eV/Angst)
      0.00000      0.00000      0.00000         0.000000      0.000000      0.000000
    total drift:                               -0.000000      0.000000     -0.000000

  FREE ENERGIE OF THE ION-ELECTRON SYSTEM (eV)
  free  energy   TOTEN  =       -13.59484965 eV

  energy  without entropy=      -13.59482494  energy(sigma->0) =      -13.59484141

 Quasi-Newton relaxation of ions (Broydens 2nd method)
  g(Force)  = 0.000E+00   g(Stress)= 0.216E-05

 Reset! Starting new Quasi-Newton update for ions

[...]

 eigenvalue-minimisations  : 26492
 total energy-change (2. order) :-0.2002225E-04  (-0.6144575E-04)
 number of electron      18.0000000 magnetization      -0.0000347     -0.0000361     -0.0000342
 augmentation part        2.7944421 magnetization      -0.0000346     -0.0000360     -0.0000343

[...]

 Broyden mixing:
  rms(total) = 0.56974E-04    rms(broyden)= 0.56966E-04
  rms(prec ) = 0.15850E-03
  weight for this iteration     100.00

 eigenvalues of (default mixing * dielectric matrix)
  average eigenvalue GAMMA=   1.4295
  3.2675  3.1011  2.5810  2.4042  1.6441  1.2260  1.2260  0.9258  0.8668  0.8668
  0.7362  0.6964  0.6214  0.6452  0.6339

[...]

--------------------------------------- Iteration      2(   5)  ---------------------------------------

 eigenvalue-minimisations  : 16691
 total energy-change (2. order) : 0.5910260E-07  (-0.2521454E-07)
 number of electron      18.0000000 magnetization       0.0000034      0.0000033      0.0000034
 augmentation part        2.7936612 magnetization       0.0000022      0.0000022      0.0000024

 Free energy of the ion-electron system (eV)
  alpha Z        PSCENC =        65.34258032
  Ewald energy   TEWEN  =     -1736.74027323
  -Hartree energ DENC   =      -675.12849294
  -exchange      EXHF   =         0.00000000
  -V(xc)+E(xc)   XCENC  =       -66.67057795
  PAW double counting   =      2310.50979464    -2237.10611519
  entropy T*S    EENTRO =        -0.00002474
  eigenvalues    EBANDS =      -315.81918320
  atomic energy  EATOM  =      2642.01744135
  Solvation  Ediel_sol  =         0.00000000
  free energy    TOTEN  =       -13.59485093 eV

  energy without entropy =      -13.59482619  energy(sigma->0) =      -13.59484268

 average (electrostatic) potential at core
  the test charge radii are     1.2024
  (the norm of the test charge is              1.0000)
       1-109.8820

 E-fermi :   3.7371     XC(G=0):  -8.3763     alpha+bet : -7.5155

[...]

 k-point   365 :      -0.1111   -0.1111    0.4444
  band No.  band energies     occupation
      1     -30.6798      1.00000
      2     -30.6798      1.00000
      3     -30.6777      1.00000
      4     -30.6777      1.00000
      5     -23.9911      1.00000
      6     -23.9911      1.00000
      7     -23.9848      1.00000
      8     -23.9848      1.00000
      9     -23.9820      1.00000
     10     -23.9820      1.00000
     11     -20.3053      1.00000
     12     -20.3053      1.00000
     13      -7.5369      1.00000
     14      -7.5369      1.00000
     15       0.5176      1.00000
     16       0.5176      1.00000
     17       2.7817      1.00000
     18       2.7817      1.00000
     19       6.4688      0.00000
     20       6.4688      0.00000
     21       9.0293      0.00000
     22       9.0293      0.00000
     23      10.4260      0.00000
     24      10.4260      0.00000
     25      11.2725      0.00000
     26      11.2725      0.00000
     27      12.2007      0.00000
     28      12.2007      0.00000

[...]

 soft charge-density along one line, spin component           4
         0         1         2         3         4         5         6         7         8         9
 total charge-density along one line

------------------------ aborting loop because EDIFF is reached ----------------------------------------

  FORCE on cell =-STRESS in cart. coord.  units (eV):
  Direction    XX          YY          ZZ          XY          YZ          ZX
  Alpha Z    65.34258    65.34258    65.34258
  Ewald    -578.91344  -578.91344  -578.91344    -0.00000    -0.00000     0.00000
  Hartree   225.04281   225.04281   225.04281    -0.00000     0.00000    -0.00000
  E(xc)    -110.14454  -110.14454  -110.14454     0.00000     0.00000     0.00000
  Local    -168.18104  -168.18105  -168.18105     0.00001     0.00000     0.00001
  n-local    95.73611    95.73612    95.73612    -0.00000     0.00000    -0.00001
  augment    73.91426    73.91427    73.91427    -0.00001    -0.00000    -0.00000
  Kinetic   397.20718   397.20718   397.20718    -0.00000    -0.00000    -0.00000
  Fock        0.00000     0.00000     0.00000     0.00000     0.00000     0.00000
  Total       0.00393     0.00392     0.00392    -0.00000    -0.00000     0.00000
  in kB       0.10775     0.10764     0.10761    -0.00002    -0.00008     0.00005

 VOLUME and BASIS-vectors are now :
  energy-cutoff  :      600.00
  volume of cell :       58.39
      direct lattice vectors                 reciprocal lattice vectors
     4.354592196  0.000000000  0.000000000     0.229642629 -0.132584234 -0.093751211
     2.177296098  3.771187465 -0.000000000     0.000000000  0.265168467 -0.093751211
     2.177296098  1.257062488  3.555509639    -0.000000000  0.000000000  0.281253632

  length of vectors
     4.354592196  4.354592196  4.354592196     0.281253632  0.281253632  0.281253632

 FORCES acting on ions
    electron-ion (+dipol)            ewald-force                    non-local-force                 convergence-correction
   0.107E-13 0.373E-13 -.700E-14   -.592E-15 -.526E-15 0.166E-14   0.847E-21 0.212E-21 0.000E+00   0.199E-13 0.173E-13 0.302E-13
   0.107E-13 0.373E-13 -.700E-14   -.592E-15 -.526E-15 0.166E-14   0.847E-21 0.212E-21 0.000E+00   0.199E-13 0.173E-13 0.302E-13

 POSITION                                       TOTAL-FORCE (eV/Angst)
      0.00000      0.00000      0.00000         0.000000     -0.000000      0.000000
    total drift:                                0.000000      0.000000      0.000000

  FREE ENERGIE OF THE ION-ELECTRON SYSTEM (eV)
  free  energy   TOTEN  =       -13.59485093 eV

  energy  without entropy=      -13.59482619  energy(sigma->0) =      -13.59484268

 d Force = 0.0000000E+00[ 0.000E+00, 0.000E+00]  d Energy = 0.1276737E-05-0.128E-05
 d Force = 0.0000000E+00[ 0.000E+00, 0.000E+00]  d Ewald  =-0.1448811E+00 0.145E+00

 Quasi-Newton relaxation of ions (Broydens 2nd method)
  g(Force)  = 0.000E+00   g(Stress)= 0.446E-06

 retain information from N=  1 steps
 eigenvalues of (default step * inverse Hessian matrix)
  average eigenvalue of G=   1.8310
 eigenvalue spectrum of G is  1.8310

 reached required accuracy - stopping structural energy minimisation

 Spin-Orbit-Coupling matrix elements

 Ion:    1  E_soc:    -33.3106278
 l=   1
     0.0000000    -5.1270211    -5.1270215
    -5.1270211     0.0000000    -5.1270212
    -5.1270215    -5.1270212     0.0000000
 l=   2
     0.0000000    -0.0849572     0.0000000    -0.0849572    -0.3397810
    -0.0849572     0.0000000    -0.2548357    -0.0849691    -0.0849572
     0.0000000    -0.2548357     0.0000000    -0.2548357     0.0000000
    -0.0849572    -0.0849691    -0.2548357     0.0000000    -0.0849571
    -0.3397810    -0.0849572     0.0000000    -0.0849571     0.0000000
 l=   3
     0.0000000     0.0000000     0.0000000     0.0000000     0.0000000     0.0000000     0.0000000
     0.0000000     0.0000000     0.0000000     0.0000000     0.0000000     0.0000000     0.0000000
     0.0000000     0.0000000     0.0000000     0.0000000     0.0000000     0.0000000     0.0000000
     0.0000000     0.0000000     0.0000000     0.0000000     0.0000000     0.0000000     0.0000000
     0.0000000     0.0000000     0.0000000     0.0000000     0.0000000     0.0000000     0.0000000
     0.0000000     0.0000000     0.0000000     0.0000000     0.0000000     0.0000000     0.0000000
     0.0000000     0.0000000     0.0000000     0.0000000     0.0000000     0.0000000     0.0000000