 vasp.5.4.4.18Apr17-6-g9f103f2a35 (build Nov 03 2018 10:20:46) complex

 executed on             LinuxIFC date 2018.12.20  16:09:23

 INCAR:
 POTCAR:    PAW_PBE Rn_d_GW 14Apr2014

 POTCAR:    PAW_PBE Rn_d_GW 14Apr2014
   VRHFIN =Rn:

   TITEL  = PAW_PBE Rn_d_GW 14Apr2014
   POMASS =  220.170; ZVAL   =   18.000    mass and valenz
   ENMAX  =  268.495; ENMIN  =  201.371 eV

  PAW_PBE Rn_d_GW 14Apr2014             :

 POSCAR: Rn_FCC
  positions in direct lattice
  velocities in cartesian coordinates
 exchange correlation table for  LEXCH =        8
   RHO(1)=    0.500       N(1)  =     2000
   RHO(2)=  100.500       N(2)  =     4000

 ion  position               nearest neighbor table
   1  0.000  0.000  0.000-

IMPORTANT INFORMATION: All symmetrisations will be switched off!
NOSYMM: (Re-)initialisation of all symmetry stuff for point group C_1.

 KPOINTS: k-points

Automatic generation of k-mesh.
Space group operators:
 irot       det(A)        alpha          n_x          n_y          n_z        tau_x        tau_y        tau_z
    1     1.000000     0.000000     1.000000     0.000000     0.000000     0.000000     0.000000     0.000000

 Subroutine IBZKPT returns following result:

 Found    216 irreducible k-points:

 Following reciprocal coordinates:
            Coordinates               Weight
  0.000000  0.000000  0.000000      1.000000
  0.166667  0.000000  0.000000      1.000000
  0.333333  0.000000  0.000000      1.000000
  0.500000  0.000000  0.000000      1.000000
 -0.333333 -0.000000 -0.000000      1.000000
 -0.166667 -0.000000 -0.000000      1.000000
  0.000000  0.166667 -0.000000      1.000000
  0.166667  0.166667  0.000000      1.000000
  0.333333  0.166667  0.000000      1.000000
  0.500000  0.166667  0.000000      1.000000
 -0.333333  0.166667 -0.000000      1.000000
 -0.166667  0.166667 -0.000000      1.000000
  0.000000  0.333333  0.000000      1.000000
  0.166667  0.333333  0.000000      1.000000
  0.333333  0.333333  0.000000      1.000000
  0.500000  0.333333  0.000000      1.000000
 -0.333333  0.333333 -0.000000      1.000000
 -0.166667  0.333333 -0.000000      1.000000
  0.000000  0.500000  0.000000      1.000000
  0.166667  0.500000  0.000000      1.000000
  0.333333  0.500000  0.000000      1.000000
  0.500000  0.500000  0.000000      1.000000
 -0.333333  0.500000 -0.000000      1.000000
 -0.166667  0.500000 -0.000000      1.000000
  0.000000 -0.333333  0.000000      1.000000
  0.166667 -0.333333  0.000000      1.000000
  0.333333 -0.333333  0.000000      1.000000
  0.500000 -0.333333  0.000000      1.000000
 -0.333333 -0.333333 -0.000000      1.000000
 -0.166667 -0.333333 -0.000000      1.000000
  0.000000 -0.166667  0.000000      1.000000
  0.166667 -0.166667  0.000000      1.000000
  0.333333 -0.166667  0.000000      1.000000
  0.500000 -0.166667  0.000000      1.000000
 -0.333333 -0.166667 -0.000000      1.000000
 -0.166667 -0.166667 -0.000000      1.000000
  0.000000 -0.000000  0.166667      1.000000
  0.166667  0.000000  0.166667      1.000000
  0.333333  0.000000  0.166667      1.000000
  0.500000  0.000000  0.166667      1.000000
 -0.333333 -0.000000  0.166667      1.000000
 -0.166667 -0.000000  0.166667      1.000000
  0.000000  0.166667  0.166667      1.000000
  0.166667  0.166667  0.166667      1.000000
  0.333333  0.166667  0.166667      1.000000
  0.500000  0.166667  0.166667      1.000000
 -0.333333  0.166667  0.166667      1.000000
 -0.166667  0.166667  0.166667      1.000000
  0.000000  0.333333  0.166667      1.000000
  0.166667  0.333333  0.166667      1.000000
  0.333333  0.333333  0.166667      1.000000
  0.500000  0.333333  0.166667      1.000000
 -0.333333  0.333333  0.166667      1.000000
 -0.166667  0.333333  0.166667      1.000000
  0.000000  0.500000  0.166667      1.000000
  0.166667  0.500000  0.166667      1.000000
  0.333333  0.500000  0.166667      1.000000
  0.500000  0.500000  0.166667      1.000000
 -0.333333  0.500000  0.166667      1.000000
 -0.166667  0.500000  0.166667      1.000000
[...]
  0.500000  0.500000 -0.166667      1.000000
 -0.333333  0.500000 -0.166667      1.000000
 -0.166667  0.500000 -0.166667      1.000000
 -0.000000 -0.333333 -0.166667      1.000000
  0.166667 -0.333333 -0.166667      1.000000
  0.333333 -0.333333 -0.166667      1.000000
  0.500000 -0.333333 -0.166667      1.000000
 -0.333333 -0.333333 -0.166667      1.000000
 -0.166667 -0.333333 -0.166667      1.000000
 -0.000000 -0.166667 -0.166667      1.000000
  0.166667 -0.166667 -0.166667      1.000000
  0.333333 -0.166667 -0.166667      1.000000
  0.500000 -0.166667 -0.166667      1.000000
 -0.333333 -0.166667 -0.166667      1.000000
 -0.166667 -0.166667 -0.166667      1.000000

 Following cartesian coordinates:
            Coordinates               Weight
  0.000000  0.000000  0.000000      1.000000
  0.036869 -0.021286 -0.015052      1.000000
  0.073737 -0.042572 -0.030103      1.000000
  0.110606 -0.063858 -0.045155      1.000000
 -0.073737  0.042572  0.030103      1.000000
 -0.036869  0.021286  0.015052      1.000000
  0.000000  0.042572 -0.015052      1.000000
  0.036869  0.021286 -0.030103      1.000000
  0.073737  0.000000 -0.045155      1.000000
  0.110606 -0.021286 -0.060206      1.000000
 -0.073737  0.085144  0.015052      1.000000
 -0.036869  0.063858  0.000000      1.000000
  0.000000  0.085144 -0.030103      1.000000
  0.036869  0.063858 -0.045155      1.000000
  0.073737  0.042572 -0.060206      1.000000
  0.110606  0.021286 -0.075258      1.000000
 -0.073737  0.127716  0.000000      1.000000
 -0.036869  0.106430 -0.015052      1.000000
  0.000000  0.127716 -0.045155      1.000000
  0.036869  0.106430 -0.060206      1.000000
  0.073737  0.085144 -0.075258      1.000000
  0.110606  0.063858 -0.090309      1.000000
 -0.073737  0.170289 -0.015052      1.000000
 -0.036869  0.149002 -0.030103      1.000000
 -0.000000 -0.085144  0.030103      1.000000
  0.036869 -0.106430  0.015052      1.000000
  0.073737 -0.127716 -0.000000      1.000000
  0.110606 -0.149002 -0.015052      1.000000
 -0.073737 -0.042572  0.060206      1.000000
 -0.036869 -0.063858  0.045155      1.000000
 -0.000000 -0.042572  0.015052      1.000000
  0.036869 -0.063858 -0.000000      1.000000
  0.073737 -0.085144 -0.015052      1.000000
  0.110606 -0.106430 -0.030103      1.000000
 -0.073737 -0.000000  0.045155      1.000000
 -0.036869 -0.021286  0.030103      1.000000
 -0.000000  0.000000  0.045155      1.000000
  0.036869 -0.021286  0.030103      1.000000
  0.073737 -0.042572  0.015052      1.000000
  0.110606 -0.063858 -0.000000      1.000000
 -0.073737  0.042572  0.075258      1.000000
 -0.036869  0.021286  0.060206      1.000000
 -0.000000  0.042572  0.030103      1.000000
  0.036869  0.021286  0.015052      1.000000
  0.073737  0.000000  0.000000      1.000000
  0.110606 -0.021286 -0.015052      1.000000
 -0.073737  0.085144  0.060206      1.000000
 -0.036869  0.063858  0.045155      1.000000
 -0.000000  0.085144  0.015052      1.000000
  0.036869  0.063858  0.000000      1.000000
  0.073737  0.042572 -0.015052      1.000000
  0.110606  0.021286 -0.030103      1.000000
 -0.073737  0.127716  0.045155      1.000000
 -0.036869  0.106430  0.030103      1.000000
 -0.000000  0.127716  0.000000      1.000000
  0.036869  0.106430 -0.015052      1.000000
  0.073737  0.085144 -0.030103      1.000000
  0.110606  0.063858 -0.045155      1.000000
 -0.073737  0.170289  0.030103      1.000000
 -0.036869  0.149002  0.015052      1.000000
[...]
  0.110606  0.063858 -0.135464      1.000000
 -0.073737  0.170289 -0.060206      1.000000
 -0.036869  0.149002 -0.075258      1.000000
  0.000000 -0.085144 -0.015052      1.000000
  0.036869 -0.106430 -0.030103      1.000000
  0.073737 -0.127716 -0.045155      1.000000
  0.110606 -0.149002 -0.060206      1.000000
 -0.073737 -0.042572  0.015052      1.000000
 -0.036869 -0.063858 -0.000000      1.000000
  0.000000 -0.042572 -0.030103      1.000000
  0.036869 -0.063858 -0.045155      1.000000
  0.073737 -0.085144 -0.060206      1.000000
  0.110606 -0.106430 -0.075258      1.000000
 -0.073737 -0.000000 -0.000000      1.000000
 -0.036869 -0.021286 -0.015052      1.000000

 Subroutine IBZKPT_HF returns following result:

 Found    216 k-points in 1st BZ
 the following    216 k-points will be used (e.g. in the exchange kernel)
 Following reciprocal coordinates:   # in IRBZ
  0.000000  0.000000  0.000000    0.00462963   1 t-inv F
  0.166667  0.000000  0.000000    0.00462963   2 t-inv F
  0.333333  0.000000  0.000000    0.00462963   3 t-inv F
  0.500000  0.000000  0.000000    0.00462963   4 t-inv F
 -0.333333 -0.000000 -0.000000    0.00462963   5 t-inv F
 -0.166667 -0.000000 -0.000000    0.00462963   6 t-inv F
  0.000000  0.166667 -0.000000    0.00462963   7 t-inv F
  0.166667  0.166667  0.000000    0.00462963   8 t-inv F
  0.333333  0.166667  0.000000    0.00462963   9 t-inv F
  0.500000  0.166667  0.000000    0.00462963  10 t-inv F
 -0.333333  0.166667 -0.000000    0.00462963  11 t-inv F
 -0.166667  0.166667 -0.000000    0.00462963  12 t-inv F
  0.000000  0.333333  0.000000    0.00462963  13 t-inv F
  0.166667  0.333333  0.000000    0.00462963  14 t-inv F
  0.333333  0.333333  0.000000    0.00462963  15 t-inv F
  0.500000  0.333333  0.000000    0.00462963  16 t-inv F
 -0.333333  0.333333 -0.000000    0.00462963  17 t-inv F
 -0.166667  0.333333 -0.000000    0.00462963  18 t-inv F
  0.000000  0.500000  0.000000    0.00462963  19 t-inv F
  0.166667  0.500000  0.000000    0.00462963  20 t-inv F
  0.333333  0.500000  0.000000    0.00462963  21 t-inv F
  0.500000  0.500000  0.000000    0.00462963  22 t-inv F
 -0.333333  0.500000 -0.000000    0.00462963  23 t-inv F
 -0.166667  0.500000 -0.000000    0.00462963  24 t-inv F
  0.000000 -0.333333  0.000000    0.00462963  25 t-inv F
  0.166667 -0.333333  0.000000    0.00462963  26 t-inv F
  0.333333 -0.333333  0.000000    0.00462963  27 t-inv F
  0.500000 -0.333333  0.000000    0.00462963  28 t-inv F
 -0.333333 -0.333333 -0.000000    0.00462963  29 t-inv F
 -0.166667 -0.333333 -0.000000    0.00462963  30 t-inv F
  0.000000 -0.166667  0.000000    0.00462963  31 t-inv F
  0.166667 -0.166667  0.000000    0.00462963  32 t-inv F
  0.333333 -0.166667  0.000000    0.00462963  33 t-inv F
  0.500000 -0.166667  0.000000    0.00462963  34 t-inv F
 -0.333333 -0.166667 -0.000000    0.00462963  35 t-inv F
 -0.166667 -0.166667 -0.000000    0.00462963  36 t-inv F
  0.000000 -0.000000  0.166667    0.00462963  37 t-inv F
  0.166667  0.000000  0.166667    0.00462963  38 t-inv F
  0.333333  0.000000  0.166667    0.00462963  39 t-inv F
  0.500000  0.000000  0.166667    0.00462963  40 t-inv F
 -0.333333 -0.000000  0.166667    0.00462963  41 t-inv F
 -0.166667 -0.000000  0.166667    0.00462963  42 t-inv F
  0.000000  0.166667  0.166667    0.00462963  43 t-inv F
  0.166667  0.166667  0.166667    0.00462963  44 t-inv F
  0.333333  0.166667  0.166667    0.00462963  45 t-inv F
  0.500000  0.166667  0.166667    0.00462963  46 t-inv F
 -0.333333  0.166667  0.166667    0.00462963  47 t-inv F
 -0.166667  0.166667  0.166667    0.00462963  48 t-inv F
  0.000000  0.333333  0.166667    0.00462963  49 t-inv F
[...]
 k-point 40 :   0.5000 0.0000 0.1667  plane waves:    1428
 k-point 41 :  -0.3333-0.0000 0.1667  plane waves:    1434
 k-point 42 :  -0.1667-0.0000 0.1667  plane waves:    1440
 k-point 43 :   0.0000 0.1667 0.1667  plane waves:    1418
 k-point 44 :   0.1667 0.1667 0.1667  plane waves:    1424
 k-point 45 :   0.3333 0.1667 0.1667  plane waves:    1440
 k-point 46 :   0.5000 0.1667 0.1667  plane waves:    1434
 k-point 47 :  -0.3333 0.1667 0.1667  plane waves:    1428
 k-point 48 :  -0.1667 0.1667 0.1667  plane waves:    1436
 k-point 49 :   0.0000 0.3333 0.1667  plane waves:    1436
 k-point 50 :   0.1667 0.3333 0.1667  plane waves:    1440
 k-point 51 :   0.3333 0.3333 0.1667  plane waves:    1436
 k-point 52 :   0.5000 0.3333 0.1667  plane waves:    1434
 k-point 53 :  -0.3333 0.3333 0.1667  plane waves:    1444
 k-point 54 :  -0.1667 0.3333 0.1667  plane waves:    1434
 k-point 55 :   0.0000 0.5000 0.1667  plane waves:    1428
 k-point 56 :   0.1667 0.5000 0.1667  plane waves:    1434
 k-point 57 :   0.3333 0.5000 0.1667  plane waves:    1434
 k-point 58 :   0.5000 0.5000 0.1667  plane waves:    1430
 k-point 59 :  -0.3333 0.5000 0.1667  plane waves:    1436
 k-point 60 :  -0.1667 0.5000 0.1667  plane waves:    1444
[...]
 k-point 85 :  -0.0000 0.3333 0.3333  plane waves:    1434
 k-point 86 :   0.1667 0.3333 0.3333  plane waves:    1436
 k-point 87 :   0.3333 0.3333 0.3333  plane waves:    1490
 k-point 88 :   0.5000 0.3333 0.3333  plane waves:    1434
 k-point 89 :  -0.3333 0.3333 0.3333  plane waves:    1432
 k-point 90 :  -0.1667 0.3333 0.3333  plane waves:    1430
 k-point 91 :   0.0000 0.5000 0.3333  plane waves:    1430
 k-point 92 :   0.1667 0.5000 0.3333  plane waves:    1434
 k-point 93 :   0.3333 0.5000 0.3333  plane waves:    1434
 k-point 94 :   0.5000 0.5000 0.3333  plane waves:    1428
 k-point 95 :  -0.3333 0.5000 0.3333  plane waves:    1444
 k-point 96 :  -0.1667 0.5000 0.3333  plane waves:    1436
 k-point 97 :  -0.0000-0.3333 0.3333  plane waves:    1432
 k-point 98 :   0.1667-0.3333 0.3333  plane waves:    1444
 k-point 99 :   0.3333-0.3333 0.3333  plane waves:    1432
 k-point ** :   0.5000-0.3333 0.3333  plane waves:    1444
 k-point ** :  -0.3333-0.3333 0.3333  plane waves:    1432
 k-point ** :  -0.1667-0.3333 0.3333  plane waves:    1444
 k-point ** :  -0.0000-0.1667 0.3333  plane waves:    1434
 k-point ** :   0.1667-0.1667 0.3333  plane waves:    1434
 k-point ** :   0.3333-0.1667 0.3333  plane waves:    1430
 k-point ** :   0.5000-0.1667 0.3333  plane waves:    1436
 k-point ** :  -0.3333-0.1667 0.3333  plane waves:    1444
 k-point ** :  -0.1667-0.1667 0.3333  plane waves:    1428
 k-point ** :  -0.0000-0.0000 0.5000  plane waves:    1436
 k-point ** :   0.1667 0.0000 0.5000  plane waves:    1428
 k-point ** :   0.3333 0.0000 0.5000  plane waves:    1430
 k-point ** :   0.5000 0.0000 0.5000  plane waves:    1448
 k-point ** :  -0.3333-0.0000 0.5000  plane waves:    1430
 k-point ** :  -0.1667-0.0000 0.5000  plane waves:    1428
 k-point ** :  -0.0000 0.1667 0.5000  plane waves:    1428
 k-point ** :   0.1667 0.1667 0.5000  plane waves:    1434
 k-point ** :   0.3333 0.1667 0.5000  plane waves:    1434
 k-point ** :   0.5000 0.1667 0.5000  plane waves:    1430
 k-point ** :  -0.3333 0.1667 0.5000  plane waves:    1436
 k-point ** :  -0.1667 0.1667 0.5000  plane waves:    1444
 k-point ** :  -0.0000 0.3333 0.5000  plane waves:    1430
 k-point ** :   0.1667 0.3333 0.5000  plane waves:    1434
 k-point ** :   0.3333 0.3333 0.5000  plane waves:    1434
 k-point ** :   0.5000 0.3333 0.5000  plane waves:    1428
 k-point ** :  -0.3333 0.3333 0.5000  plane waves:    1444
 k-point ** :  -0.1667 0.3333 0.5000  plane waves:    1436
 k-point ** :  -0.0000 0.5000 0.5000  plane waves:    1448
 k-point ** :   0.1667 0.5000 0.5000  plane waves:    1430
 k-point ** :   0.3333 0.5000 0.5000  plane waves:    1428
 k-point ** :   0.5000 0.5000 0.5000  plane waves:    1436
 k-point ** :  -0.3333 0.5000 0.5000  plane waves:    1428
 k-point ** :  -0.1667 0.5000 0.5000  plane waves:    1430
 k-point ** :   0.0000-0.3333 0.5000  plane waves:    1430
 k-point ** :   0.1667-0.3333 0.5000  plane waves:    1436
 k-point ** :   0.3333-0.3333 0.5000  plane waves:    1444
 k-point ** :   0.5000-0.3333 0.5000  plane waves:    1428
 k-point ** :  -0.3333-0.3333 0.5000  plane waves:    1434
 k-point ** :  -0.1667-0.3333 0.5000  plane waves:    1434
 k-point ** :   0.0000-0.1667 0.5000  plane waves:    1428
 k-point ** :   0.1667-0.1667 0.5000  plane waves:    1444
 k-point ** :   0.3333-0.1667 0.5000  plane waves:    1436
 k-point ** :   0.5000-0.1667 0.5000  plane waves:    1430
 k-point ** :  -0.3333-0.1667 0.5000  plane waves:    1434
 k-point ** :  -0.1667-0.1667 0.5000  plane waves:    1434
 k-point ** :   0.0000 0.0000-0.3333  plane waves:    1490
 k-point ** :   0.1667 0.0000-0.3333  plane waves:    1434
 k-point ** :   0.3333 0.0000-0.3333  plane waves:    1432
 k-point ** :   0.5000 0.0000-0.3333  plane waves:    1430
 k-point ** :  -0.3333-0.0000-0.3333  plane waves:    1434
 k-point ** :  -0.1667-0.0000-0.3333  plane waves:    1436
 k-point ** :   0.0000 0.1667-0.3333  plane waves:    1434
 k-point ** :   0.1667 0.1667-0.3333  plane waves:    1428
 k-point ** :   0.3333 0.1667-0.3333  plane waves:    1444
 k-point ** :   0.5000 0.1667-0.3333  plane waves:    1436
 k-point ** :  -0.3333 0.1667-0.3333  plane waves:    1430
 k-point ** :  -0.1667 0.1667-0.3333  plane waves:    1434
 k-point ** :   0.0000 0.3333-0.3333  plane waves:    1432
 k-point ** :   0.1667 0.3333-0.3333  plane waves:    1444
 k-point ** :   0.3333 0.3333-0.3333  plane waves:    1432
[...]
 k-point ** :   0.5000 0.5000-0.1667  plane waves:    1430
 k-point ** :  -0.3333 0.5000-0.1667  plane waves:    1434
 k-point ** :  -0.1667 0.5000-0.1667  plane waves:    1434
 k-point ** :  -0.0000-0.3333-0.1667  plane waves:    1436
 k-point ** :   0.1667-0.3333-0.1667  plane waves:    1434
 k-point ** :   0.3333-0.3333-0.1667  plane waves:    1444
 k-point ** :   0.5000-0.3333-0.1667  plane waves:    1434
 k-point ** :  -0.3333-0.3333-0.1667  plane waves:    1436
 k-point ** :  -0.1667-0.3333-0.1667  plane waves:    1440
 k-point ** :  -0.0000-0.1667-0.1667  plane waves:    1418
 k-point ** :   0.1667-0.1667-0.1667  plane waves:    1436
 k-point ** :   0.3333-0.1667-0.1667  plane waves:    1428
 k-point ** :   0.5000-0.1667-0.1667  plane waves:    1434
 k-point ** :  -0.3333-0.1667-0.1667  plane waves:    1440
 k-point ** :  -0.1667-0.1667-0.1667  plane waves:    1424

 maximum and minimum number of plane-waves per node :       406      334

 maximum number of plane-waves:      1490
 maximum index in each direction:
   IXMAX=    6   IYMAX=    6   IZMAX=    6
   IXMIN=   -6   IYMIN=   -6   IZMIN=   -6

 parallel 3D FFT for wavefunctions:
    minimum data exchange during FFTs selected (reduces bandwidth)
 parallel 3D FFT for charge:
    minimum data exchange during FFTs selected (reduces bandwidth)

 FFT grid for exact exchange (Hartree Fock)
  NGX = 20; NGY = 20; NGZ = 20

 Radii for the augmentation spheres in the non-local exchange
 for species   1 augmentation radius   1.296 (default was   1.037)
       energy cutoff for augmentation   1200.0

 real space projection operators:
  max/ min on nodes  :         59.96         56.45

 Maximum index for augmentation-charges in exchange          289
  SETUP_FOCK is finished

 Broyden mixing: mesh for mixing (old mesh)
   NGX = 13   NGY = 13   NGZ = 13
  (NGX  = 56   NGY  = 56   NGZ  = 56)
  gives a total of   2197 points

 charge density for first step will be calculated from the start-wavefunctions

 Maximum index for augmentation-charges        13305 (set IRDMAX)

 initial charge from wavefunction
 First call to EWALD:  gamma=   0.451
 Maximum number of real-space cells 3x 3x 3
 Maximum number of reciprocal cells 3x 3x 3

--------------------------------------- Iteration      1(   1)  ---------------------------------------

 eigenvalue-minimisations  :     0
 total energy-change (2. order) : 0.8151041E+02  (-0.6212530E+02)
 number of electron      18.0000001 magnetization       0.0016903     -0.0002563      0.0011791
 augmentation part        7.8155702 magnetization       0.0009041     -0.0006086      0.0004391

 Free energy of the ion-electron system (eV)
  alpha Z        PSCENC =        69.69972675
  Ewald energy   TEWEN  =     -1713.14217088
  -Hartree energ DENC   =     -1034.29039106
  -exchange      EXHF   =        43.54206149
  -V(xc)+E(xc)   XCENC  =        28.36165981
  PAW double counting   =      3288.17173890    -3269.88576787
  entropy T*S    EENTRO =        -0.00000000
  eigenvalues    EBANDS =      -362.93696764
  atomic energy  EATOM  =      3031.99051594
  free energy    TOTEN  =        81.51040543 eV

  energy without entropy =       81.51040543  energy(sigma->0) =       81.51040543
  exchange ACFDT corr.  =         0.00000000  see jH, gK, PRB 81, 115126

[...]

 eigenvalue-minimisations  :     0
 total energy-change (2. order) :-0.2912846E+02  (-0.3530372E+02)
 number of electron      18.0000001 magnetization       0.0065904     -0.0015325      0.0047945
 augmentation part        7.1265378 magnetization      -0.0021911     -0.0012407     -0.0026152

[...]

--------------------------------------- Iteration      1(  50)  ---------------------------------------

 eigenvalue-minimisations  :     0
 total energy-change (2. order) :-0.1066993E-04  (-0.9961377E-05)
 number of electron      18.0000001 magnetization       0.0000030      0.0000001      0.0000014
 augmentation part        7.1398796 magnetization       0.0000130     -0.0000004      0.0000164

 Free energy of the ion-electron system (eV)
  alpha Z        PSCENC =        69.69972675
  Ewald energy   TEWEN  =     -1713.14217088
  -Hartree energ DENC   =      -992.46426423
  -exchange      EXHF   =        46.22930271
  -V(xc)+E(xc)   XCENC  =        27.42299468
  PAW double counting   =      2572.18763538    -2544.86244304
  entropy T*S    EENTRO =        -0.00000000
  eigenvalues    EBANDS =      -498.80498672
  atomic energy  EATOM  =      3031.99051594
  free energy    TOTEN  =        -1.74371189 eV

  energy without entropy =       -1.74371189  energy(sigma->0) =       -1.74371189
  exchange ACFDT corr.  =         0.00000000  see jH, gK, PRB 81, 115126

  average scaling for gradient   0.8283

 average (electrostatic) potential at core
  the test charge radii are     1.0367
  (the norm of the test charge is              1.0000)
       1 -77.0953

 E-fermi :  -1.3679     XC(G=0):  -6.1072     alpha+bet : -4.8700

 k-point     1 :       0.0000    0.0000    0.0000
  band No.  band energies     occupation
      1     -46.5069      1.00000
      2     -46.5069      1.00000
      3     -46.5068      1.00000
      4     -46.5068      1.00000
      5     -41.9855      1.00000
      6     -41.9855      1.00000
      7     -41.9848      1.00000
      8     -41.9848      1.00000
      9     -41.9848      1.00000
     10     -41.9847      1.00000
     11     -18.8911      1.00000
     12     -18.8910      1.00000
     13      -5.5721      1.00000
     14      -5.5719      1.00000
     15      -1.6677      1.00000
     16      -1.6676      1.00000
     17      -1.6675      1.00000
     18      -1.6674      1.00000
     19       3.0680      0.00000
     20       3.0681      0.00000
     21       8.5147      0.00000
     22       8.5147      0.00000
     23       8.5147      0.00000
     24       8.5148      0.00000
     25       8.6427      0.00000
     26       8.6428      0.00000
     27      10.2974      0.00000
     28      10.2974      0.00000

[...]

 k-point   216 :      -0.1667   -0.1667   -0.1667
  band No.  band energies     occupation
      1     -46.5066      1.00000
      2     -46.5066      1.00000
      3     -46.5063      1.00000
      4     -46.5063      1.00000
      5     -41.9850      1.00000
      6     -41.9849      1.00000
      7     -41.9841      1.00000
      8     -41.9841      1.00000
      9     -41.9840      1.00000
     10     -41.9840      1.00000
     11     -18.8394      1.00000
     12     -18.8393      1.00000
     13      -5.7403      1.00000
     14      -5.7402      1.00000
     15      -2.2591      1.00000
     16      -2.2590      1.00000
     17      -1.7463      1.00000
     18      -1.7462      1.00000
     19       3.9629      0.00000
     20       3.9629      0.00000
     21       7.7621      0.00000
     22       7.7622      0.00000
     23       8.7229      0.00000
     24       8.7229      0.00000
     25       8.8402      0.00000
     26       8.8402      0.00000
     27      10.6600      0.00000
     28      11.0679      0.00000

 soft charge-density along one line, spin component           1
         0         1         2         3         4         5         6         7         8         9
 total charge-density along one line

[...]

 soft charge-density along one line, spin component           4
         0         1         2         3         4         5         6         7         8         9
 total charge-density along one line

------------------------ aborting loop because EDIFF is reached ----------------------------------------

  FORCE on cell =-STRESS in cart. coord.  units (eV):
  Direction    XX          YY          ZZ          XY          YZ          ZX
  Alpha Z    69.69973    69.69973    69.69973
  Ewald    -571.04741  -571.04741  -571.04741     0.00000    -0.00000     0.00000
  Hartree   330.82283   330.81894   330.82307     0.00087     0.00118     0.00015
  E(xc)     -75.04848   -75.04846   -75.04849    -0.00000    -0.00001    -0.00001
  Local     -55.89942   -55.89117   -55.90090    -0.00153    -0.00248    -0.00008
  n-local   313.57719   313.57452   313.57816     0.00036     0.00087     0.00000
  augment    90.24527    90.24439    90.24534     0.00021     0.00022    -0.00002
  Kinetic   159.73126   159.73290   159.73137    -0.00055    -0.00037     0.00009
  Fock     -261.88954  -261.88971  -261.88941    -0.00002     0.00005    -0.00002
  Total       0.19142     0.19373     0.19146    -0.00066    -0.00054     0.00012
  in kB       5.04140     5.10209     5.04242    -0.01735    -0.01418     0.00310

 VOLUME and BASIS-vectors are now :
  energy-cutoff  :      300.00
  volume of cell :       60.83
      direct lattice vectors                 reciprocal lattice vectors
     4.414575608  0.000000000  0.000000000     0.226522341 -0.130782734 -0.092477358
     2.207287804  3.823134623 -0.000000000     0.000000000  0.261565469 -0.092477358
     2.207287804  1.274378208  3.604485890    -0.000000000  0.000000000  0.277432075

  length of vectors
     4.414575608  4.414575608  4.414575608     0.277432075  0.277432075  0.277432075

 FORCES acting on ions:
    Electron-Ion                     Ewald-Force                    Non-Local-Force
   0.684E-04 0.156E-04 0.767E-04   -.132E-14 0.426E-15 -.114E-14   -.549E-04 -.618E-04 -.214E-04
   0.679E-04 0.153E-04 0.764E-04   -.132E-14 0.426E-15 -.114E-14   -.549E-04 -.618E-04 -.214E-04

 POSITION                                       TOTAL-FORCE (eV/Angst)
      0.00000      0.00000      0.00000        -0.000009     -0.000022      0.000022
    total drift:                               -0.000009     -0.000022      0.000022

  FREE ENERGIE OF THE ION-ELECTRON SYSTEM (eV)
  free  energy   TOTEN  =        -1.74371189 eV

  energy  without entropy=       -1.74371189  energy(sigma->0) =       -1.74371189

 writing wavefunctions

 Spin-Orbit-Coupling matrix elements

 Ion:    1  E_soc:     -3.5478860
 l=   1
     0.0000000    -0.4734754    -0.4734870
    -0.4734754     0.0000000    -0.4734929
    -0.4734870    -0.4734929     0.0000000
 l=   2
     0.0000000    -0.0235655     0.0000000    -0.0235655    -0.0942633
    -0.0235655     0.0000000    -0.0706976    -0.0235653    -0.0235656
     0.0000000    -0.0706976     0.0000000    -0.0706975     0.0000000
    -0.0235655    -0.0235653    -0.0706975     0.0000000    -0.0235656
    -0.0942633    -0.0235656     0.0000000    -0.0235656     0.0000000
 l=   3
     0.0000000    -0.0000000     0.0000000     0.0000000     0.0000000    -0.0000000    -0.0000004
    -0.0000000     0.0000000    -0.0000001     0.0000000    -0.0000001    -0.0000001    -0.0000001
     0.0000000    -0.0000001     0.0000000    -0.0000002    -0.0000001    -0.0000001     0.0000000
     0.0000000     0.0000000    -0.0000002     0.0000000    -0.0000002     0.0000000     0.0000000
     0.0000000    -0.0000001    -0.0000001    -0.0000002     0.0000000    -0.0000001     0.0000000
    -0.0000000    -0.0000001    -0.0000001     0.0000000    -0.0000001     0.0000000    -0.0000001
    -0.0000004    -0.0000001     0.0000000     0.0000000     0.0000000    -0.0000001     0.0000000