 vasp.5.4.4.18Apr17-6-g9f103f2a35 (build Nov 03 2018 10:20:46) complex

 executed on             LinuxIFC date 2018.11.29  14:14:18

 INCAR:
 POTCAR:    PAW Og, JanMewes Oct 18

 POTCAR:    PAW Og, JanMewes Oct 18
   VRHFIN =Og : 10d 2s 6p, PE

   TITEL  = PAW Og, JanMewes Oct 18
   POMASS =    0.010; ZVAL   =   18.000    mass and valenz
   ENMAX  =  339.336; ENMIN  =  254.502 eV
   QCUT   =   -4.994; QGAM   =    9.988    optimization parameters

  PAW Og, JanMewes Oct 18               :

 POSCAR: Og_FCC
  positions in direct lattice
  velocities in cartesian coordinates

 METAGGA = SCAN     LMAXTAU =  0    LMIXTAU =  F

 ion  position               nearest neighbor table
   1  0.000  0.000  0.000-

  LATTYP: Found a face centered cubic cell.
 ALAT       =     6.1486896409

  Lattice vectors:

 A1 = (   4.3477801404,   0.0000000000,   0.0000000000)
 A2 = (   2.1738900702,   3.7652880516,  -0.0000000000)
 A3 = (   2.1738900702,   1.2550960172,   3.5499476194)

Analysis of symmetry for initial positions (statically):
 Subroutine PRICEL returns:
 Original cell was already a primitive cell.

 Routine SETGRP: Setting up the symmetry group for a
 face centered cubic supercell.

 Subroutine GETGRP returns: Found 48 space group operations
 (whereof 48 operations were pure point group operations)
 out of a pool of 48 trial point group operations.

The static configuration has the point symmetry O_h .

Analysis of symmetry for dynamics (positions and initial velocities):
 Subroutine PRICEL returns:
 Original cell was already a primitive cell.

[...]

The dynamic configuration has the point symmetry O_h .

Analysis of structural, dynamic, and magnetic symmetry:
 Subroutine PRICEL returns:
 Original cell was already a primitive cell.

 Routine SETGRP: Setting up the symmetry group for a
 face centered cubic supercell.

 Subroutine GETGRP returns: Found  2 space group operations
 (whereof  2 operations were pure point group operations)
 out of a pool of 48 trial point group operations.

The (compounded) configuration has the point symmetry S_2 .

 Subroutine INISYM returns: Found  2 space group operations
 (whereof  2 operations are pure point group operations),
 and found     1 'primitive' translations

Automatic generation of k-mesh.
 generate k-points for:    9    9    9
Space group operators:
 irot       det(A)        alpha          n_x          n_y          n_z        tau_x        tau_y        tau_z
    1     1.000000     0.000000     1.000000     0.000000     0.000000     0.000000     0.000000     0.000000
    2    -1.000000     0.000000     1.000000     0.000000     0.000000     0.000000     0.000000     0.000000

 Subroutine IBZKPT returns following result:

 Found    365 irreducible k-points:

 Following reciprocal coordinates:
            Coordinates               Weight
  0.000000  0.000000  0.000000      1.000000
  0.111111  0.000000 -0.000000      2.000000
  0.222222 -0.000000 -0.000000      2.000000
  0.333333 -0.000000 -0.000000      2.000000
  0.444444 -0.000000 -0.000000      2.000000
  0.000000  0.111111  0.000000      2.000000
  0.111111  0.111111  0.000000      2.000000
  0.222222  0.111111  0.000000      2.000000
  0.333333  0.111111  0.000000      2.000000
  0.444444  0.111111 -0.000000      2.000000
 -0.444444  0.111111  0.000000      2.000000
 -0.333333  0.111111  0.000000      2.000000
 -0.222222  0.111111  0.000000      2.000000
 -0.111111  0.111111 -0.000000      2.000000
 -0.000000  0.222222  0.000000      2.000000
  0.111111  0.222222 -0.000000      2.000000
  0.222222  0.222222  0.000000      2.000000
  0.333333  0.222222 -0.000000      2.000000
  0.444444  0.222222 -0.000000      2.000000
 -0.444444  0.222222  0.000000      2.000000
 -0.333333  0.222222 -0.000000      2.000000
 -0.222222  0.222222 -0.000000      2.000000
 -0.111111  0.222222 -0.000000      2.000000
 -0.000000  0.333333 -0.000000      2.000000
  0.111111  0.333333 -0.000000      2.000000
  0.222222  0.333333 -0.000000      2.000000
  0.333333  0.333333 -0.000000      2.000000
  0.444444  0.333333 -0.000000      2.000000
 -0.444444  0.333333 -0.000000      2.000000
 -0.333333  0.333333 -0.000000      2.000000
 -0.222222  0.333333  0.000000      2.000000
 -0.111111  0.333333  0.000000      2.000000
 -0.000000  0.444444  0.000000      2.000000
  0.111111  0.444444 -0.000000      2.000000
  0.222222  0.444444 -0.000000      2.000000
  0.333333  0.444444 -0.000000      2.000000
  0.444444  0.444444  0.000000      2.000000
 -0.444444  0.444444 -0.000000      2.000000
 -0.333333  0.444444 -0.000000      2.000000
 -0.222222  0.444444 -0.000000      2.000000
 -0.111111  0.444444 -0.000000      2.000000
 -0.000000  0.000000  0.111111      2.000000
  0.111111  0.000000  0.111111      2.000000
  0.222222 -0.000000  0.111111      2.000000
  0.333333 -0.000000  0.111111      2.000000
  0.444444 -0.000000  0.111111      2.000000
 -0.444444  0.000000  0.111111      2.000000
 -0.333333  0.000000  0.111111      2.000000
 -0.222222  0.000000  0.111111      2.000000
 -0.111111  0.000000  0.111111      2.000000
 -0.000000  0.111111  0.111111      2.000000
  0.111111  0.111111  0.111111      2.000000
  0.222222  0.111111  0.111111      2.000000
  0.333333  0.111111  0.111111      2.000000
  0.444444  0.111111  0.111111      2.000000
 -0.444444  0.111111  0.111111      2.000000
 -0.333333  0.111111  0.111111      2.000000
 -0.222222  0.111111  0.111111      2.000000
 -0.111111  0.111111  0.111111      2.000000
 -0.000000  0.222222  0.111111      2.000000
[...]
  0.333333 -0.222222  0.444444      2.000000
  0.444444 -0.222222  0.444444      2.000000
 -0.444444 -0.222222  0.444444      2.000000
 -0.333333 -0.222222  0.444444      2.000000
 -0.222222 -0.222222  0.444444      2.000000
 -0.111111 -0.222222  0.444444      2.000000
  0.000000 -0.111111  0.444444      2.000000
  0.111111 -0.111111  0.444444      2.000000
  0.222222 -0.111111  0.444444      2.000000
  0.333333 -0.111111  0.444444      2.000000
  0.444444 -0.111111  0.444444      2.000000
 -0.444444 -0.111111  0.444444      2.000000
 -0.333333 -0.111111  0.444444      2.000000
 -0.222222 -0.111111  0.444444      2.000000
 -0.111111 -0.111111  0.444444      2.000000

 Following cartesian coordinates:
            Coordinates               Weight
  0.000000  0.000000  0.000000      1.000000
  0.025556 -0.014755 -0.010433      2.000000
  0.051112 -0.029509 -0.020866      2.000000
  0.076667 -0.044264 -0.031299      2.000000
  0.102223 -0.059019 -0.041732      2.000000
  0.000000  0.029509 -0.010433      2.000000
  0.025556  0.014755 -0.020866      2.000000
  0.051112 -0.000000 -0.031299      2.000000
  0.076667 -0.014755 -0.041732      2.000000
  0.102223 -0.029509 -0.052166      2.000000
 -0.102223  0.088528  0.031299      2.000000
 -0.076667  0.073773  0.020866      2.000000
 -0.051112  0.059019  0.010433      2.000000
 -0.025556  0.044264  0.000000      2.000000
  0.000000  0.059019 -0.020866      2.000000
  0.025556  0.044264 -0.031299      2.000000
  0.051112  0.029509 -0.041732      2.000000
  0.076667  0.014755 -0.052166      2.000000
  0.102223 -0.000000 -0.062599      2.000000
 -0.102223  0.118037  0.020866      2.000000
 -0.076667  0.103283  0.010433      2.000000
 -0.051112  0.088528  0.000000      2.000000
 -0.025556  0.073773 -0.010433      2.000000
  0.000000  0.088528 -0.031299      2.000000
  0.025556  0.073773 -0.041732      2.000000
  0.051112  0.059019 -0.052166      2.000000
  0.076667  0.044264 -0.062599      2.000000
  0.102223  0.029509 -0.073032      2.000000
 -0.102223  0.147547  0.010433      2.000000
 -0.076667  0.132792  0.000000      2.000000
 -0.051112  0.118037 -0.010433      2.000000
 -0.025556  0.103283 -0.020866      2.000000
  0.000000  0.118037 -0.041732      2.000000
  0.025556  0.103283 -0.052166      2.000000
  0.051112  0.088528 -0.062599      2.000000
  0.076667  0.073773 -0.073032      2.000000
  0.102223  0.059019 -0.083465      2.000000
 -0.102223  0.177056  0.000000      2.000000
 -0.076667  0.162301 -0.010433      2.000000
 -0.051112  0.147547 -0.020866      2.000000
 -0.025556  0.132792 -0.031299      2.000000
 -0.000000  0.000000  0.031299      2.000000
  0.025556 -0.014755  0.020866      2.000000
  0.051112 -0.029509  0.010433      2.000000
  0.076667 -0.044264 -0.000000      2.000000
  0.102223 -0.059019 -0.010433      2.000000
 -0.102223  0.059019  0.073032      2.000000
 -0.076667  0.044264  0.062599      2.000000
 -0.051112  0.029509  0.052166      2.000000
 -0.025556  0.014755  0.041732      2.000000
 -0.000000  0.029509  0.020866      2.000000
  0.025556  0.014755  0.010433      2.000000
  0.051112 -0.000000 -0.000000      2.000000
  0.076667 -0.014755 -0.010433      2.000000
  0.102223 -0.029509 -0.020866      2.000000
 -0.102223  0.088528  0.062599      2.000000
 -0.076667  0.073773  0.052166      2.000000
 -0.051112  0.059019  0.041732      2.000000
 -0.025556  0.044264  0.031299      2.000000
 -0.000000  0.059019  0.010433      2.000000
[...]
  0.076667 -0.103283  0.114764      2.000000
  0.102223 -0.118037  0.104331      2.000000
 -0.102223  0.000000  0.187796      2.000000
 -0.076667 -0.014755  0.177363      2.000000
 -0.051112 -0.029509  0.166930      2.000000
 -0.025556 -0.044264  0.156497      2.000000
 -0.000000 -0.029509  0.135631      2.000000
  0.025556 -0.044264  0.125197      2.000000
  0.051112 -0.059019  0.114764      2.000000
  0.076667 -0.073773  0.104331      2.000000
  0.102223 -0.088528  0.093898      2.000000
 -0.102223  0.029509  0.177363      2.000000
 -0.076667  0.014755  0.166930      2.000000
 -0.051112  0.000000  0.156497      2.000000
 -0.025556 -0.014755  0.146064      2.000000

 SYSTEM =  Og_FCC
 POSCAR =  Og_FCC

 Startparameter for this run:
   NWRITE =      2    write-flag & timer
   PREC   = accura    normal or accurate (medium, high low for compatibility)
   ISTART =      0    job   : 0-new  1-cont  2-samecut
   ICHARG =      2    charge: 1-file 2-atom 10-const
   ISPIN  =      1    spin polarized calculation?
   LNONCOLLINEAR =      T non collinear calculations
   LSORBIT =      T    spin-orbit coupling
   INIWAV =      1    electr: 0-lowe 1-rand  2-diag
   LASPH  =      F    aspherical Exc in radial PAW
   METAGGA=      F    non-selfconsistent MetaGGA calc.

 Electronic Relaxation 1
   ENCUT  =  600.0 eV  44.10 Ry    6.64 a.u.   8.68  8.68  8.68*2*pi/ulx,y,z
   ENINI  =  600.0     initial cutoff
   ENAUG  =  361.0 eV  augmentation charge cutoff
   NELM   =    100;   NELMIN=  5; NELMDL= -5     # of ELM steps
   EDIFF  = 0.1E-06   stopping-criterion for ELM
   LREAL  =      F    real-space projection
   NLSPLINE    = F    spline interpolate recip. space projectors
   LCOMPAT=      F    compatible to vasp.4.4
   GGA_COMPAT  = F    GGA compatible to vasp.4.4-vasp.4.6
   LMAXPAW     = -100 max onsite density
   LMAXMIX     =    2 max onsite mixed and CHGCAR
   VOSKOWN=      0    Vosko Wilk Nusair interpolation
   ROPT   =    0.00000
 Ionic relaxation
   EDIFFG = 0.1E-04   stopping-criterion for IOM
   NSW    =    999    number of steps for IOM
   NBLOCK =      1;   KBLOCK =    999    inner block; outer block
   IBRION =      1    ionic relax: 0-MD 1-quasi-New 2-CG
[...]
 k-point ** :  -0.2222 0.1111 0.2222  plane waves:    3884
 k-point ** :  -0.1111 0.1111 0.2222  plane waves:    3886
 k-point ** :   0.0000 0.2222 0.2222  plane waves:    3928
 k-point ** :   0.1111 0.2222 0.2222  plane waves:    3890
 k-point ** :   0.2222 0.2222 0.2222  plane waves:    3886
 k-point ** :   0.3333 0.2222 0.2222  plane waves:    3876
 k-point ** :   0.4444 0.2222 0.2222  plane waves:    3882
 k-point ** :  -0.4444 0.2222 0.2222  plane waves:    3868
 k-point ** :  -0.3333 0.2222 0.2222  plane waves:    3884
 k-point ** :  -0.2222 0.2222 0.2222  plane waves:    3896
 k-point ** :  -0.1111 0.2222 0.2222  plane waves:    3900
 k-point ** :  -0.0000 0.3333 0.2222  plane waves:    3900
 k-point ** :   0.1111 0.3333 0.2222  plane waves:    3886
 k-point ** :   0.2222 0.3333 0.2222  plane waves:    3876
 k-point ** :   0.3333 0.3333 0.2222  plane waves:    3866
 k-point ** :   0.4444 0.3333 0.2222  plane waves:    3884
 k-point ** :  -0.4444 0.3333 0.2222  plane waves:    3884
 k-point ** :  -0.3333 0.3333 0.2222  plane waves:    3866
 k-point ** :  -0.2222 0.3333 0.2222  plane waves:    3868
 k-point ** :  -0.1111 0.3333 0.2222  plane waves:    3884
 k-point ** :  -0.0000 0.4444 0.2222  plane waves:    3896
[...]
 k-point ** :   0.3333-0.2222 0.4444  plane waves:    3862
 k-point ** :   0.4444-0.2222 0.4444  plane waves:    3866
 k-point ** :  -0.4444-0.2222 0.4444  plane waves:    3868
 k-point ** :  -0.3333-0.2222 0.4444  plane waves:    3884
 k-point ** :  -0.2222-0.2222 0.4444  plane waves:    3868
 k-point ** :  -0.1111-0.2222 0.4444  plane waves:    3878
 k-point ** :   0.0000-0.1111 0.4444  plane waves:    3890
 k-point ** :   0.1111-0.1111 0.4444  plane waves:    3878
 k-point ** :   0.2222-0.1111 0.4444  plane waves:    3868
 k-point ** :   0.3333-0.1111 0.4444  plane waves:    3884
 k-point ** :   0.4444-0.1111 0.4444  plane waves:    3876
 k-point ** :  -0.4444-0.1111 0.4444  plane waves:    3884
 k-point ** :  -0.3333-0.1111 0.4444  plane waves:    3868
 k-point ** :  -0.2222-0.1111 0.4444  plane waves:    3878
 k-point ** :  -0.1111-0.1111 0.4444  plane waves:    3890

 maximum and minimum number of plane-waves per node :       680      606

 maximum number of plane-waves:      3928
 maximum index in each direction:
   IXMAX=    9   IYMAX=    9   IZMAX=    8
   IXMIN=   -9   IYMIN=   -9   IZMIN=   -9

 parallel 3D FFT for wavefunctions:
    minimum data exchange during FFTs selected (reduces bandwidth)
 parallel 3D FFT for charge:
    minimum data exchange during FFTs selected (reduces bandwidth)

 Broyden mixing: mesh for mixing (old mesh)
   NGX = 17   NGY = 17   NGZ = 17
  (NGX  = 72   NGY  = 72   NGZ  = 72)
  gives a total of   4913 points

 initial charge density was supplied:
 charge density of overlapping atoms calculated
 number of electron      18.0000000 magnetization       1.0000000      1.0000000      1.0000000
 keeping initial charge density in first step

 Maximum index for augmentation-charges        62255 (set IRDMAX)

 First call to EWALD:  gamma=   0.458
 Maximum number of real-space cells 3x 3x 3
 Maximum number of reciprocal cells 3x 3x 3

--------------------------------------- Iteration      1(   1)  ---------------------------------------

 eigenvalue-minimisations  : 20832
 total energy-change (2. order) : 0.1529173E+03  (-0.9841637E+03)
 number of electron      18.0000000 magnetization       1.0000000      1.0000000      1.0000000
 augmentation part       18.0000000 magnetization       1.0000000      1.0000000      1.0000000

 Free energy of the ion-electron system (eV)
  alpha Z        PSCENC =        65.65019596
  Ewald energy   TEWEN  =     -1739.46137932
  -Hartree energ DENC   =      -661.33100310
  -exchange      EXHF   =         0.00000000
  -V(xc)+E(xc)   XCENC  =       -43.14565520
  PAW double counting   =      2249.54693127    -2316.95582243
  entropy T*S    EENTRO =         0.00016017
  eigenvalues    EBANDS =       -41.91482909
  atomic energy  EATOM  =      2640.52872706
  Solvation  Ediel_sol  =         0.00000000
  free energy    TOTEN  =       152.91732532 eV

  energy without entropy =      152.91716515  energy(sigma->0) =      152.91727193

[...]

 eigenvalue-minimisations  : 25896
 total energy-change (2. order) :-0.2944818E+03  (-0.2868469E+03)
 number of electron      18.0000000 magnetization       1.0000000      1.0000000      1.0000000
 augmentation part       18.0000000 magnetization       1.0000000      1.0000000      1.0000000

[...]

 Broyden mixing:
  rms(total) = 0.64793E+00    rms(broyden)= 0.64788E+00
  rms(prec ) = 0.98869E+00
  weight for this iteration     100.00

[...]

 eigenvalues of (default mixing * dielectric matrix)
  average eigenvalue GAMMA=   0.7501
  0.7501

[...]

 average (electrostatic) potential at core
  the test charge radii are     1.2024
  (the norm of the test charge is              1.0000)
       1-112.3927

 E-fermi :   3.5723     XC(G=0):  -8.6083     alpha+bet : -7.5509

 k-point     1 :       0.0000    0.0000    0.0000
  band No.  band energies     occupation
      1     -30.7648      1.00000
      2     -30.7648      1.00000
      3     -30.7648      1.00000
      4     -30.7648      1.00000
      5     -24.0773      1.00000
      6     -24.0773      1.00000
      7     -24.0730      1.00000
      8     -24.0730      1.00000
      9     -24.0730      1.00000
     10     -24.0730      1.00000
     11     -20.4626      1.00000
     12     -20.4625      1.00000
     13      -6.6619      1.00000
     14      -6.6619      1.00000
     15       3.5249      0.85512
     16       3.5249      0.85500
     17       3.5250      0.85493
     18       3.5250      0.85483
     19       3.6543      0.00501
     20       3.6543      0.00484
     21      10.8618      0.00000
     22      10.8619      0.00000
     23      10.8619      0.00000
     24      10.8619      0.00000
     25      11.3070      0.00000
     26      11.3071      0.00000
     27      11.3608      0.00000
     28      11.3608      0.00000

[...]

 soft charge-density along one line, spin component           1
         0         1         2         3         4         5         6         7         8         9
 total charge-density along one line

[...]

------------------------ aborting loop because EDIFF is reached ----------------------------------------

  FORCE on cell =-STRESS in cart. coord.  units (eV):
  Direction    XX          YY          ZZ          XY          YZ          ZX
  Alpha Z    65.65020    65.65020    65.65020
  Ewald    -579.82048  -579.82048  -579.82048    -0.00000    -0.00000     0.00000
  Hartree   224.44471   224.44470   224.44470    -0.00000    -0.00000     0.00000
  E(xc)    -112.64973  -112.64974  -112.64974     0.00001     0.00000     0.00000
  Local    -169.52843  -169.52840  -169.52839     0.00000     0.00000    -0.00001
  n-local   103.08299   103.08300   103.08298     0.00001     0.00001     0.00000
  augment    71.64049    71.64050    71.64050    -0.00001    -0.00001    -0.00001
  Kinetic   397.32081   397.32083   397.32082     0.00001     0.00001     0.00000
  Fock        0.00000     0.00000     0.00000     0.00000     0.00000     0.00000
  Total       0.14056     0.14060     0.14058     0.00002     0.00002     0.00000
  in kB       3.87507     3.87626     3.87571     0.00042     0.00062     0.00001

 VOLUME and BASIS-vectors are now :
  energy-cutoff  :      600.00
  volume of cell :       58.11
      direct lattice vectors                 reciprocal lattice vectors
     4.347780140  0.000000000  0.000000000     0.230002431 -0.132791965 -0.093898099
     2.173890070  3.765288052 -0.000000000     0.000000000  0.265583930 -0.093898099
     2.173890070  1.255096017  3.549947619    -0.000000000  0.000000000  0.281694297

[...]

 FORCES acting on ions
    electron-ion (+dipol)            ewald-force                    non-local-force                 convergence-correction
   0.162E-13 0.389E-13 -.555E-14   0.387E-14 -.167E-15 0.153E-15   0.212E-21 -.212E-21 0.000E+00   -.210E-12 -.115E-13 -.155E-12
   0.159E-13 0.372E-13 -.371E-14   0.387E-14 -.167E-15 0.153E-15   0.212E-21 -.212E-21 0.000E+00   -.210E-12 -.115E-13 -.155E-12

 POSITION                                       TOTAL-FORCE (eV/Angst)
      0.00000      0.00000      0.00000         0.000000      0.000000      0.000000
    total drift:                               -0.000000      0.000000     -0.000000

  FREE ENERGIE OF THE ION-ELECTRON SYSTEM (eV)
  free  energy   TOTEN  =      -149.90891657 eV

  energy  without entropy=     -149.90902872  energy(sigma->0) =     -149.90895396

 Quasi-Newton relaxation of ions (Broydens 2nd method)
  g(Force)  = 0.000E+00   g(Stress)= 0.572E-03

 Reset! Starting new Quasi-Newton update for ions

[...]

 d Force = 0.0000000E+00[ 0.000E+00, 0.000E+00]  d Energy = 0.5398437E-03-0.540E-03
 d Force = 0.0000000E+00[ 0.000E+00, 0.000E+00]  d Ewald  =-0.2356201E+01 0.236E+01

[...]

 retain information from N=  1 steps
 eigenvalues of (default step * inverse Hessian matrix)
  average eigenvalue of G=   7.3019
 eigenvalue spectrum of G is  7.3019

[...]

 eigenvalue-minimisations  : 21807
 total energy-change (2. order) :-0.2041638E-04  (-0.1080099E-04)
 number of electron      18.0000000 magnetization       0.0000309      0.0000360      0.0000395
 augmentation part        2.8001087 magnetization       0.0000591      0.0000232      0.0000475

[...]

 Broyden mixing:
  rms(total) = 0.10066E-04    rms(broyden)= 0.10066E-04
  rms(prec ) = 0.10469E-04
  weight for this iteration     100.00

 eigenvalues of (default mixing * dielectric matrix)
  average eigenvalue GAMMA=   0.8878
  2.4887  2.4887  2.3810  1.9757  1.8636  1.8636  1.4838  1.1574  1.1574  1.0708
  1.0708  0.9903  0.9445  0.9445  0.8575  0.8575  0.2597  0.7105  0.7105  0.5874
  0.5874  0.4055  0.4055  0.3817  0.3817  0.7760  0.6710  0.6710  0.7042  0.7042
  0.7083  0.6868  0.4868  0.4868  0.5775  0.5775  0.5770  0.5770  0.6299  0.5756
  0.4626  0.4813  0.5351  0.5351  0.5009

[...]

--------------------------------------- Iteration      4(  10)  ---------------------------------------

 eigenvalue-minimisations  : 13569
 total energy-change (2. order) : 0.8845245E-07  (-0.1379256E-08)
 number of electron      18.0000000 magnetization       0.0000017     -0.0000013      0.0000001
 augmentation part        2.8002080 magnetization       0.0000018     -0.0000014      0.0000000

 Free energy of the ion-electron system (eV)
  alpha Z        PSCENC =        63.64997820
  Ewald energy   TEWEN  =     -1721.61300583
  -Hartree energ DENC   =      -684.98198627
  -exchange      EXHF   =         0.00000000
  -V(xc)+E(xc)   XCENC  =       -50.79888220
  PAW double counting   =      2394.03578145    -2470.08274369
  entropy T*S    EENTRO =         0.00011847
  eigenvalues    EBANDS =      -320.64904902
  atomic energy  EATOM  =      2640.52872706
  Solvation  Ediel_sol  =         0.00000000
  free energy    TOTEN  =      -149.91106183 eV

  energy without entropy =     -149.91118031  energy(sigma->0) =     -149.91110132

 average (electrostatic) potential at core
  the test charge radii are     1.2024
  (the norm of the test charge is              1.0000)
       1-112.6301

 E-fermi :   3.2419     XC(G=0):  -8.4637     alpha+bet : -7.3209

[...]

 k-point   365 :      -0.1111   -0.1111    0.4444
  band No.  band energies     occupation
      1     -31.0007      1.00000
      2     -31.0007      1.00000
      3     -30.9986      1.00000
      4     -30.9986      1.00000
      5     -24.3111      1.00000
      6     -24.3111      1.00000
      7     -24.3049      1.00000
      8     -24.3049      1.00000
      9     -24.3022      1.00000
     10     -24.3022      1.00000
     11     -20.5684      1.00000
     12     -20.5684      1.00000
     13      -7.3157      1.00000
     14      -7.3157      1.00000
     15       0.1911      1.00000
     16       0.1911      1.00000
     17       2.3194      1.00000
     18       2.3194      1.00000
     19       6.4354      0.00000
     20       6.4354      0.00000
     21       9.0693      0.00000
     22       9.0693      0.00000
     23      10.4062      0.00000
     24      10.4062      0.00000
     25      11.2521      0.00000
     26      11.2521      0.00000
     27      12.3370      0.00000
     28      12.3370      0.00000

[...]

 soft charge-density along one line, spin component           4
         0         1         2         3         4         5         6         7         8         9
 total charge-density along one line

------------------------ aborting loop because EDIFF is reached ----------------------------------------

  FORCE on cell =-STRESS in cart. coord.  units (eV):
  Direction    XX          YY          ZZ          XY          YZ          ZX
  Alpha Z    63.64998    63.64998    63.64998
  Ewald    -573.87102  -573.87102  -573.87102    -0.00000    -0.00000    -0.00000
  Hartree   228.32738   228.32737   228.32737     0.00001     0.00000     0.00001
  E(xc)    -112.61399  -112.61399  -112.61399     0.00000     0.00000     0.00000
  Local    -177.36273  -177.36271  -177.36271    -0.00002    -0.00001    -0.00001
  n-local   103.01244   103.01242   103.01241     0.00001     0.00001     0.00001
  augment    71.63181    71.63182    71.63182    -0.00001    -0.00000    -0.00001
  Kinetic   397.22376   397.22376   397.22376    -0.00000     0.00000     0.00000
  Fock        0.00000     0.00000     0.00000     0.00000     0.00000     0.00000
  Total      -0.00237    -0.00237    -0.00237    -0.00000     0.00000     0.00000
  in kB      -0.06323    -0.06330    -0.06340    -0.00007     0.00001     0.00004

 VOLUME and BASIS-vectors are now :
  energy-cutoff  :      600.00
  volume of cell :       59.94
      direct lattice vectors                 reciprocal lattice vectors
     4.392854616  0.000000000  0.000000000     0.227642407 -0.131429405 -0.092934624
     2.196427308  3.804323693 -0.000000000     0.000000000  0.262858810 -0.092934624
     2.196427308  1.268107898  3.586750775    -0.000000000  0.000000000  0.278803871

  length of vectors
     4.392854616  4.392854616  4.392854616     0.278803871  0.278803871  0.278803871

 FORCES acting on ions
    electron-ion (+dipol)            ewald-force                    non-local-force                 convergence-correction
   0.141E-13 0.399E-13 -.380E-14   -.354E-14 0.514E-15 -.983E-15   0.000E+00 0.000E+00 0.000E+00   -.267E-12 -.113E-13 -.174E-12
   0.140E-13 0.362E-13 -.202E-14   -.354E-14 0.514E-15 -.983E-15   0.000E+00 0.000E+00 0.000E+00   -.267E-12 -.113E-13 -.174E-12

 POSITION                                       TOTAL-FORCE (eV/Angst)
      0.00000      0.00000      0.00000        -0.000000      0.000000      0.000000
    total drift:                               -0.000000      0.000000     -0.000000

  FREE ENERGIE OF THE ION-ELECTRON SYSTEM (eV)
  free  energy   TOTEN  =      -149.91106183 eV

  energy  without entropy=     -149.91118031  energy(sigma->0) =     -149.91110132

 d Force = 0.0000000E+00[ 0.000E+00, 0.000E+00]  d Energy = 0.5562633E-06-0.556E-06
 d Force = 0.0000000E+00[ 0.000E+00, 0.000E+00]  d Ewald  =-0.7892328E+00 0.789E+00

 Quasi-Newton relaxation of ions (Broydens 2nd method)
  g(Force)  = 0.000E+00   g(Stress)= 0.162E-06

 retain information from N=  1 steps
 eigenvalues of (default step * inverse Hessian matrix)
  average eigenvalue of G=   5.5621
 eigenvalue spectrum of G is  5.5621

 reached required accuracy - stopping structural energy minimisation

 Spin-Orbit-Coupling matrix elements

 Ion:    1  E_soc:    -32.4477078
 l=   1
     0.0000000    -4.9819714    -4.9819713
    -4.9819714     0.0000000    -4.9819712
    -4.9819713    -4.9819712     0.0000000
 l=   2
     0.0000000    -0.0851998     0.0000000    -0.0851998    -0.3407739
    -0.0851998     0.0000000    -0.2555804    -0.0852061    -0.0851998
     0.0000000    -0.2555804     0.0000000    -0.2555805     0.0000000
    -0.0851998    -0.0852061    -0.2555805     0.0000000    -0.0851998
    -0.3407739    -0.0851998     0.0000000    -0.0851998     0.0000000
 l=   3
     0.0000000     0.0000000     0.0000000     0.0000000     0.0000000     0.0000000     0.0000000
     0.0000000     0.0000000     0.0000000     0.0000000     0.0000000     0.0000000     0.0000000
     0.0000000     0.0000000     0.0000000     0.0000000     0.0000000     0.0000000     0.0000000
     0.0000000     0.0000000     0.0000000     0.0000000     0.0000000     0.0000000     0.0000000
     0.0000000     0.0000000     0.0000000     0.0000000     0.0000000     0.0000000     0.0000000
     0.0000000     0.0000000     0.0000000     0.0000000     0.0000000     0.0000000     0.0000000
     0.0000000     0.0000000     0.0000000     0.0000000     0.0000000     0.0000000     0.0000000