 vasp.5.4.4.18Apr17-6-g9f103f2a35 (build Jul 09 2018 16:43:14) complex

 executed on             LinuxIFC date 2018.11.29  21:28:31

 INCAR:
 POTCAR:    PAW_PBE Xe_GW 08Jan2009

 POTCAR:    PAW_PBE Xe_GW 08Jan2009
   VRHFIN =Xe: s2p6

   TITEL  = PAW_PBE Xe_GW 08Jan2009
   POMASS =  131.294; ZVAL   =    8.000    mass and valenz
   ENMAX  =  179.547; ENMIN  =  134.660 eV

  PAW_PBE Xe_GW 08Jan2009               :

 POSCAR: Xe_FCC
  positions in direct lattice
  velocities in cartesian coordinates

 METAGGA = SCAN     LMAXTAU =  0    LMIXTAU =  F

 ion  position               nearest neighbor table
   1  0.000  0.000  0.000-

IMPORTANT INFORMATION: All symmetrisations will be switched off!
NOSYMM: (Re-)initialisation of all symmetry stuff for point group C_1.

 KPOINTS: k-points

Automatic generation of k-mesh.
Space group operators:
 irot       det(A)        alpha          n_x          n_y          n_z        tau_x        tau_y        tau_z
    1     1.000000     0.000001     1.000000     0.000000     0.000000     0.000000     0.000000     0.000000

 Subroutine IBZKPT returns following result:

 Found    216 irreducible k-points:

 Following reciprocal coordinates:
            Coordinates               Weight
  0.000000  0.000000  0.000000      1.000000
  0.166667  0.000000  0.000000      1.000000
  0.333333 -0.000000  0.000000      1.000000
  0.500000  0.000000  0.000000      1.000000
 -0.333333 -0.000000 -0.000000      1.000000
 -0.166667 -0.000000 -0.000000      1.000000
 -0.000000  0.166667  0.000000      1.000000
  0.166667  0.166667  0.000000      1.000000
  0.333333  0.166667  0.000000      1.000000
  0.500000  0.166667  0.000000      1.000000
 -0.333333  0.166667 -0.000000      1.000000
 -0.166667  0.166667  0.000000      1.000000
 -0.000000  0.333333  0.000000      1.000000
  0.166667  0.333333  0.000000      1.000000
  0.333333  0.333333  0.000000      1.000000
  0.500000  0.333333  0.000000      1.000000
 -0.333333  0.333333 -0.000000      1.000000
 -0.166667  0.333333  0.000000      1.000000
  0.000000  0.500000  0.000000      1.000000
  0.166667  0.500000  0.000000      1.000000
  0.333333  0.500000  0.000000      1.000000
  0.500000  0.500000  0.000000      1.000000
 -0.333333  0.500000  0.000000      1.000000
 -0.166667  0.500000 -0.000000      1.000000
  0.000000 -0.333333  0.000000      1.000000
  0.166667 -0.333333  0.000000      1.000000
  0.333333 -0.333333  0.000000      1.000000
  0.500000 -0.333333  0.000000      1.000000
 -0.333333 -0.333333 -0.000000      1.000000
 -0.166667 -0.333333 -0.000000      1.000000
  0.000000 -0.166667  0.000000      1.000000
  0.166667 -0.166667 -0.000000      1.000000
  0.333333 -0.166667  0.000000      1.000000
  0.500000 -0.166667  0.000000      1.000000
 -0.333333 -0.166667 -0.000000      1.000000
 -0.166667 -0.166667 -0.000000      1.000000
 -0.000000 -0.000000  0.166667      1.000000
  0.166667  0.000000  0.166667      1.000000
  0.333333 -0.000000  0.166667      1.000000
  0.500000  0.000000  0.166667      1.000000
 -0.333333 -0.000000  0.166667      1.000000
 -0.166667  0.000000  0.166667      1.000000
 -0.000000  0.166667  0.166667      1.000000
  0.166667  0.166667  0.166667      1.000000
  0.333333  0.166667  0.166667      1.000000
  0.500000  0.166667  0.166667      1.000000
 -0.333333  0.166667  0.166667      1.000000
 -0.166667  0.166667  0.166667      1.000000
 -0.000000  0.333333  0.166667      1.000000
  0.166667  0.333333  0.166667      1.000000
  0.333333  0.333333  0.166667      1.000000
  0.500000  0.333333  0.166667      1.000000
 -0.333333  0.333333  0.166667      1.000000
 -0.166667  0.333333  0.166667      1.000000
 -0.000000  0.500000  0.166667      1.000000
  0.166667  0.500000  0.166667      1.000000
  0.333333  0.500000  0.166667      1.000000
  0.500000  0.500000  0.166667      1.000000
 -0.333333  0.500000  0.166667      1.000000
 -0.166667  0.500000  0.166667      1.000000
[...]
  0.500000  0.500000 -0.166667      1.000000
 -0.333333  0.500000 -0.166667      1.000000
 -0.166667  0.500000 -0.166667      1.000000
  0.000000 -0.333333 -0.166667      1.000000
  0.166667 -0.333333 -0.166667      1.000000
  0.333333 -0.333333 -0.166667      1.000000
  0.500000 -0.333333 -0.166667      1.000000
 -0.333333 -0.333333 -0.166667      1.000000
 -0.166667 -0.333333 -0.166667      1.000000
  0.000000 -0.166667 -0.166667      1.000000
  0.166667 -0.166667 -0.166667      1.000000
  0.333333 -0.166667 -0.166667      1.000000
  0.500000 -0.166667 -0.166667      1.000000
 -0.333333 -0.166667 -0.166667      1.000000
 -0.166667 -0.166667 -0.166667      1.000000

 Following cartesian coordinates:
            Coordinates               Weight
  0.000000  0.000000  0.000000      1.000000
  0.037604 -0.021710 -0.015352      1.000000
  0.075207 -0.043421 -0.030703      1.000000
  0.112811 -0.065131 -0.046055      1.000000
 -0.075207  0.043421  0.030703      1.000000
 -0.037604  0.021710  0.015352      1.000000
  0.000000  0.043421 -0.015352      1.000000
  0.037604  0.021710 -0.030703      1.000000
  0.075207  0.000000 -0.046055      1.000000
  0.112811 -0.021710 -0.061406      1.000000
 -0.075207  0.086842  0.015352      1.000000
 -0.037604  0.065131  0.000000      1.000000
  0.000000  0.086842 -0.030703      1.000000
  0.037604  0.065131 -0.046055      1.000000
  0.075207  0.043421 -0.061406      1.000000
  0.112811  0.021710 -0.076758      1.000000
 -0.075207  0.130263  0.000000      1.000000
 -0.037604  0.108552 -0.015352      1.000000
  0.000000  0.130263 -0.046055      1.000000
  0.037604  0.108552 -0.061406      1.000000
  0.075207  0.086842 -0.076758      1.000000
  0.112811  0.065131 -0.092110      1.000000
 -0.075207  0.173684 -0.015352      1.000000
 -0.037604  0.151973 -0.030703      1.000000
 -0.000000 -0.086842  0.030703      1.000000
  0.037604 -0.108552  0.015352      1.000000
  0.075207 -0.130263 -0.000000      1.000000
  0.112811 -0.151973 -0.015352      1.000000
 -0.075207 -0.043421  0.061406      1.000000
 -0.037604 -0.065131  0.046055      1.000000
 -0.000000 -0.043421  0.015352      1.000000
  0.037604 -0.065131 -0.000000      1.000000
  0.075207 -0.086842 -0.015352      1.000000
  0.112811 -0.108552 -0.030703      1.000000
 -0.075207 -0.000000  0.046055      1.000000
 -0.037604 -0.021710  0.030703      1.000000
 -0.000000  0.000000  0.046055      1.000000
  0.037604 -0.021710  0.030703      1.000000
  0.075207 -0.043421  0.015352      1.000000
  0.112811 -0.065131 -0.000000      1.000000
 -0.075207  0.043421  0.076758      1.000000
 -0.037604  0.021710  0.061406      1.000000
 -0.000000  0.043421  0.030703      1.000000
  0.037604  0.021710  0.015352      1.000000
  0.075207  0.000000  0.000000      1.000000
  0.112811 -0.021710 -0.015352      1.000000
 -0.075207  0.086842  0.061406      1.000000
 -0.037604  0.065131  0.046055      1.000000
 -0.000000  0.086842  0.015352      1.000000
  0.037604  0.065131  0.000000      1.000000
  0.075207  0.043421 -0.015352      1.000000
  0.112811  0.021710 -0.030703      1.000000
 -0.075207  0.130263  0.046055      1.000000
 -0.037604  0.108552  0.030703      1.000000
 -0.000000  0.130263  0.000000      1.000000
  0.037604  0.108552 -0.015352      1.000000
  0.075207  0.086842 -0.030703      1.000000
  0.112811  0.065131 -0.046055      1.000000
 -0.075207  0.173684  0.030703      1.000000
 -0.037604  0.151973  0.015352      1.000000
[...]
  0.112811  0.065131 -0.138164      1.000000
 -0.075207  0.173684 -0.061406      1.000000
 -0.037604  0.151973 -0.076758      1.000000
  0.000000 -0.086842 -0.015352      1.000000
  0.037604 -0.108552 -0.030703      1.000000
  0.075207 -0.130263 -0.046055      1.000000
  0.112811 -0.151973 -0.061406      1.000000
 -0.075207 -0.043421  0.015352      1.000000
 -0.037604 -0.065131 -0.000000      1.000000
  0.000000 -0.043421 -0.030703      1.000000
  0.037604 -0.065131 -0.046055      1.000000
  0.075207 -0.086842 -0.061406      1.000000
  0.112811 -0.108552 -0.076758      1.000000
 -0.075207 -0.000000 -0.000000      1.000000
 -0.037604 -0.021710 -0.015352      1.000000

 Subroutine IBZKPT_HF returns following result:

 Found    216 k-points in 1st BZ
 the following    216 k-points will be used (e.g. in the exchange kernel)
 Following reciprocal coordinates:   # in IRBZ
  0.000000  0.000000  0.000000    0.00462963   1 t-inv F
  0.166667  0.000000  0.000000    0.00462963   2 t-inv F
  0.333333 -0.000000  0.000000    0.00462963   3 t-inv F
  0.500000  0.000000  0.000000    0.00462963   4 t-inv F
 -0.333333 -0.000000 -0.000000    0.00462963   5 t-inv F
 -0.166667 -0.000000 -0.000000    0.00462963   6 t-inv F
 -0.000000  0.166667  0.000000    0.00462963   7 t-inv F
  0.166667  0.166667  0.000000    0.00462963   8 t-inv F
  0.333333  0.166667  0.000000    0.00462963   9 t-inv F
  0.500000  0.166667  0.000000    0.00462963  10 t-inv F
 -0.333333  0.166667 -0.000000    0.00462963  11 t-inv F
 -0.166667  0.166667  0.000000    0.00462963  12 t-inv F
 -0.000000  0.333333  0.000000    0.00462963  13 t-inv F
  0.166667  0.333333  0.000000    0.00462963  14 t-inv F
  0.333333  0.333333  0.000000    0.00462963  15 t-inv F
  0.500000  0.333333  0.000000    0.00462963  16 t-inv F
 -0.333333  0.333333 -0.000000    0.00462963  17 t-inv F
 -0.166667  0.333333  0.000000    0.00462963  18 t-inv F
  0.000000  0.500000  0.000000    0.00462963  19 t-inv F
  0.166667  0.500000  0.000000    0.00462963  20 t-inv F
  0.333333  0.500000  0.000000    0.00462963  21 t-inv F
  0.500000  0.500000  0.000000    0.00462963  22 t-inv F
 -0.333333  0.500000  0.000000    0.00462963  23 t-inv F
 -0.166667  0.500000 -0.000000    0.00462963  24 t-inv F
  0.000000 -0.333333  0.000000    0.00462963  25 t-inv F
  0.166667 -0.333333  0.000000    0.00462963  26 t-inv F
  0.333333 -0.333333  0.000000    0.00462963  27 t-inv F
  0.500000 -0.333333  0.000000    0.00462963  28 t-inv F
 -0.333333 -0.333333 -0.000000    0.00462963  29 t-inv F
 -0.166667 -0.333333 -0.000000    0.00462963  30 t-inv F
  0.000000 -0.166667  0.000000    0.00462963  31 t-inv F
  0.166667 -0.166667 -0.000000    0.00462963  32 t-inv F
  0.333333 -0.166667  0.000000    0.00462963  33 t-inv F
  0.500000 -0.166667  0.000000    0.00462963  34 t-inv F
 -0.333333 -0.166667 -0.000000    0.00462963  35 t-inv F
 -0.166667 -0.166667 -0.000000    0.00462963  36 t-inv F
 -0.000000 -0.000000  0.166667    0.00462963  37 t-inv F
  0.166667  0.000000  0.166667    0.00462963  38 t-inv F
  0.333333 -0.000000  0.166667    0.00462963  39 t-inv F
  0.500000  0.000000  0.166667    0.00462963  40 t-inv F
 -0.333333 -0.000000  0.166667    0.00462963  41 t-inv F
 -0.166667  0.000000  0.166667    0.00462963  42 t-inv F
 -0.000000  0.166667  0.166667    0.00462963  43 t-inv F
  0.166667  0.166667  0.166667    0.00462963  44 t-inv F
  0.333333  0.166667  0.166667    0.00462963  45 t-inv F
  0.500000  0.166667  0.166667    0.00462963  46 t-inv F
 -0.333333  0.166667  0.166667    0.00462963  47 t-inv F
 -0.166667  0.166667  0.166667    0.00462963  48 t-inv F
 -0.000000  0.333333  0.166667    0.00462963  49 t-inv F
  0.166667  0.333333  0.166667    0.00462963  50 t-inv F
  0.333333  0.333333  0.166667    0.00462963  51 t-inv F
[...]
   42.399370    0.871737    0.871739    0.871739   -0.000001   -0.000001   -0.000001
   43.264663    0.875991    0.875993    0.875993   -0.000001   -0.000001   -0.000001
   44.129956    0.887076    0.887077    0.887078   -0.000001   -0.000000   -0.000001
   44.995249    0.880563    0.880565    0.880565   -0.000002   -0.000001   -0.000001
   45.860543    0.889420    0.889422    0.889422   -0.000001   -0.000000   -0.000001
   46.725836    0.893501    0.893502    0.893502   -0.000001   -0.000000   -0.000001
   47.591129    0.899085    0.899086    0.899087   -0.000001   -0.000000   -0.000001
   48.456422    0.905249    0.905250    0.905250   -0.000001   -0.000000   -0.000001
   49.321716    0.909179    0.909180    0.909181   -0.000001   -0.000000   -0.000001
   50.187009    0.911403    0.911404    0.911404   -0.000001   -0.000000   -0.000001
   51.052302    0.912344    0.912345    0.912345   -0.000001   -0.000000   -0.000001
[...]
   73.549927    0.959863    0.959864    0.959864   -0.000000   -0.000000   -0.000000
   74.415220    0.960890    0.960890    0.960890   -0.000000   -0.000000   -0.000000
   75.280513    0.961868    0.961869    0.961869   -0.000000   -0.000000   -0.000000
   76.145807    0.962805    0.962805    0.962805   -0.000000   -0.000000   -0.000000
   77.011100    0.963703    0.963703    0.963703   -0.000000   -0.000000   -0.000000
   77.876393    0.964565    0.964566    0.964566   -0.000000   -0.000000   -0.000000
   78.741686    0.965395    0.965395    0.965395   -0.000000   -0.000000   -0.000000
   79.606980    0.966194    0.966194    0.966194   -0.000000   -0.000000   -0.000000
   80.472273    0.966963    0.966964    0.966964   -0.000000   -0.000000   -0.000000
   81.337566    0.967705    0.967706    0.967706   -0.000000   -0.000000   -0.000000
   82.202859    0.968422    0.968422    0.968422   -0.000000   -0.000000   -0.000000
   83.068153    0.969113    0.969114    0.969114   -0.000000   -0.000000   -0.000000
   83.933446    0.969782    0.969782    0.969782   -0.000000   -0.000000   -0.000000
   84.798739    0.970428    0.970428    0.970428   -0.000000   -0.000000   -0.000000
   85.664032    0.971052    0.971053    0.971053   -0.000000   -0.000000   -0.000000

  frequency dependent IMAGINARY DIELECTRIC FUNCTION (independent particle, no local field effects) current-current (2nd set in vasprun.xml)
     E(ev)      X         Y         Z        XY        YZ        ZX
    0.000000    3.152434    3.152394    3.152383    0.000035    0.000014    0.000025
    0.865293    0.319448    0.319444    0.319443    0.000004    0.000001    0.000003
    1.730587    0.166411    0.166409    0.166409    0.000002    0.000001    0.000001
    2.595880    0.119160    0.119158    0.119158    0.000001    0.000001    0.000001
    3.461173    0.099522    0.099521    0.099520    0.000001    0.000001    0.000001
    4.326466    0.092938    0.092936    0.092936    0.000001    0.000001    0.000001
    5.191760    0.097106    0.097105    0.097104    0.000002    0.000001    0.000001
    6.057053    0.124788    0.124785    0.124784    0.000003    0.000001    0.000002
    6.922346    0.261636    0.261625    0.261622    0.000010    0.000004    0.000007
    7.787639    0.675222    0.675204    0.675200    0.000016    0.000006    0.000011
    8.652933    2.847049    2.846943    2.846917    0.000092    0.000038    0.000065
    9.518226    3.647542    3.647479    3.647461    0.000055    0.000023    0.000039
   10.383519    3.622368    3.623444    3.623672   -0.000921   -0.000370   -0.000651
   11.248812    2.768743    2.768753    2.768753   -0.000009   -0.000004   -0.000006
   12.114106    2.573999    2.574074    2.574093   -0.000063   -0.000024   -0.000044
   12.979399    1.682500    1.682493    1.682494    0.000005    0.000002    0.000004
   13.844692    1.253415    1.253443    1.253449   -0.000023   -0.000009   -0.000017
   14.709985    0.903190    0.903188    0.903188    0.000001    0.000000    0.000001
   15.575279    0.837498    0.836925    0.836816    0.000493    0.000200    0.000348
   16.440572    0.851184    0.851196    0.851199   -0.000011   -0.000006   -0.000008
   17.305865    1.103372    1.103445    1.103443   -0.000065   -0.000027   -0.000046
   18.171158    0.642309    0.642312    0.642313   -0.000002   -0.000001   -0.000002
   19.036452    0.259633    0.259643    0.259645   -0.000009   -0.000004   -0.000006
   19.901745    0.520108    0.520120    0.520125   -0.000010   -0.000004   -0.000007
   20.767038    0.346527    0.346512    0.346510    0.000012    0.000005    0.000009
   21.632331    0.211500    0.211523    0.211530   -0.000020   -0.000009   -0.000014
   22.497625    0.137406    0.137400    0.137399    0.000005    0.000002    0.000003
   23.362918    0.144082    0.144073    0.144071    0.000008    0.000003    0.000006
   24.228211    0.164409    0.164399    0.164397    0.000009    0.000004    0.000006
   25.093504    0.069193    0.069190    0.069190    0.000003    0.000001    0.000002
   25.958798    0.051318    0.051316    0.051315    0.000002    0.000001    0.000001
   26.824091    0.054957    0.054952    0.054951    0.000004    0.000002    0.000003
   27.689384    0.044034    0.044033    0.044033    0.000001    0.000000    0.000001
   28.554677    0.054660    0.054658    0.054658    0.000001    0.000001    0.000001
   29.419971    0.055379    0.055375    0.055375    0.000003    0.000001    0.000002
   30.285264    0.064931    0.064901    0.064908    0.000026    0.000012    0.000018
   31.150557    0.078512    0.078510    0.078509    0.000002    0.000001    0.000002
   32.015851    0.053670    0.053665    0.053664    0.000005    0.000002    0.000003
   32.881144    0.029245    0.029242    0.029242    0.000002    0.000001    0.000002
   33.746437    0.022437    0.022441    0.022441   -0.000003   -0.000001   -0.000002
   34.611730    0.022140    0.022139    0.022138    0.000001    0.000000    0.000001
   35.477024    0.017929    0.017928    0.017928    0.000001    0.000000    0.000001
   36.342317    0.021131    0.021129    0.021129    0.000001    0.000001    0.000001
   37.207610    0.018091    0.018090    0.018090    0.000001    0.000000    0.000001
   38.072903    0.024766    0.024766    0.024766    0.000000    0.000000    0.000000
   38.938197    0.010479    0.010479    0.010479    0.000001    0.000000    0.000000
   39.803490    0.009556    0.009556    0.009556    0.000000    0.000000    0.000000
   40.668783    0.003831    0.003830    0.003830    0.000000    0.000000    0.000000
   41.534076    0.013980    0.013980    0.013980    0.000000    0.000000    0.000000
   42.399370    0.005718    0.005718    0.005718    0.000000    0.000000    0.000000
   43.264663    0.007334    0.007334    0.007334    0.000000    0.000000    0.000000
   44.129956    0.009307    0.009306    0.009306    0.000000    0.000000    0.000000
   44.995249    0.009326    0.009326    0.009326    0.000000    0.000000    0.000000
   45.860543    0.007927    0.007927    0.007927   -0.000000   -0.000000   -0.000000
   46.725836    0.003580    0.003580    0.003580    0.000000    0.000000    0.000000
   47.591129    0.003178    0.003178    0.003178    0.000000    0.000000    0.000000
   48.456422    0.004528    0.004528    0.004528    0.000000    0.000000    0.000000
   49.321716    0.005109    0.005108    0.005108    0.000000    0.000000    0.000000
   50.187009    0.008791    0.008791    0.008791    0.000000    0.000000    0.000000
   51.052302    0.005713    0.005713    0.005713   -0.000000   -0.000000   -0.000000
[...]
   73.549927    0.000013    0.000013    0.000013    0.000000    0.000000    0.000000
   74.415220    0.000011    0.000011    0.000011    0.000000    0.000000    0.000000
   75.280513    0.000009    0.000009    0.000009    0.000000    0.000000    0.000000
   76.145807    0.000008    0.000008    0.000008    0.000000    0.000000    0.000000
   77.011100    0.000007    0.000007    0.000007    0.000000    0.000000    0.000000
   77.876393    0.000007    0.000007    0.000007    0.000000    0.000000    0.000000
   78.741686    0.000006    0.000006    0.000006    0.000000    0.000000    0.000000
   79.606980    0.000006    0.000006    0.000006    0.000000    0.000000    0.000000
   80.472273    0.000005    0.000005    0.000005    0.000000    0.000000    0.000000
   81.337566    0.000005    0.000005    0.000005    0.000000    0.000000    0.000000
   82.202859    0.000005    0.000005    0.000005    0.000000    0.000000    0.000000
   83.068153    0.000004    0.000004    0.000004    0.000000    0.000000    0.000000
   83.933446    0.000004    0.000004    0.000004    0.000000    0.000000    0.000000
   84.798739    0.000004    0.000004    0.000004    0.000000    0.000000    0.000000
   85.664032    0.000003    0.000003    0.000003    0.000000    0.000000    0.000000

  frequency dependent      REAL DIELECTRIC FUNCTION (independent particle, no local field effects) current-current (2nd set in vasprun.xml)
     E(ev)        X           Y           Z          XY          YZ          ZX
    0.000000    2.363314    2.363297    2.363292    0.000015    0.000006    0.000011
    0.865293    2.372364    2.372347    2.372342    0.000015    0.000006    0.000011
    1.730587    2.400685    2.400666    2.400662    0.000016    0.000006    0.000011
    2.595880    2.451140    2.451121    2.451116    0.000017    0.000007    0.000012
    3.461173    2.529724    2.529703    2.529698    0.000018    0.000007    0.000013
    4.326466    2.647960    2.647936    2.647930    0.000020    0.000008    0.000014
    5.191760    2.830049    2.830021    2.830014    0.000024    0.000010    0.000017
    6.057053    3.146340    3.146303    3.146294    0.000032    0.000013    0.000023
    6.922346    3.748887    3.748823    3.748808    0.000055    0.000023    0.000039
    7.787639    4.169940    4.169879    4.169865    0.000052    0.000021    0.000037
    8.652933    3.709138    3.709177    3.709184   -0.000034   -0.000014   -0.000024
    9.518226    3.125595    3.125593    3.125590    0.000000   -0.000002    0.000000
   10.383519    2.050048    2.051323    2.051600   -0.001093   -0.000441   -0.000773
   11.248812    0.842096    0.842124    0.842133   -0.000024   -0.000010   -0.000017
   12.114106   -1.015126   -1.015119   -1.015120   -0.000007   -0.000003   -0.000005
   12.979399   -0.485942   -0.485938   -0.485939   -0.000004   -0.000002   -0.000003
   13.844692   -0.444713   -0.444701   -0.444699   -0.000010   -0.000004   -0.000007
   14.709985   -0.055987   -0.055984   -0.055983   -0.000003   -0.000001   -0.000002
   15.575279    0.007541    0.007427    0.007407    0.000098    0.000039    0.000069
   16.440572    0.165337    0.165308    0.165302    0.000026    0.000012    0.000019
   17.305865    0.271864    0.271864    0.271862   -0.000001   -0.000000   -0.000000
   18.171158    0.042432    0.042411    0.042407    0.000018    0.000007    0.000012
   19.036452    0.150485    0.150469    0.150466    0.000013    0.000005    0.000009
   19.901745    0.289096    0.289056    0.289044    0.000035    0.000015    0.000025
   20.767038    0.385643    0.385642    0.385641    0.000001    0.000001    0.000001
   21.632331    0.297560    0.297546    0.297546    0.000012    0.000005    0.000008
   22.497625    0.354504    0.354502    0.354501    0.000002    0.000001    0.000002
   23.362918    0.528861    0.528856    0.528855    0.000004    0.000002    0.000003
   24.228211    0.485732    0.485739    0.485740   -0.000006   -0.000002   -0.000004
   25.093504    0.543915    0.543919    0.543919   -0.000003   -0.000001   -0.000002
   25.958798    0.570868    0.570872    0.570873   -0.000003   -0.000001   -0.000002
   26.824091    0.638590    0.638594    0.638595   -0.000003   -0.000001   -0.000002
   27.689384    0.664352    0.664354    0.664354   -0.000001   -0.000001   -0.000001
   28.554677    0.711223    0.711221    0.711221    0.000002    0.000001    0.000001
   29.419971    0.716652    0.716654    0.716655   -0.000002   -0.000001   -0.000001
   30.285264    0.735690    0.735706    0.735692   -0.000014   -0.000007   -0.000010
   31.150557    0.731554    0.731557    0.731558   -0.000003   -0.000001   -0.000002
   32.015851    0.752478    0.752485    0.752486   -0.000005   -0.000002   -0.000004
   32.881144    0.764604    0.764610    0.764611   -0.000005   -0.000002   -0.000003
   33.746437    0.769406    0.769407    0.769408   -0.000001   -0.000000   -0.000001
   34.611730    0.791062    0.791064    0.791065   -0.000002   -0.000001   -0.000001
   35.477024    0.801435    0.801436    0.801437   -0.000002   -0.000001   -0.000001
   36.342317    0.820485    0.820488    0.820489   -0.000002   -0.000001   -0.000002
   37.207610    0.816508    0.816511    0.816512   -0.000002   -0.000001   -0.000002
   38.072903    0.827949    0.827951    0.827951   -0.000002   -0.000001   -0.000001
   38.938197    0.831290    0.831292    0.831292   -0.000002   -0.000001   -0.000001
   39.803490    0.844174    0.844176    0.844176   -0.000002   -0.000001   -0.000001
   40.668783    0.855255    0.855257    0.855257   -0.000001   -0.000001   -0.000001
   41.534076    0.862715    0.862717    0.862717   -0.000002   -0.000001   -0.000001
   42.399370    0.871768    0.871769    0.871770   -0.000001   -0.000001   -0.000001
   43.264663    0.876009    0.876011    0.876012   -0.000001   -0.000001   -0.000001
   44.129956    0.887086    0.887087    0.887088   -0.000001   -0.000000   -0.000001
   44.995249    0.880570    0.880571    0.880572   -0.000002   -0.000001   -0.000001
   45.860543    0.889434    0.889435    0.889435   -0.000001   -0.000001   -0.000001
   46.725836    0.893528    0.893529    0.893529   -0.000001   -0.000000   -0.000001
   47.591129    0.899111    0.899112    0.899112   -0.000001   -0.000000   -0.000001
   48.456422    0.905270    0.905271    0.905271   -0.000001   -0.000000   -0.000001
   49.321716    0.909196    0.909197    0.909197   -0.000001   -0.000000   -0.000001
   50.187009    0.911406    0.911407    0.911407   -0.000001   -0.000000   -0.000001
   51.052302    0.912358    0.912359    0.912359   -0.000001   -0.000000   -0.000001
[...]
   73.549927    0.959880    0.959881    0.959881   -0.000000   -0.000000   -0.000000
   74.415220    0.960907    0.960907    0.960907   -0.000000   -0.000000   -0.000000
   75.280513    0.961885    0.961885    0.961885   -0.000000   -0.000000   -0.000000
   76.145807    0.962821    0.962821    0.962821   -0.000000   -0.000000   -0.000000
   77.011100    0.963718    0.963719    0.963719   -0.000000   -0.000000   -0.000000
   77.876393    0.964581    0.964581    0.964581   -0.000000   -0.000000   -0.000000
   78.741686    0.965410    0.965410    0.965410   -0.000000   -0.000000   -0.000000
   79.606980    0.966208    0.966209    0.966209   -0.000000   -0.000000   -0.000000
   80.472273    0.966978    0.966978    0.966978   -0.000000   -0.000000   -0.000000
   81.337566    0.967720    0.967720    0.967720   -0.000000   -0.000000   -0.000000
   82.202859    0.968436    0.968436    0.968436   -0.000000   -0.000000   -0.000000
   83.068153    0.969127    0.969127    0.969127   -0.000000   -0.000000   -0.000000
   83.933446    0.969795    0.969795    0.969795   -0.000000   -0.000000   -0.000000
   84.798739    0.970441    0.970441    0.970441   -0.000000   -0.000000   -0.000000
   85.664032    0.971065    0.971065    0.971066   -0.000000   -0.000000   -0.000000

 The outermost node in the dielectric function lies at epsilon=  18.9

 Spin-Orbit-Coupling matrix elements

 Ion:    1  E_soc:     -0.2839408
 l=   1
     0.0000000    -0.0473190    -0.0473190
    -0.0473190     0.0000000    -0.0473190
    -0.0473190    -0.0473190     0.0000000
 l=   2
     0.0000000    -0.0000009     0.0000000    -0.0000009    -0.0000036
    -0.0000009     0.0000000    -0.0000027    -0.0000008    -0.0000009
     0.0000000    -0.0000027     0.0000000    -0.0000027     0.0000000
    -0.0000009    -0.0000008    -0.0000027     0.0000000    -0.0000009
    -0.0000036    -0.0000009     0.0000000    -0.0000009     0.0000000
 l=   3
     0.0000000     0.0000000     0.0000000     0.0000000     0.0000000     0.0000000    -0.0000000
     0.0000000     0.0000000    -0.0000000     0.0000000    -0.0000000    -0.0000000    -0.0000000
     0.0000000    -0.0000000     0.0000000    -0.0000000    -0.0000000    -0.0000000     0.0000000
     0.0000000     0.0000000    -0.0000000     0.0000000    -0.0000000     0.0000000     0.0000000
     0.0000000    -0.0000000    -0.0000000    -0.0000000     0.0000000    -0.0000000     0.0000000
     0.0000000    -0.0000000    -0.0000000     0.0000000    -0.0000000     0.0000000    -0.0000000
    -0.0000000    -0.0000000     0.0000000     0.0000000     0.0000000    -0.0000000     0.0000000