 vasp.5.4.4.18Apr17-6-g9f103f2a35 (build Jul 09 2018 16:43:14) complex

 executed on             LinuxIFC date 2018.11.22  03:40:31

 INCAR:
 POTCAR:    PAW_PBE Rn_d_GW 14Apr2014

 POTCAR:    PAW_PBE Rn_d_GW 14Apr2014
   VRHFIN =Rn:

   TITEL  = PAW_PBE Rn_d_GW 14Apr2014
   POMASS =  220.170; ZVAL   =   18.000    mass and valenz
   ENMAX  =  268.495; ENMIN  =  201.371 eV

  PAW_PBE Rn_d_GW 14Apr2014             :

 POSCAR: Rn_FCC
  positions in direct lattice
  velocities in cartesian coordinates
 exchange correlation table for  LEXCH =        8
   RHO(1)=    0.500       N(1)  =     2000
   RHO(2)=  100.500       N(2)  =     4000

 ion  position               nearest neighbor table
   1  0.000  0.000  0.000-

IMPORTANT INFORMATION: All symmetrisations will be switched off!
NOSYMM: (Re-)initialisation of all symmetry stuff for point group C_1.

 KPOINTS: k-points

Automatic generation of k-mesh.
Space group operators:
 irot       det(A)        alpha          n_x          n_y          n_z        tau_x        tau_y        tau_z
    1     1.000000     0.000000     1.000000     0.000000     0.000000     0.000000     0.000000     0.000000

 Subroutine IBZKPT returns following result:

 Found    216 irreducible k-points:

 Following reciprocal coordinates:
            Coordinates               Weight
  0.000000  0.000000  0.000000      1.000000
  0.166667  0.000000  0.000000      1.000000
  0.333333  0.000000  0.000000      1.000000
  0.500000  0.000000  0.000000      1.000000
 -0.333333 -0.000000 -0.000000      1.000000
 -0.166667 -0.000000  0.000000      1.000000
  0.000000  0.166667  0.000000      1.000000
  0.166667  0.166667  0.000000      1.000000
  0.333333  0.166667  0.000000      1.000000
  0.500000  0.166667  0.000000      1.000000
 -0.333333  0.166667  0.000000      1.000000
 -0.166667  0.166667  0.000000      1.000000
  0.000000  0.333333  0.000000      1.000000
  0.166667  0.333333  0.000000      1.000000
  0.333333  0.333333  0.000000      1.000000
  0.500000  0.333333  0.000000      1.000000
 -0.333333  0.333333 -0.000000      1.000000
 -0.166667  0.333333 -0.000000      1.000000
  0.000000  0.500000  0.000000      1.000000
  0.166667  0.500000  0.000000      1.000000
  0.333333  0.500000  0.000000      1.000000
  0.500000  0.500000 -0.000000      1.000000
 -0.333333  0.500000 -0.000000      1.000000
 -0.166667  0.500000  0.000000      1.000000
 -0.000000 -0.333333  0.000000      1.000000
  0.166667 -0.333333  0.000000      1.000000
  0.333333 -0.333333  0.000000      1.000000
  0.500000 -0.333333 -0.000000      1.000000
 -0.333333 -0.333333 -0.000000      1.000000
 -0.166667 -0.333333  0.000000      1.000000
 -0.000000 -0.166667 -0.000000      1.000000
  0.166667 -0.166667  0.000000      1.000000
  0.333333 -0.166667  0.000000      1.000000
  0.500000 -0.166667  0.000000      1.000000
 -0.333333 -0.166667 -0.000000      1.000000
 -0.166667 -0.166667  0.000000      1.000000
 -0.000000 -0.000000  0.166667      1.000000
  0.166667  0.000000  0.166667      1.000000
  0.333333  0.000000  0.166667      1.000000
  0.500000  0.000000  0.166667      1.000000
 -0.333333 -0.000000  0.166667      1.000000
 -0.166667 -0.000000  0.166667      1.000000
  0.000000  0.166667  0.166667      1.000000
  0.166667  0.166667  0.166667      1.000000
  0.333333  0.166667  0.166667      1.000000
  0.500000  0.166667  0.166667      1.000000
 -0.333333  0.166667  0.166667      1.000000
 -0.166667  0.166667  0.166667      1.000000
  0.000000  0.333333  0.166667      1.000000
  0.166667  0.333333  0.166667      1.000000
  0.333333  0.333333  0.166667      1.000000
  0.500000  0.333333  0.166667      1.000000
 -0.333333  0.333333  0.166667      1.000000
 -0.166667  0.333333  0.166667      1.000000
  0.000000  0.500000  0.166667      1.000000
  0.166667  0.500000  0.166667      1.000000
  0.333333  0.500000  0.166667      1.000000
  0.500000  0.500000  0.166667      1.000000
 -0.333333  0.500000  0.166667      1.000000
 -0.166667  0.500000  0.166667      1.000000
[...]
  0.500000  0.500000 -0.166667      1.000000
 -0.333333  0.500000 -0.166667      1.000000
 -0.166667  0.500000 -0.166667      1.000000
 -0.000000 -0.333333 -0.166667      1.000000
  0.166667 -0.333333 -0.166667      1.000000
  0.333333 -0.333333 -0.166667      1.000000
  0.500000 -0.333333 -0.166667      1.000000
 -0.333333 -0.333333 -0.166667      1.000000
 -0.166667 -0.333333 -0.166667      1.000000
  0.000000 -0.166667 -0.166667      1.000000
  0.166667 -0.166667 -0.166667      1.000000
  0.333333 -0.166667 -0.166667      1.000000
  0.500000 -0.166667 -0.166667      1.000000
 -0.333333 -0.166667 -0.166667      1.000000
 -0.166667 -0.166667 -0.166667      1.000000

 Following cartesian coordinates:
            Coordinates               Weight
  0.000000  0.000000  0.000000      1.000000
  0.036869 -0.021286 -0.015052      1.000000
  0.073737 -0.042572 -0.030103      1.000000
  0.110606 -0.063858 -0.045155      1.000000
 -0.073737  0.042572  0.030103      1.000000
 -0.036869  0.021286  0.015052      1.000000
  0.000000  0.042572 -0.015052      1.000000
  0.036869  0.021286 -0.030103      1.000000
  0.073737  0.000000 -0.045155      1.000000
  0.110606 -0.021286 -0.060206      1.000000
 -0.073737  0.085144  0.015052      1.000000
 -0.036869  0.063858  0.000000      1.000000
  0.000000  0.085144 -0.030103      1.000000
  0.036869  0.063858 -0.045155      1.000000
  0.073737  0.042572 -0.060206      1.000000
  0.110606  0.021286 -0.075258      1.000000
 -0.073737  0.127716  0.000000      1.000000
 -0.036869  0.106430 -0.015052      1.000000
  0.000000  0.127716 -0.045155      1.000000
  0.036869  0.106430 -0.060206      1.000000
  0.073737  0.085144 -0.075258      1.000000
  0.110606  0.063858 -0.090309      1.000000
 -0.073737  0.170289 -0.015052      1.000000
 -0.036869  0.149002 -0.030103      1.000000
 -0.000000 -0.085144  0.030103      1.000000
  0.036869 -0.106430  0.015052      1.000000
  0.073737 -0.127716 -0.000000      1.000000
  0.110606 -0.149002 -0.015052      1.000000
 -0.073737 -0.042572  0.060206      1.000000
 -0.036869 -0.063858  0.045155      1.000000
 -0.000000 -0.042572  0.015052      1.000000
  0.036869 -0.063858 -0.000000      1.000000
  0.073737 -0.085144 -0.015052      1.000000
  0.110606 -0.106430 -0.030103      1.000000
 -0.073737  0.000000  0.045155      1.000000
 -0.036869 -0.021286  0.030103      1.000000
 -0.000000  0.000000  0.045155      1.000000
  0.036869 -0.021286  0.030103      1.000000
  0.073737 -0.042572  0.015052      1.000000
  0.110606 -0.063858 -0.000000      1.000000
 -0.073737  0.042572  0.075258      1.000000
 -0.036869  0.021286  0.060206      1.000000
 -0.000000  0.042572  0.030103      1.000000
  0.036869  0.021286  0.015052      1.000000
  0.073737  0.000000  0.000000      1.000000
  0.110606 -0.021286 -0.015052      1.000000
 -0.073737  0.085144  0.060206      1.000000
 -0.036869  0.063858  0.045155      1.000000
 -0.000000  0.085144  0.015052      1.000000
  0.036869  0.063858  0.000000      1.000000
  0.073737  0.042572 -0.015052      1.000000
  0.110606  0.021286 -0.030103      1.000000
 -0.073737  0.127716  0.045155      1.000000
 -0.036869  0.106430  0.030103      1.000000
 -0.000000  0.127716  0.000000      1.000000
  0.036869  0.106430 -0.015052      1.000000
  0.073737  0.085144 -0.030103      1.000000
  0.110606  0.063858 -0.045155      1.000000
 -0.073737  0.170289  0.030103      1.000000
 -0.036869  0.149002  0.015052      1.000000
[...]
  0.110606  0.063858 -0.135464      1.000000
 -0.073737  0.170289 -0.060206      1.000000
 -0.036869  0.149002 -0.075258      1.000000
  0.000000 -0.085144 -0.015052      1.000000
  0.036869 -0.106430 -0.030103      1.000000
  0.073737 -0.127716 -0.045155      1.000000
  0.110606 -0.149002 -0.060206      1.000000
 -0.073737 -0.042572  0.015052      1.000000
 -0.036869 -0.063858 -0.000000      1.000000
  0.000000 -0.042572 -0.030103      1.000000
  0.036869 -0.063858 -0.045155      1.000000
  0.073737 -0.085144 -0.060206      1.000000
  0.110606 -0.106430 -0.075258      1.000000
 -0.073737  0.000000  0.000000      1.000000
 -0.036869 -0.021286 -0.015052      1.000000

 Subroutine IBZKPT_HF returns following result:

 Found    216 k-points in 1st BZ
 the following    216 k-points will be used (e.g. in the exchange kernel)
 Following reciprocal coordinates:   # in IRBZ
  0.000000  0.000000  0.000000    0.00462963   1 t-inv F
  0.166667  0.000000  0.000000    0.00462963   2 t-inv F
  0.333333  0.000000  0.000000    0.00462963   3 t-inv F
  0.500000  0.000000  0.000000    0.00462963   4 t-inv F
 -0.333333 -0.000000 -0.000000    0.00462963   5 t-inv F
 -0.166667 -0.000000  0.000000    0.00462963   6 t-inv F
  0.000000  0.166667  0.000000    0.00462963   7 t-inv F
  0.166667  0.166667  0.000000    0.00462963   8 t-inv F
  0.333333  0.166667  0.000000    0.00462963   9 t-inv F
  0.500000  0.166667  0.000000    0.00462963  10 t-inv F
 -0.333333  0.166667  0.000000    0.00462963  11 t-inv F
 -0.166667  0.166667  0.000000    0.00462963  12 t-inv F
  0.000000  0.333333  0.000000    0.00462963  13 t-inv F
  0.166667  0.333333  0.000000    0.00462963  14 t-inv F
  0.333333  0.333333  0.000000    0.00462963  15 t-inv F
  0.500000  0.333333  0.000000    0.00462963  16 t-inv F
 -0.333333  0.333333 -0.000000    0.00462963  17 t-inv F
 -0.166667  0.333333 -0.000000    0.00462963  18 t-inv F
  0.000000  0.500000  0.000000    0.00462963  19 t-inv F
  0.166667  0.500000  0.000000    0.00462963  20 t-inv F
  0.333333  0.500000  0.000000    0.00462963  21 t-inv F
  0.500000  0.500000 -0.000000    0.00462963  22 t-inv F
 -0.333333  0.500000 -0.000000    0.00462963  23 t-inv F
 -0.166667  0.500000  0.000000    0.00462963  24 t-inv F
 -0.000000 -0.333333  0.000000    0.00462963  25 t-inv F
  0.166667 -0.333333  0.000000    0.00462963  26 t-inv F
  0.333333 -0.333333  0.000000    0.00462963  27 t-inv F
  0.500000 -0.333333 -0.000000    0.00462963  28 t-inv F
 -0.333333 -0.333333 -0.000000    0.00462963  29 t-inv F
 -0.166667 -0.333333  0.000000    0.00462963  30 t-inv F
 -0.000000 -0.166667 -0.000000    0.00462963  31 t-inv F
  0.166667 -0.166667  0.000000    0.00462963  32 t-inv F
  0.333333 -0.166667  0.000000    0.00462963  33 t-inv F
  0.500000 -0.166667  0.000000    0.00462963  34 t-inv F
 -0.333333 -0.166667 -0.000000    0.00462963  35 t-inv F
 -0.166667 -0.166667  0.000000    0.00462963  36 t-inv F
 -0.000000 -0.000000  0.166667    0.00462963  37 t-inv F
  0.166667  0.000000  0.166667    0.00462963  38 t-inv F
  0.333333  0.000000  0.166667    0.00462963  39 t-inv F
  0.500000  0.000000  0.166667    0.00462963  40 t-inv F
 -0.333333 -0.000000  0.166667    0.00462963  41 t-inv F
 -0.166667 -0.000000  0.166667    0.00462963  42 t-inv F
  0.000000  0.166667  0.166667    0.00462963  43 t-inv F
  0.166667  0.166667  0.166667    0.00462963  44 t-inv F
  0.333333  0.166667  0.166667    0.00462963  45 t-inv F
  0.500000  0.166667  0.166667    0.00462963  46 t-inv F
 -0.333333  0.166667  0.166667    0.00462963  47 t-inv F
 -0.166667  0.166667  0.166667    0.00462963  48 t-inv F
  0.000000  0.333333  0.166667    0.00462963  49 t-inv F
[...]
 k-point 45 :   0.3333 0.1667 0.1667  plane waves:    1534
 k-point 46 :   0.5000 0.1667 0.1667  plane waves:    1546
 k-point 47 :  -0.3333 0.1667 0.1667  plane waves:    1544
 k-point 48 :  -0.1667 0.1667 0.1667  plane waves:    1546
 k-point 49 :   0.0000 0.3333 0.1667  plane waves:    1546
 k-point 50 :   0.1667 0.3333 0.1667  plane waves:    1534
 k-point 51 :   0.3333 0.3333 0.1667  plane waves:    1546
 k-point 52 :   0.5000 0.3333 0.1667  plane waves:    1526
 k-point 53 :  -0.3333 0.3333 0.1667  plane waves:    1520
 k-point 54 :  -0.1667 0.3333 0.1667  plane waves:    1526
 k-point 55 :   0.0000 0.5000 0.1667  plane waves:    1544
 k-point 56 :   0.1667 0.5000 0.1667  plane waves:    1546
 k-point 57 :   0.3333 0.5000 0.1667  plane waves:    1526
 k-point 58 :   0.5000 0.5000 0.1667  plane waves:    1538
 k-point 59 :  -0.3333 0.5000 0.1667  plane waves:    1536
 k-point 60 :  -0.1667 0.5000 0.1667  plane waves:    1520
[...]
 k-point 85 :  -0.0000 0.3333 0.3333  plane waves:    1538
 k-point 86 :   0.1667 0.3333 0.3333  plane waves:    1546
 k-point 87 :   0.3333 0.3333 0.3333  plane waves:    1538
 k-point 88 :   0.5000 0.3333 0.3333  plane waves:    1546
 k-point 89 :  -0.3333 0.3333 0.3333  plane waves:    1552
 k-point 90 :  -0.1667 0.3333 0.3333  plane waves:    1538
 k-point 91 :   0.0000 0.5000 0.3333  plane waves:    1538
 k-point 92 :   0.1667 0.5000 0.3333  plane waves:    1526
 k-point 93 :   0.3333 0.5000 0.3333  plane waves:    1546
 k-point 94 :   0.5000 0.5000 0.3333  plane waves:    1544
 k-point 95 :  -0.3333 0.5000 0.3333  plane waves:    1520
 k-point 96 :  -0.1667 0.5000 0.3333  plane waves:    1536
 k-point 97 :  -0.0000-0.3333 0.3333  plane waves:    1552
 k-point 98 :   0.1667-0.3333 0.3333  plane waves:    1520
 k-point 99 :   0.3333-0.3333 0.3333  plane waves:    1552
 k-point ** :   0.5000-0.3333 0.3333  plane waves:    1520
 k-point ** :  -0.3333-0.3333 0.3333  plane waves:    1552
 k-point ** :  -0.1667-0.3333 0.3333  plane waves:    1520
 k-point ** :  -0.0000-0.1667 0.3333  plane waves:    1546
 k-point ** :   0.1667-0.1667 0.3333  plane waves:    1526
 k-point ** :   0.3333-0.1667 0.3333  plane waves:    1538
 k-point ** :   0.5000-0.1667 0.3333  plane waves:    1536
 k-point ** :  -0.3333-0.1667 0.3333  plane waves:    1520
 k-point ** :  -0.1667-0.1667 0.3333  plane waves:    1544
 k-point ** :  -0.0000-0.0000 0.5000  plane waves:    1556
 k-point ** :   0.1667 0.0000 0.5000  plane waves:    1544
 k-point ** :   0.3333 0.0000 0.5000  plane waves:    1538
 k-point ** :   0.5000 0.0000 0.5000  plane waves:    1548
 k-point ** :  -0.3333-0.0000 0.5000  plane waves:    1538
 k-point ** :  -0.1667-0.0000 0.5000  plane waves:    1544
 k-point ** :  -0.0000 0.1667 0.5000  plane waves:    1544
 k-point ** :   0.1667 0.1667 0.5000  plane waves:    1546
 k-point ** :   0.3333 0.1667 0.5000  plane waves:    1526
 k-point ** :   0.5000 0.1667 0.5000  plane waves:    1538
 k-point ** :  -0.3333 0.1667 0.5000  plane waves:    1536
 k-point ** :  -0.1667 0.1667 0.5000  plane waves:    1520
 k-point ** :  -0.0000 0.3333 0.5000  plane waves:    1538
 k-point ** :   0.1667 0.3333 0.5000  plane waves:    1526
 k-point ** :   0.3333 0.3333 0.5000  plane waves:    1546
 k-point ** :   0.5000 0.3333 0.5000  plane waves:    1544
 k-point ** :  -0.3333 0.3333 0.5000  plane waves:    1520
 k-point ** :  -0.1667 0.3333 0.5000  plane waves:    1536
 k-point ** :   0.0000 0.5000 0.5000  plane waves:    1548
 k-point ** :   0.1667 0.5000 0.5000  plane waves:    1538
 k-point ** :   0.3333 0.5000 0.5000  plane waves:    1544
 k-point ** :   0.5000 0.5000 0.5000  plane waves:    1556
 k-point ** :  -0.3333 0.5000 0.5000  plane waves:    1544
 k-point ** :  -0.1667 0.5000 0.5000  plane waves:    1538
 k-point ** :  -0.0000-0.3333 0.5000  plane waves:    1538
 k-point ** :   0.1667-0.3333 0.5000  plane waves:    1536
 k-point ** :   0.3333-0.3333 0.5000  plane waves:    1520
 k-point ** :   0.5000-0.3333 0.5000  plane waves:    1544
 k-point ** :  -0.3333-0.3333 0.5000  plane waves:    1546
 k-point ** :  -0.1667-0.3333 0.5000  plane waves:    1526
 k-point ** :  -0.0000-0.1667 0.5000  plane waves:    1544
 k-point ** :   0.1667-0.1667 0.5000  plane waves:    1520
 k-point ** :   0.3333-0.1667 0.5000  plane waves:    1536
 k-point ** :   0.5000-0.1667 0.5000  plane waves:    1538
 k-point ** :  -0.3333-0.1667 0.5000  plane waves:    1526
 k-point ** :  -0.1667-0.1667 0.5000  plane waves:    1546
 k-point ** :   0.0000 0.0000-0.3333  plane waves:    1538
 k-point ** :   0.1667 0.0000-0.3333  plane waves:    1546
 k-point ** :   0.3333 0.0000-0.3333  plane waves:    1552
 k-point ** :   0.5000 0.0000-0.3333  plane waves:    1538
 k-point ** :  -0.3333-0.0000-0.3333  plane waves:    1538
 k-point ** :  -0.1667-0.0000-0.3333  plane waves:    1546
 k-point ** :   0.0000 0.1667-0.3333  plane waves:    1546
 k-point ** :   0.1667 0.1667-0.3333  plane waves:    1544
 k-point ** :   0.3333 0.1667-0.3333  plane waves:    1520
 k-point ** :   0.5000 0.1667-0.3333  plane waves:    1536
 k-point ** :  -0.3333 0.1667-0.3333  plane waves:    1538
 k-point ** :  -0.1667 0.1667-0.3333  plane waves:    1526
 k-point ** :   0.0000 0.3333-0.3333  plane waves:    1552
 k-point ** :   0.1667 0.3333-0.3333  plane waves:    1520
 k-point ** :   0.3333 0.3333-0.3333  plane waves:    1552
[...]
 k-point ** :   0.5000 0.5000-0.1667  plane waves:    1538
 k-point ** :  -0.3333 0.5000-0.1667  plane waves:    1526
 k-point ** :  -0.1667 0.5000-0.1667  plane waves:    1546
 k-point ** :  -0.0000-0.3333-0.1667  plane waves:    1546
 k-point ** :   0.1667-0.3333-0.1667  plane waves:    1526
 k-point ** :   0.3333-0.3333-0.1667  plane waves:    1520
 k-point ** :   0.5000-0.3333-0.1667  plane waves:    1526
 k-point ** :  -0.3333-0.3333-0.1667  plane waves:    1546
 k-point ** :  -0.1667-0.3333-0.1667  plane waves:    1534
 k-point ** :   0.0000-0.1667-0.1667  plane waves:    1570
 k-point ** :   0.1667-0.1667-0.1667  plane waves:    1546
 k-point ** :   0.3333-0.1667-0.1667  plane waves:    1544
 k-point ** :   0.5000-0.1667-0.1667  plane waves:    1546
 k-point ** :  -0.3333-0.1667-0.1667  plane waves:    1534
 k-point ** :  -0.1667-0.1667-0.1667  plane waves:    1570

 maximum and minimum number of plane-waves per node :       422      350

 maximum number of plane-waves:      1570
 maximum index in each direction:
   IXMAX=    6   IYMAX=    6   IZMAX=    6
   IXMIN=   -6   IYMIN=   -6   IZMIN=   -6

 parallel 3D FFT for wavefunctions:
    minimum data exchange during FFTs selected (reduces bandwidth)
 parallel 3D FFT for charge:
    minimum data exchange during FFTs selected (reduces bandwidth)

 FFT grid for exact exchange (Hartree Fock)
  NGX = 20; NGY = 20; NGZ = 20

 Radii for the augmentation spheres in the non-local exchange
 for species   1 augmentation radius   1.296 (default was   1.037)
       energy cutoff for augmentation   1200.0

 real space projection operators:
  max/ min on nodes  :         54.10         50.59

 Maximum index for augmentation-charges in exchange          277
  SETUP_FOCK is finished

 Broyden mixing: mesh for mixing (old mesh)
   NGX = 13   NGY = 13   NGZ = 13
  (NGX  = 56   NGY  = 56   NGZ  = 56)
  gives a total of   2197 points

 charge density for first step will be calculated from the start-wavefunctions

 Maximum index for augmentation-charges         5935 (set IRDMAX)

 initial charge from wavefunction
 First call to EWALD:  gamma=   0.440
 Maximum number of real-space cells 3x 3x 3
 Maximum number of reciprocal cells 3x 3x 3

--------------------------------------- Iteration      1(   1)  ---------------------------------------

 eigenvalue-minimisations  : 19832
 total energy-change (2. order) : 0.4399936E+02  (-0.2304441E+00)
 number of electron      18.0000001 magnetization      -0.0000000     -0.0000000     -0.0000000
 augmentation part        7.1207104 magnetization      -0.0000008     -0.0000009     -0.0000009

 Free energy of the ion-electron system (eV)
  alpha Z        PSCENC =        64.91123397
  Ewald energy   TEWEN  =     -1672.97583954
  -Hartree energ DENC   =     -1020.84421283
  -exchange      EXHF   =         0.00000000
  -V(xc)+E(xc)   XCENC  =        27.35934371
  PAW double counting   =      2518.37437100    -2490.82011347
  entropy T*S    EENTRO =        -0.00000000
  eigenvalues    EBANDS =      -413.99593472
  atomic energy  EATOM  =      3031.99051594
  free energy    TOTEN  =        43.99936407 eV

  energy without entropy =       43.99936407  energy(sigma->0) =       43.99936407
  exchange ACFDT corr.  =         0.00000000  see jH, gK, PRB 81, 115126

[...]

 eigenvalue-minimisations  : 23228
 total energy-change (2. order) :-0.1103236E-01  (-0.1103150E-01)
 number of electron      18.0000001 magnetization      -0.0000000     -0.0000000     -0.0000000
 augmentation part        7.1207104 magnetization      -0.0000008     -0.0000009     -0.0000009

[...]

 eigenvalue-minimisations  :     0
 total energy-change (2. order) : 0.4841470E+01  (-0.1324544E+03)
 number of electron      18.0000001 magnetization       0.0020066      0.0020768     -0.0029833
 augmentation part        7.3510352 magnetization       0.0016682      0.0036621     -0.0045122

[...]

--------------------------------------- Iteration      1(  50)  ---------------------------------------

 eigenvalue-minimisations  :     0
 total energy-change (2. order) :-0.1694686E-02  (-0.9422208E-02)
 number of electron      18.0000001 magnetization      -0.0000019      0.0000025     -0.0000012
 augmentation part        7.1531365 magnetization      -0.0000394     -0.0000014      0.0000061

 Free energy of the ion-electron system (eV)
  alpha Z        PSCENC =        64.91123397
  Ewald energy   TEWEN  =     -1672.97583954
  -Hartree energ DENC   =     -1020.43581652
  -exchange      EXHF   =        46.22079892
  -V(xc)+E(xc)   XCENC  =        27.36555057
  PAW double counting   =      2571.15423894    -2543.58478596
  entropy T*S    EENTRO =        -0.00000000
  eigenvalues    EBANDS =      -506.37661580
  atomic energy  EATOM  =      3031.99051594
  free energy    TOTEN  =        -1.75335644 eV

  energy without entropy =       -1.75335644  energy(sigma->0) =       -1.75335644
  exchange ACFDT corr.  =        -0.00000000  see jH, gK, PRB 81, 115126

  average scaling for gradient   0.1549

 average (electrostatic) potential at core
  the test charge radii are     1.0367
  (the norm of the test charge is              1.0000)
       1 -77.6057

 E-fermi :  -1.9056     XC(G=0):  -5.8595     alpha+bet : -4.5354

 k-point     1 :       0.0000    0.0000    0.0000
  band No.  band energies     occupation
      1     -46.9872      1.00000
      2     -46.9871      1.00000
      3     -46.9871      1.00000
      4     -46.9871      1.00000
      5     -42.4611      1.00000
      6     -42.4611      1.00000
      7     -42.4609      1.00000
      8     -42.4608      1.00000
      9     -42.4608      1.00000
     10     -42.4608      1.00000
     11     -19.2170      1.00000
     12     -19.2169      1.00000
     13      -6.0251      1.00000
     14      -6.0245      1.00000
     15      -2.1713      1.00000
     16      -2.1702      1.00000
     17      -2.1701      1.00000
     18      -2.1699      1.00000
     19       2.6562      0.00000
     20       2.6562      0.00000
     21       8.0450      0.00000
     22       8.0452      0.00000
     23       8.0454      0.00000
     24       8.0456      0.00000
     25       8.1634      0.00000
     26       8.1641      0.00000
     27       9.8752      0.00000
     28       9.8752      0.00000

[...]

 k-point   216 :      -0.1667   -0.1667   -0.1667
  band No.  band energies     occupation
      1     -46.9871      1.00000
      2     -46.9870      1.00000
      3     -46.9869      1.00000
      4     -46.9868      1.00000
      5     -42.4614      1.00000
      6     -42.4613      1.00000
      7     -42.4612      1.00000
      8     -42.4612      1.00000
      9     -42.4611      1.00000
     10     -42.4610      1.00000
     11     -19.1794      1.00000
     12     -19.1792      1.00000
     13      -6.1623      1.00000
     14      -6.1617      1.00000
     15      -2.6729      1.00000
     16      -2.6728      1.00000
     17      -2.2390      1.00000
     18      -2.2388      1.00000
     19       3.4705      0.00000
     20       3.4705      0.00000
     21       7.3247      0.00000
     22       7.3247      0.00000
     23       8.2453      0.00000
     24       8.2456      0.00000
     25       8.3574      0.00000
     26       8.3574      0.00000
     27       9.8148      0.00000
     28       9.8154      0.00000

 soft charge-density along one line, spin component           1
         0         1         2         3         4         5         6         7         8         9
 total charge-density along one line

[...]

 soft charge-density along one line, spin component           4
         0         1         2         3         4         5         6         7         8         9
 total charge-density along one line

------------------------ aborting loop because EDIFF is reached ----------------------------------------

  FORCE on cell =-STRESS in cart. coord.  units (eV):
  Direction    XX          YY          ZZ          XY          YZ          ZX
  Alpha Z    64.91123    64.91123    64.91123
  Ewald    -557.65863  -557.65863  -557.65863    -0.00000    -0.00000    -0.00000
  Hartree   340.73951   340.73834   340.73791     0.00062     0.00070     0.00123
  E(xc)     -74.97609   -74.97610   -74.97612     0.00000    -0.00000     0.00000
  Local     -74.00780   -74.00531   -74.00488    -0.00122    -0.00163    -0.00272
  n-local   314.59515   314.59267   314.59151     0.00073     0.00289     0.00235
  augment    90.73683    90.73643    90.73608     0.00019     0.00030     0.00039
  Kinetic   159.07823   159.07921   159.08008    -0.00042    -0.00076    -0.00099
  Fock     -261.65470  -261.65491  -261.65505     0.00006     0.00024     0.00044
  Total       1.76373     1.76294     1.76214    -0.00002     0.00173     0.00069
  in kB      43.25934    43.23983    43.22023    -0.00051     0.04241     0.01690

 VOLUME and BASIS-vectors are now :
  energy-cutoff  :      300.00
  volume of cell :       65.32
      direct lattice vectors                 reciprocal lattice vectors
     4.520564769  0.000000000  0.000000000     0.221211298 -0.127716402 -0.090309134
     2.260282385  3.914923930 -0.000000000     0.000000000  0.255432805 -0.090309134
     2.260282385  1.304974643  3.691025678    -0.000000000  0.000000000  0.270927403

  length of vectors
     4.520564769  4.520564769  4.520564769     0.270927403  0.270927403  0.270927403

 FORCES acting on ions:
    Electron-Ion                     Ewald-Force                    Non-Local-Force
   0.182E-03 0.106E-02 -.813E-03   -.116E-14 0.583E-15 0.129E-14   -.352E-05 -.392E-03 0.203E-03
   0.180E-03 0.105E-02 -.803E-03   -.116E-14 0.583E-15 0.129E-14   -.352E-05 -.392E-03 0.203E-03

 POSITION                                       TOTAL-FORCE (eV/Angst)
      0.00000      0.00000      0.00000         0.000145      0.000411     -0.000426
    total drift:                                0.000145      0.000411     -0.000426

  FREE ENERGIE OF THE ION-ELECTRON SYSTEM (eV)
  free  energy   TOTEN  =        -1.75335644 eV

  energy  without entropy=       -1.75335644  energy(sigma->0) =       -1.75335644

 writing wavefunctions

 Spin-Orbit-Coupling matrix elements

 Ion:    1  E_soc:     -3.4995700
 l=   1
     0.0000000    -0.4666893    -0.4667134
    -0.4666893     0.0000000    -0.4666945
    -0.4667134    -0.4666945     0.0000000
 l=   2
     0.0000000    -0.0233133     0.0000000    -0.0233153    -0.0932470
    -0.0233133     0.0000000    -0.0699325    -0.0233147    -0.0233122
     0.0000000    -0.0699325     0.0000000    -0.0699347     0.0000000
    -0.0233153    -0.0233147    -0.0699347     0.0000000    -0.0233164
    -0.0932470    -0.0233122     0.0000000    -0.0233164     0.0000000
 l=   3
     0.0000000    -0.0000000     0.0000000     0.0000000     0.0000000    -0.0000000    -0.0000004
    -0.0000000     0.0000000    -0.0000001     0.0000000    -0.0000001    -0.0000001    -0.0000001
     0.0000000    -0.0000001     0.0000000    -0.0000002    -0.0000001    -0.0000001     0.0000000
     0.0000000     0.0000000    -0.0000002     0.0000000    -0.0000002     0.0000000     0.0000000
     0.0000000    -0.0000001    -0.0000001    -0.0000002     0.0000000    -0.0000001     0.0000000
    -0.0000000    -0.0000001    -0.0000001     0.0000000    -0.0000001     0.0000000    -0.0000001
    -0.0000004    -0.0000001     0.0000000     0.0000000     0.0000000    -0.0000001     0.0000000