 vasp.5.4.4.18Apr17-6-g9f103f2a35 (build Jul 09 2018 16:43:14) complex

 executed on             LinuxIFC date 2018.11.22  03:28:55

 INCAR:
 POTCAR:    PAW_PBE Kr_GW 21Aug2013

 POTCAR:    PAW_PBE Kr_GW 21Aug2013
   VRHFIN =Kr: s2p6

   TITEL  = PAW_PBE Kr_GW 21Aug2013
   POMASS =   83.800; ZVAL   =    8.000    mass and valenz
   ENMAX  =  252.232; ENMIN  =  189.174 eV

  PAW_PBE Kr_GW 21Aug2013               :

 POSCAR: Kr_FCC
  positions in direct lattice
  velocities in cartesian coordinates
 exchange correlation table for  LEXCH =        8
   RHO(1)=    0.500       N(1)  =     2000
   RHO(2)=  100.500       N(2)  =     4000

 ion  position               nearest neighbor table
   1  0.000  0.000  0.000-

IMPORTANT INFORMATION: All symmetrisations will be switched off!
NOSYMM: (Re-)initialisation of all symmetry stuff for point group C_1.

 KPOINTS: k-points

Automatic generation of k-mesh.
Space group operators:
 irot       det(A)        alpha          n_x          n_y          n_z        tau_x        tau_y        tau_z
    1     1.000000     0.000001     1.000000     0.000000     0.000000     0.000000     0.000000     0.000000

 Subroutine IBZKPT returns following result:

 Found    216 irreducible k-points:

 Following reciprocal coordinates:
            Coordinates               Weight
  0.000000  0.000000  0.000000      1.000000
  0.166667 -0.000000 -0.000000      1.000000
  0.333333  0.000000  0.000000      1.000000
  0.500000  0.000000  0.000000      1.000000
 -0.333333 -0.000000  0.000000      1.000000
 -0.166667  0.000000  0.000000      1.000000
  0.000000  0.166667  0.000000      1.000000
  0.166667  0.166667  0.000000      1.000000
  0.333333  0.166667  0.000000      1.000000
  0.500000  0.166667  0.000000      1.000000
 -0.333333  0.166667  0.000000      1.000000
 -0.166667  0.166667  0.000000      1.000000
  0.000000  0.333333 -0.000000      1.000000
  0.166667  0.333333  0.000000      1.000000
  0.333333  0.333333 -0.000000      1.000000
  0.500000  0.333333 -0.000000      1.000000
 -0.333333  0.333333 -0.000000      1.000000
 -0.166667  0.333333  0.000000      1.000000
  0.000000  0.500000  0.000000      1.000000
  0.166667  0.500000  0.000000      1.000000
  0.333333  0.500000  0.000000      1.000000
  0.500000  0.500000  0.000000      1.000000
 -0.333333  0.500000 -0.000000      1.000000
 -0.166667  0.500000  0.000000      1.000000
 -0.000000 -0.333333  0.000000      1.000000
  0.166667 -0.333333  0.000000      1.000000
  0.333333 -0.333333  0.000000      1.000000
  0.500000 -0.333333  0.000000      1.000000
 -0.333333 -0.333333  0.000000      1.000000
 -0.166667 -0.333333  0.000000      1.000000
 -0.000000 -0.166667 -0.000000      1.000000
  0.166667 -0.166667 -0.000000      1.000000
  0.333333 -0.166667 -0.000000      1.000000
  0.500000 -0.166667  0.000000      1.000000
 -0.333333 -0.166667 -0.000000      1.000000
 -0.166667 -0.166667 -0.000000      1.000000
  0.000000  0.000000  0.166667      1.000000
  0.166667  0.000000  0.166667      1.000000
  0.333333 -0.000000  0.166667      1.000000
  0.500000  0.000000  0.166667      1.000000
 -0.333333 -0.000000  0.166667      1.000000
 -0.166667  0.000000  0.166667      1.000000
  0.000000  0.166667  0.166667      1.000000
  0.166667  0.166667  0.166667      1.000000
  0.333333  0.166667  0.166667      1.000000
  0.500000  0.166667  0.166667      1.000000
 -0.333333  0.166667  0.166667      1.000000
 -0.166667  0.166667  0.166667      1.000000
  0.000000  0.333333  0.166667      1.000000
  0.166667  0.333333  0.166667      1.000000
  0.333333  0.333333  0.166667      1.000000
  0.500000  0.333333  0.166667      1.000000
 -0.333333  0.333333  0.166667      1.000000
 -0.166667  0.333333  0.166667      1.000000
  0.000000  0.500000  0.166667      1.000000
  0.166667  0.500000  0.166667      1.000000
  0.333333  0.500000  0.166667      1.000000
  0.500000  0.500000  0.166667      1.000000
 -0.333333  0.500000  0.166667      1.000000
 -0.166667  0.500000  0.166667      1.000000
[...]
  0.500000  0.500000 -0.166667      1.000000
 -0.333333  0.500000 -0.166667      1.000000
 -0.166667  0.500000 -0.166667      1.000000
 -0.000000 -0.333333 -0.166667      1.000000
  0.166667 -0.333333 -0.166667      1.000000
  0.333333 -0.333333 -0.166667      1.000000
  0.500000 -0.333333 -0.166667      1.000000
 -0.333333 -0.333333 -0.166667      1.000000
 -0.166667 -0.333333 -0.166667      1.000000
 -0.000000 -0.166667 -0.166667      1.000000
  0.166667 -0.166667 -0.166667      1.000000
  0.333333 -0.166667 -0.166667      1.000000
  0.500000 -0.166667 -0.166667      1.000000
 -0.333333 -0.166667 -0.166667      1.000000
 -0.166667 -0.166667 -0.166667      1.000000

 Following cartesian coordinates:
            Coordinates               Weight
  0.000000  0.000000  0.000000      1.000000
  0.040499 -0.023382 -0.016534      1.000000
  0.080998 -0.046764 -0.033067      1.000000
  0.121497 -0.070146 -0.049601      1.000000
 -0.080998  0.046764  0.033067      1.000000
 -0.040499  0.023382  0.016534      1.000000
  0.000000  0.046764 -0.016534      1.000000
  0.040499  0.023382 -0.033067      1.000000
  0.080998  0.000000 -0.049601      1.000000
  0.121497 -0.023382 -0.066134      1.000000
 -0.080998  0.093528  0.016534      1.000000
 -0.040499  0.070146  0.000000      1.000000
  0.000000  0.093528 -0.033067      1.000000
  0.040499  0.070146 -0.049601      1.000000
  0.080998  0.046764 -0.066134      1.000000
  0.121497  0.023382 -0.082668      1.000000
 -0.080998  0.140292  0.000000      1.000000
 -0.040499  0.116910 -0.016534      1.000000
  0.000000  0.140292 -0.049601      1.000000
  0.040499  0.116910 -0.066134      1.000000
  0.080998  0.093528 -0.082668      1.000000
  0.121497  0.070146 -0.099202      1.000000
 -0.080998  0.187056 -0.016534      1.000000
 -0.040499  0.163674 -0.033067      1.000000
 -0.000000 -0.093528  0.033067      1.000000
  0.040499 -0.116910  0.016534      1.000000
  0.080998 -0.140292 -0.000000      1.000000
  0.121497 -0.163674 -0.016534      1.000000
 -0.080998 -0.046764  0.066134      1.000000
 -0.040499 -0.070146  0.049601      1.000000
 -0.000000 -0.046764  0.016534      1.000000
  0.040499 -0.070146 -0.000000      1.000000
  0.080998 -0.093528 -0.016534      1.000000
  0.121497 -0.116910 -0.033067      1.000000
 -0.080998 -0.000000  0.049601      1.000000
 -0.040499 -0.023382  0.033067      1.000000
 -0.000000  0.000000  0.049601      1.000000
  0.040499 -0.023382  0.033067      1.000000
  0.080998 -0.046764  0.016534      1.000000
  0.121497 -0.070146 -0.000000      1.000000
 -0.080998  0.046764  0.082668      1.000000
 -0.040499  0.023382  0.066134      1.000000
 -0.000000  0.046764  0.033067      1.000000
  0.040499  0.023382  0.016534      1.000000
  0.080998  0.000000  0.000000      1.000000
  0.121497 -0.023382 -0.016534      1.000000
 -0.080998  0.093528  0.066134      1.000000
 -0.040499  0.070146  0.049601      1.000000
 -0.000000  0.093528  0.016534      1.000000
  0.040499  0.070146  0.000000      1.000000
  0.080998  0.046764 -0.016534      1.000000
  0.121497  0.023382 -0.033067      1.000000
 -0.080998  0.140292  0.049601      1.000000
 -0.040499  0.116910  0.033067      1.000000
 -0.000000  0.140292  0.000000      1.000000
  0.040499  0.116910 -0.016534      1.000000
  0.080998  0.093528 -0.033067      1.000000
  0.121497  0.070146 -0.049601      1.000000
 -0.080998  0.187056  0.033067      1.000000
 -0.040499  0.163674  0.016534      1.000000
[...]
  0.121497  0.070146 -0.148802      1.000000
 -0.080998  0.187056 -0.066134      1.000000
 -0.040499  0.163674 -0.082668      1.000000
  0.000000 -0.093528 -0.016534      1.000000
  0.040499 -0.116910 -0.033067      1.000000
  0.080998 -0.140292 -0.049601      1.000000
  0.121497 -0.163674 -0.066134      1.000000
 -0.080998 -0.046764  0.016534      1.000000
 -0.040499 -0.070146 -0.000000      1.000000
  0.000000 -0.046764 -0.033067      1.000000
  0.040499 -0.070146 -0.049601      1.000000
  0.080998 -0.093528 -0.066134      1.000000
  0.121497 -0.116910 -0.082668      1.000000
 -0.080998 -0.000000 -0.000000      1.000000
 -0.040499 -0.023382 -0.016534      1.000000

 Subroutine IBZKPT_HF returns following result:

 Found    216 k-points in 1st BZ
 the following    216 k-points will be used (e.g. in the exchange kernel)
 Following reciprocal coordinates:   # in IRBZ
  0.000000  0.000000  0.000000    0.00462963   1 t-inv F
  0.166667 -0.000000 -0.000000    0.00462963   2 t-inv F
  0.333333  0.000000  0.000000    0.00462963   3 t-inv F
  0.500000  0.000000  0.000000    0.00462963   4 t-inv F
 -0.333333 -0.000000  0.000000    0.00462963   5 t-inv F
 -0.166667  0.000000  0.000000    0.00462963   6 t-inv F
  0.000000  0.166667  0.000000    0.00462963   7 t-inv F
  0.166667  0.166667  0.000000    0.00462963   8 t-inv F
  0.333333  0.166667  0.000000    0.00462963   9 t-inv F
  0.500000  0.166667  0.000000    0.00462963  10 t-inv F
 -0.333333  0.166667  0.000000    0.00462963  11 t-inv F
 -0.166667  0.166667  0.000000    0.00462963  12 t-inv F
  0.000000  0.333333 -0.000000    0.00462963  13 t-inv F
  0.166667  0.333333  0.000000    0.00462963  14 t-inv F
  0.333333  0.333333 -0.000000    0.00462963  15 t-inv F
  0.500000  0.333333 -0.000000    0.00462963  16 t-inv F
 -0.333333  0.333333 -0.000000    0.00462963  17 t-inv F
 -0.166667  0.333333  0.000000    0.00462963  18 t-inv F
  0.000000  0.500000  0.000000    0.00462963  19 t-inv F
  0.166667  0.500000  0.000000    0.00462963  20 t-inv F
  0.333333  0.500000  0.000000    0.00462963  21 t-inv F
  0.500000  0.500000  0.000000    0.00462963  22 t-inv F
 -0.333333  0.500000 -0.000000    0.00462963  23 t-inv F
 -0.166667  0.500000  0.000000    0.00462963  24 t-inv F
 -0.000000 -0.333333  0.000000    0.00462963  25 t-inv F
  0.166667 -0.333333  0.000000    0.00462963  26 t-inv F
  0.333333 -0.333333  0.000000    0.00462963  27 t-inv F
  0.500000 -0.333333  0.000000    0.00462963  28 t-inv F
 -0.333333 -0.333333  0.000000    0.00462963  29 t-inv F
 -0.166667 -0.333333  0.000000    0.00462963  30 t-inv F
 -0.000000 -0.166667 -0.000000    0.00462963  31 t-inv F
  0.166667 -0.166667 -0.000000    0.00462963  32 t-inv F
  0.333333 -0.166667 -0.000000    0.00462963  33 t-inv F
  0.500000 -0.166667  0.000000    0.00462963  34 t-inv F
 -0.333333 -0.166667 -0.000000    0.00462963  35 t-inv F
 -0.166667 -0.166667 -0.000000    0.00462963  36 t-inv F
  0.000000  0.000000  0.166667    0.00462963  37 t-inv F
  0.166667  0.000000  0.166667    0.00462963  38 t-inv F
  0.333333 -0.000000  0.166667    0.00462963  39 t-inv F
  0.500000  0.000000  0.166667    0.00462963  40 t-inv F
 -0.333333 -0.000000  0.166667    0.00462963  41 t-inv F
 -0.166667  0.000000  0.166667    0.00462963  42 t-inv F
  0.000000  0.166667  0.166667    0.00462963  43 t-inv F
  0.166667  0.166667  0.166667    0.00462963  44 t-inv F
  0.333333  0.166667  0.166667    0.00462963  45 t-inv F
  0.500000  0.166667  0.166667    0.00462963  46 t-inv F
 -0.333333  0.166667  0.166667    0.00462963  47 t-inv F
 -0.166667  0.166667  0.166667    0.00462963  48 t-inv F
  0.000000  0.333333  0.166667    0.00462963  49 t-inv F
[...]
 k-point 37 :   0.0000 0.0000 0.1667  plane waves:    1152
 k-point 38 :   0.1667 0.0000 0.1667  plane waves:    1144
 k-point 39 :   0.3333-0.0000 0.1667  plane waves:    1158
 k-point 40 :   0.5000 0.0000 0.1667  plane waves:    1160
 k-point 41 :  -0.3333-0.0000 0.1667  plane waves:    1166
 k-point 42 :  -0.1667 0.0000 0.1667  plane waves:    1160
 k-point 43 :   0.0000 0.1667 0.1667  plane waves:    1144
 k-point 44 :   0.1667 0.1667 0.1667  plane waves:    1152
 k-point 45 :   0.3333 0.1667 0.1667  plane waves:    1160
 k-point 46 :   0.5000 0.1667 0.1667  plane waves:    1166
 k-point 47 :  -0.3333 0.1667 0.1667  plane waves:    1160
 k-point 48 :  -0.1667 0.1667 0.1667  plane waves:    1158
 k-point 49 :   0.0000 0.3333 0.1667  plane waves:    1158
 k-point 50 :   0.1667 0.3333 0.1667  plane waves:    1160
 k-point 51 :   0.3333 0.3333 0.1667  plane waves:    1158
 k-point 52 :   0.5000 0.3333 0.1667  plane waves:    1166
 k-point 53 :  -0.3333 0.3333 0.1667  plane waves:    1148
 k-point 54 :  -0.1667 0.3333 0.1667  plane waves:    1166
 k-point 55 :   0.0000 0.5000 0.1667  plane waves:    1160
 k-point 56 :   0.1667 0.5000 0.1667  plane waves:    1166
 k-point 57 :   0.3333 0.5000 0.1667  plane waves:    1166
 k-point 58 :   0.5000 0.5000 0.1667  plane waves:    1176
 k-point 59 :  -0.3333 0.5000 0.1667  plane waves:    1168
 k-point 60 :  -0.1667 0.5000 0.1667  plane waves:    1148
[...]
 k-point 85 :   0.0000 0.3333 0.3333  plane waves:    1152
 k-point 86 :   0.1667 0.3333 0.3333  plane waves:    1158
 k-point 87 :   0.3333 0.3333 0.3333  plane waves:    1178
 k-point 88 :   0.5000 0.3333 0.3333  plane waves:    1166
 k-point 89 :  -0.3333 0.3333 0.3333  plane waves:    1156
 k-point 90 :  -0.1667 0.3333 0.3333  plane waves:    1176
 k-point 91 :   0.0000 0.5000 0.3333  plane waves:    1176
 k-point 92 :   0.1667 0.5000 0.3333  plane waves:    1166
 k-point 93 :   0.3333 0.5000 0.3333  plane waves:    1166
 k-point 94 :   0.5000 0.5000 0.3333  plane waves:    1160
 k-point 95 :  -0.3333 0.5000 0.3333  plane waves:    1148
 k-point 96 :  -0.1667 0.5000 0.3333  plane waves:    1168
 k-point 97 :  -0.0000-0.3333 0.3333  plane waves:    1156
 k-point 98 :   0.1667-0.3333 0.3333  plane waves:    1148
 k-point 99 :   0.3333-0.3333 0.3333  plane waves:    1156
 k-point ** :   0.5000-0.3333 0.3333  plane waves:    1148
 k-point ** :  -0.3333-0.3333 0.3333  plane waves:    1156
 k-point ** :  -0.1667-0.3333 0.3333  plane waves:    1148
 k-point ** :   0.0000-0.1667 0.3333  plane waves:    1166
 k-point ** :   0.1667-0.1667 0.3333  plane waves:    1166
 k-point ** :   0.3333-0.1667 0.3333  plane waves:    1176
 k-point ** :   0.5000-0.1667 0.3333  plane waves:    1168
 k-point ** :  -0.3333-0.1667 0.3333  plane waves:    1148
 k-point ** :  -0.1667-0.1667 0.3333  plane waves:    1160
 k-point ** :   0.0000 0.0000 0.5000  plane waves:    1160
 k-point ** :   0.1667 0.0000 0.5000  plane waves:    1160
 k-point ** :   0.3333 0.0000 0.5000  plane waves:    1176
 k-point ** :   0.5000 0.0000 0.5000  plane waves:    1176
 k-point ** :  -0.3333 0.0000 0.5000  plane waves:    1176
 k-point ** :  -0.1667 0.0000 0.5000  plane waves:    1160
 k-point ** :   0.0000 0.1667 0.5000  plane waves:    1160
 k-point ** :   0.1667 0.1667 0.5000  plane waves:    1166
 k-point ** :   0.3333 0.1667 0.5000  plane waves:    1166
 k-point ** :   0.5000 0.1667 0.5000  plane waves:    1176
 k-point ** :  -0.3333 0.1667 0.5000  plane waves:    1168
 k-point ** :  -0.1667 0.1667 0.5000  plane waves:    1148
 k-point ** :   0.0000 0.3333 0.5000  plane waves:    1176
 k-point ** :   0.1667 0.3333 0.5000  plane waves:    1166
 k-point ** :   0.3333 0.3333 0.5000  plane waves:    1166
 k-point ** :   0.5000 0.3333 0.5000  plane waves:    1160
 k-point ** :  -0.3333 0.3333 0.5000  plane waves:    1148
 k-point ** :  -0.1667 0.3333 0.5000  plane waves:    1168
 k-point ** :   0.0000 0.5000 0.5000  plane waves:    1176
 k-point ** :   0.1667 0.5000 0.5000  plane waves:    1176
 k-point ** :   0.3333 0.5000 0.5000  plane waves:    1160
 k-point ** :   0.5000 0.5000 0.5000  plane waves:    1160
 k-point ** :  -0.3333 0.5000 0.5000  plane waves:    1160
 k-point ** :  -0.1667 0.5000 0.5000  plane waves:    1176
 k-point ** :   0.0000-0.3333 0.5000  plane waves:    1176
 k-point ** :   0.1667-0.3333 0.5000  plane waves:    1168
 k-point ** :   0.3333-0.3333 0.5000  plane waves:    1148
 k-point ** :   0.5000-0.3333 0.5000  plane waves:    1160
 k-point ** :  -0.3333-0.3333 0.5000  plane waves:    1166
 k-point ** :  -0.1667-0.3333 0.5000  plane waves:    1166
 k-point ** :  -0.0000-0.1667 0.5000  plane waves:    1160
 k-point ** :   0.1667-0.1667 0.5000  plane waves:    1148
 k-point ** :   0.3333-0.1667 0.5000  plane waves:    1168
 k-point ** :   0.5000-0.1667 0.5000  plane waves:    1176
 k-point ** :  -0.3333-0.1667 0.5000  plane waves:    1166
 k-point ** :  -0.1667-0.1667 0.5000  plane waves:    1166
 k-point ** :   0.0000-0.0000-0.3333  plane waves:    1178
 k-point ** :   0.1667-0.0000-0.3333  plane waves:    1166
 k-point ** :   0.3333-0.0000-0.3333  plane waves:    1156
 k-point ** :   0.5000 0.0000-0.3333  plane waves:    1176
 k-point ** :  -0.3333-0.0000-0.3333  plane waves:    1152
 k-point ** :  -0.1667 0.0000-0.3333  plane waves:    1158
 k-point ** :  -0.0000 0.1667-0.3333  plane waves:    1166
 k-point ** :   0.1667 0.1667-0.3333  plane waves:    1160
 k-point ** :   0.3333 0.1667-0.3333  plane waves:    1148
 k-point ** :   0.5000 0.1667-0.3333  plane waves:    1168
 k-point ** :  -0.3333 0.1667-0.3333  plane waves:    1176
 k-point ** :  -0.1667 0.1667-0.3333  plane waves:    1166
 k-point ** :   0.0000 0.3333-0.3333  plane waves:    1156
 k-point ** :   0.1667 0.3333-0.3333  plane waves:    1148
 k-point ** :   0.3333 0.3333-0.3333  plane waves:    1156
[...]
 k-point ** :   0.5000 0.5000-0.1667  plane waves:    1176
 k-point ** :  -0.3333 0.5000-0.1667  plane waves:    1166
 k-point ** :  -0.1667 0.5000-0.1667  plane waves:    1166
 k-point ** :  -0.0000-0.3333-0.1667  plane waves:    1158
 k-point ** :   0.1667-0.3333-0.1667  plane waves:    1166
 k-point ** :   0.3333-0.3333-0.1667  plane waves:    1148
 k-point ** :   0.5000-0.3333-0.1667  plane waves:    1166
 k-point ** :  -0.3333-0.3333-0.1667  plane waves:    1158
 k-point ** :  -0.1667-0.3333-0.1667  plane waves:    1160
 k-point ** :  -0.0000-0.1667-0.1667  plane waves:    1144
 k-point ** :   0.1667-0.1667-0.1667  plane waves:    1158
 k-point ** :   0.3333-0.1667-0.1667  plane waves:    1160
 k-point ** :   0.5000-0.1667-0.1667  plane waves:    1166
 k-point ** :  -0.3333-0.1667-0.1667  plane waves:    1160
 k-point ** :  -0.1667-0.1667-0.1667  plane waves:    1152

 maximum and minimum number of plane-waves per node :       314      262

 maximum number of plane-waves:      1178
 maximum index in each direction:
   IXMAX=    6   IYMAX=    6   IZMAX=    6
   IXMIN=   -6   IYMIN=   -6   IZMIN=   -6

 parallel 3D FFT for wavefunctions:
    minimum data exchange during FFTs selected (reduces bandwidth)
 parallel 3D FFT for charge:
    minimum data exchange during FFTs selected (reduces bandwidth)

 FFT grid for exact exchange (Hartree Fock)
  NGX = 18; NGY = 18; NGZ = 18

 Radii for the augmentation spheres in the non-local exchange
 for species   1 augmentation radius   1.213 (default was   0.970)
       energy cutoff for augmentation   1200.0

 real space projection operators:
  max/ min on nodes  :         57.23         33.20

 Maximum index for augmentation-charges in exchange          293
  SETUP_FOCK is finished

 Broyden mixing: mesh for mixing (old mesh)
   NGX = 11   NGY = 11   NGZ = 11
  (NGX  = 48   NGY  = 48   NGZ  = 48)
  gives a total of   1331 points

 initial charge density was supplied:
 charge density of overlapping atoms calculated
 number of electron       8.0000000 magnetization       1.0000000      1.0000000      1.0000000
 keeping initial charge density in first step

 Maximum index for augmentation-charges         1867 (set IRDMAX)

 First call to EWALD:  gamma=   0.483
 Maximum number of real-space cells 3x 3x 3
 Maximum number of reciprocal cells 3x 3x 3

--------------------------------------- Iteration      1(   1)  ---------------------------------------

 eigenvalue-minimisations  : 13416
 total energy-change (2. order) : 0.6315756E+02  (-0.2661128E+03)
 number of electron       8.0000000 magnetization       1.0000000      1.0000000      1.0000000
 augmentation part        8.0000000 magnetization       1.0000000      1.0000000      1.0000000

 Free energy of the ion-electron system (eV)
  alpha Z        PSCENC =         8.51686385
  Ewald energy   TEWEN  =      -363.00389881
  -Hartree energ DENC   =      -106.29834624
  -exchange      EXHF   =         0.00000000
  -V(xc)+E(xc)   XCENC  =        11.05823202
  PAW double counting   =       413.61296143     -409.58412225
  entropy T*S    EENTRO =        -0.00073267
  eigenvalues    EBANDS =         2.65445248
  atomic energy  EATOM  =       506.20215197
  free energy    TOTEN  =        63.15756178 eV

  energy without entropy =       63.15829445  energy(sigma->0) =       63.15792812
  exchange ACFDT corr.  =         0.00000000  see jH, gK, PRB 81, 115126

[...]

 eigenvalue-minimisations  : 20736
 total energy-change (2. order) :-0.4295457E+02  (-0.3637382E+02)
 number of electron       8.0000000 magnetization       1.0000000      1.0000000      1.0000000
 augmentation part        8.0000000 magnetization       1.0000000      1.0000000      1.0000000

[...]

--------------------------------------- Iteration      1(  20)  ---------------------------------------

 eigenvalue-minimisations  :     0
 total energy-change (2. order) :-0.7575750E-07  (-0.4828203E-07)
 number of electron       8.0000000 magnetization      -0.0000000     -0.0000000     -0.0000000
 augmentation part       -0.8514246 magnetization      -0.0000030     -0.0000029     -0.0000029

 Free energy of the ion-electron system (eV)
  alpha Z        PSCENC =         8.51686385
  Ewald energy   TEWEN  =      -363.00389881
  -Hartree energ DENC   =      -106.77117184
  -exchange      EXHF   =        16.80405890
  -V(xc)+E(xc)   XCENC  =        10.95896774
  PAW double counting   =       416.56532018     -412.53966486
  entropy T*S    EENTRO =        -0.00000000
  eigenvalues    EBANDS =       -76.81160192
  atomic energy  EATOM  =       506.20215197
  free energy    TOTEN  =        -0.07890857 eV

  energy without entropy =       -0.07890857  energy(sigma->0) =       -0.07890857
  exchange ACFDT corr.  =        -0.00000000  see jH, gK, PRB 81, 115126

  average scaling for gradient   0.7678

 average (electrostatic) potential at core
  the test charge radii are     0.9700
  (the norm of the test charge is              1.0000)
       1 -94.9983

 E-fermi :  -4.8619     XC(G=0):  -5.3797     alpha+bet : -4.4977

 k-point     1 :       0.0000    0.0000    0.0000
  band No.  band energies     occupation
      1     -20.9012      1.00000
      2     -20.9011      1.00000
      3      -5.8363      1.00000
      4      -5.8363      1.00000
      5      -5.1111      1.00000
      6      -5.1111      1.00000
      7      -5.1111      1.00000
      8      -5.1111      1.00000
      9       3.3383      0.00000
     10       3.3383      0.00000
     11       9.8791      0.00000
     12       9.8791      0.00000
     13       9.8791      0.00000
     14       9.8791      0.00000
     15       9.8893      0.00000
     16       9.8893      0.00000
     17      12.3592      0.00000
     18      12.3592      0.00000
     19      12.3593      0.00000
     20      12.3593      0.00000
     21      13.2972      0.00000
     22      13.2972      0.00000
     23      15.7341      0.00000
     24      15.7523      0.00000

[...]

 k-point   216 :      -0.1667   -0.1667   -0.1667
  band No.  band energies     occupation
      1     -20.8638      1.00000
      2     -20.8637      1.00000
      3      -6.0022      1.00000
      4      -6.0022      1.00000
      5      -5.3405      1.00000
      6      -5.3405      1.00000
      7      -5.1500      1.00000
      8      -5.1500      1.00000
      9       4.0215      0.00000
     10       4.0216      0.00000
     11       8.9813      0.00000
     12       8.9813      0.00000
     13      10.0930      0.00000
     14      10.0930      0.00000
     15      10.1011      0.00000
     16      10.1011      0.00000
     17      11.8232      0.00000
     18      11.8232      0.00000
     19      11.8313      0.00000
     20      11.8313      0.00000
     21      13.9284      0.00000
     22      13.9284      0.00000
     23      15.3900      0.00000
     24      15.5410      0.00000

 soft charge-density along one line, spin component           1
         0         1         2         3         4         5         6         7         8         9
 total charge-density along one line

[...]

 soft charge-density along one line, spin component           4
         0         1         2         3         4         5         6         7         8         9
 total charge-density along one line

------------------------ aborting loop because EDIFF is reached ----------------------------------------

  FORCE on cell =-STRESS in cart. coord.  units (eV):
  Direction    XX          YY          ZZ          XY          YZ          ZX
  Alpha Z     8.51686     8.51686     8.51686
  Ewald    -121.00130  -121.00130  -121.00130     0.00000    -0.00000     0.00000
  Hartree    35.59006    35.59006    35.59006     0.00000    -0.00000     0.00000
  E(xc)     -23.85793   -23.85793   -23.85793     0.00000    -0.00000     0.00000
  Local     -98.63188   -98.63186   -98.63185    -0.00002    -0.00000    -0.00001
  n-local   104.44013   104.44014   104.44014    -0.00000    -0.00000    -0.00000
  augment   -17.42056   -17.42057   -17.42058     0.00001     0.00001     0.00001
  Kinetic   117.75842   117.75842   117.75842    -0.00000     0.00000    -0.00000
  Fock       -5.27840    -5.27840    -5.27840    -0.00000    -0.00000    -0.00000
  Total       0.11541     0.11542     0.11542    -0.00001     0.00000    -0.00000
  in kB       3.75202     3.75210     3.75212    -0.00019     0.00005    -0.00010

 VOLUME and BASIS-vectors are now :
  energy-cutoff  :      300.00
  volume of cell :       49.28
      direct lattice vectors                 reciprocal lattice vectors
     4.115343013  0.000000000  0.000000000     0.242993111 -0.140292138 -0.099201522
     2.057671506  3.563991594 -0.000000000     0.000000000  0.280584276 -0.099201522
     2.057671506  1.187997198  3.360163499    -0.000000000  0.000000000  0.297604566

  length of vectors
     4.115343013  4.115343013  4.115343013     0.297604566  0.297604566  0.297604566

 FORCES acting on ions:
    Electron-Ion                     Ewald-Force                    Non-Local-Force
   0.304E-05 -.521E-05 -.135E-05   0.244E-15 -.104E-15 0.328E-15   -.218E-05 0.251E-05 -.164E-06
   0.309E-05 -.528E-05 -.136E-05   0.244E-15 -.104E-15 0.328E-15   -.218E-05 0.251E-05 -.164E-06

 POSITION                                       TOTAL-FORCE (eV/Angst)
      0.00000      0.00000      0.00000         0.000001     -0.000003     -0.000002
    total drift:                                0.000001     -0.000003     -0.000002

  FREE ENERGIE OF THE ION-ELECTRON SYSTEM (eV)
  free  energy   TOTEN  =        -0.07890857 eV

  energy  without entropy=       -0.07890857  energy(sigma->0) =       -0.07890857

 writing wavefunctions

 Spin-Orbit-Coupling matrix elements

 Ion:    1  E_soc:     -0.0786931
 l=   1
     0.0000000    -0.0131153    -0.0131153
    -0.0131153     0.0000000    -0.0131153
    -0.0131153    -0.0131153     0.0000000
 l=   2
     0.0000000    -0.0000000     0.0000000    -0.0000000    -0.0000002
    -0.0000000     0.0000000    -0.0000001    -0.0000000    -0.0000000
     0.0000000    -0.0000001     0.0000000    -0.0000001     0.0000000
    -0.0000000    -0.0000000    -0.0000001     0.0000000    -0.0000000
    -0.0000002    -0.0000000     0.0000000    -0.0000000     0.0000000
 l=   3
     0.0000000     0.0000000     0.0000000     0.0000000     0.0000000     0.0000000     0.0000000
     0.0000000     0.0000000     0.0000000     0.0000000     0.0000000     0.0000000     0.0000000
     0.0000000     0.0000000     0.0000000     0.0000000     0.0000000     0.0000000     0.0000000
     0.0000000     0.0000000     0.0000000     0.0000000     0.0000000     0.0000000     0.0000000
     0.0000000     0.0000000     0.0000000     0.0000000     0.0000000     0.0000000     0.0000000
     0.0000000     0.0000000     0.0000000     0.0000000     0.0000000     0.0000000     0.0000000
     0.0000000     0.0000000     0.0000000     0.0000000     0.0000000     0.0000000     0.0000000