 vasp.5.4.4.18Apr17-6-g9f103f2a35 (build Nov 03 2018 10:20:46) complex

 executed on             LinuxIFC date 2018.12.20  14:39:37

 INCAR:
 POTCAR:    PAW_PBE Kr_GW 21Aug2013

 POTCAR:    PAW_PBE Kr_GW 21Aug2013
   VRHFIN =Kr: s2p6

   TITEL  = PAW_PBE Kr_GW 21Aug2013
   POMASS =   83.800; ZVAL   =    8.000    mass and valenz
   ENMAX  =  252.232; ENMIN  =  189.174 eV

  PAW_PBE Kr_GW 21Aug2013               :

 POSCAR: Kr_FCC
  positions in direct lattice
  velocities in cartesian coordinates
 exchange correlation table for  LEXCH =        8
   RHO(1)=    0.500       N(1)  =     2000
   RHO(2)=  100.500       N(2)  =     4000

 ion  position               nearest neighbor table
   1  0.000  0.000  0.000-

IMPORTANT INFORMATION: All symmetrisations will be switched off!
NOSYMM: (Re-)initialisation of all symmetry stuff for point group C_1.

 KPOINTS: k-points

Automatic generation of k-mesh.
Space group operators:
 irot       det(A)        alpha          n_x          n_y          n_z        tau_x        tau_y        tau_z
    1     1.000000     0.000000     1.000000     0.000000     0.000000     0.000000     0.000000     0.000000

 Subroutine IBZKPT returns following result:

 Found    216 irreducible k-points:

 Following reciprocal coordinates:
            Coordinates               Weight
  0.000000  0.000000  0.000000      1.000000
  0.166667  0.000000  0.000000      1.000000
  0.333333 -0.000000  0.000000      1.000000
  0.500000  0.000000  0.000000      1.000000
 -0.333333  0.000000 -0.000000      1.000000
 -0.166667 -0.000000 -0.000000      1.000000
 -0.000000  0.166667 -0.000000      1.000000
  0.166667  0.166667  0.000000      1.000000
  0.333333  0.166667  0.000000      1.000000
  0.500000  0.166667  0.000000      1.000000
 -0.333333  0.166667 -0.000000      1.000000
 -0.166667  0.166667 -0.000000      1.000000
 -0.000000  0.333333  0.000000      1.000000
  0.166667  0.333333  0.000000      1.000000
  0.333333  0.333333  0.000000      1.000000
  0.500000  0.333333  0.000000      1.000000
 -0.333333  0.333333 -0.000000      1.000000
 -0.166667  0.333333 -0.000000      1.000000
  0.000000  0.500000 -0.000000      1.000000
  0.166667  0.500000  0.000000      1.000000
  0.333333  0.500000  0.000000      1.000000
  0.500000  0.500000  0.000000      1.000000
 -0.333333  0.500000 -0.000000      1.000000
 -0.166667  0.500000 -0.000000      1.000000
  0.000000 -0.333333 -0.000000      1.000000
  0.166667 -0.333333  0.000000      1.000000
  0.333333 -0.333333  0.000000      1.000000
  0.500000 -0.333333  0.000000      1.000000
 -0.333333 -0.333333  0.000000      1.000000
 -0.166667 -0.333333  0.000000      1.000000
  0.000000 -0.166667  0.000000      1.000000
  0.166667 -0.166667  0.000000      1.000000
  0.333333 -0.166667  0.000000      1.000000
  0.500000 -0.166667  0.000000      1.000000
 -0.333333 -0.166667 -0.000000      1.000000
 -0.166667 -0.166667  0.000000      1.000000
  0.000000  0.000000  0.166667      1.000000
  0.166667  0.000000  0.166667      1.000000
  0.333333 -0.000000  0.166667      1.000000
  0.500000  0.000000  0.166667      1.000000
 -0.333333  0.000000  0.166667      1.000000
 -0.166667  0.000000  0.166667      1.000000
 -0.000000  0.166667  0.166667      1.000000
  0.166667  0.166667  0.166667      1.000000
  0.333333  0.166667  0.166667      1.000000
  0.500000  0.166667  0.166667      1.000000
 -0.333333  0.166667  0.166667      1.000000
 -0.166667  0.166667  0.166667      1.000000
 -0.000000  0.333333  0.166667      1.000000
  0.166667  0.333333  0.166667      1.000000
  0.333333  0.333333  0.166667      1.000000
  0.500000  0.333333  0.166667      1.000000
 -0.333333  0.333333  0.166667      1.000000
 -0.166667  0.333333  0.166667      1.000000
  0.000000  0.500000  0.166667      1.000000
  0.166667  0.500000  0.166667      1.000000
  0.333333  0.500000  0.166667      1.000000
  0.500000  0.500000  0.166667      1.000000
 -0.333333  0.500000  0.166667      1.000000
 -0.166667  0.500000  0.166667      1.000000
[...]
  0.500000  0.500000 -0.166667      1.000000
 -0.333333  0.500000 -0.166667      1.000000
 -0.166667  0.500000 -0.166667      1.000000
  0.000000 -0.333333 -0.166667      1.000000
  0.166667 -0.333333 -0.166667      1.000000
  0.333333 -0.333333 -0.166667      1.000000
  0.500000 -0.333333 -0.166667      1.000000
 -0.333333 -0.333333 -0.166667      1.000000
 -0.166667 -0.333333 -0.166667      1.000000
 -0.000000 -0.166667 -0.166667      1.000000
  0.166667 -0.166667 -0.166667      1.000000
  0.333333 -0.166667 -0.166667      1.000000
  0.500000 -0.166667 -0.166667      1.000000
 -0.333333 -0.166667 -0.166667      1.000000
 -0.166667 -0.166667 -0.166667      1.000000

 Following cartesian coordinates:
            Coordinates               Weight
  0.000000  0.000000  0.000000      1.000000
  0.040499 -0.023382 -0.016534      1.000000
  0.080998 -0.046764 -0.033067      1.000000
  0.121497 -0.070146 -0.049601      1.000000
 -0.080998  0.046764  0.033067      1.000000
 -0.040499  0.023382  0.016534      1.000000
  0.000000  0.046764 -0.016534      1.000000
  0.040499  0.023382 -0.033067      1.000000
  0.080998  0.000000 -0.049601      1.000000
  0.121497 -0.023382 -0.066134      1.000000
 -0.080998  0.093528  0.016534      1.000000
 -0.040499  0.070146  0.000000      1.000000
  0.000000  0.093528 -0.033067      1.000000
  0.040499  0.070146 -0.049601      1.000000
  0.080998  0.046764 -0.066134      1.000000
  0.121497  0.023382 -0.082668      1.000000
 -0.080998  0.140292  0.000000      1.000000
 -0.040499  0.116910 -0.016534      1.000000
  0.000000  0.140292 -0.049601      1.000000
  0.040499  0.116910 -0.066134      1.000000
  0.080998  0.093528 -0.082668      1.000000
  0.121497  0.070146 -0.099202      1.000000
 -0.080998  0.187056 -0.016534      1.000000
 -0.040499  0.163674 -0.033067      1.000000
 -0.000000 -0.093528  0.033067      1.000000
  0.040499 -0.116910  0.016534      1.000000
  0.080998 -0.140292 -0.000000      1.000000
  0.121497 -0.163674 -0.016534      1.000000
 -0.080998 -0.046764  0.066134      1.000000
 -0.040499 -0.070146  0.049601      1.000000
 -0.000000 -0.046764  0.016534      1.000000
  0.040499 -0.070146 -0.000000      1.000000
  0.080998 -0.093528 -0.016534      1.000000
  0.121497 -0.116910 -0.033067      1.000000
 -0.080998  0.000000  0.049601      1.000000
 -0.040499 -0.023382  0.033067      1.000000
 -0.000000  0.000000  0.049601      1.000000
  0.040499 -0.023382  0.033067      1.000000
  0.080998 -0.046764  0.016534      1.000000
  0.121497 -0.070146 -0.000000      1.000000
 -0.080998  0.046764  0.082668      1.000000
 -0.040499  0.023382  0.066134      1.000000
 -0.000000  0.046764  0.033067      1.000000
  0.040499  0.023382  0.016534      1.000000
  0.080998  0.000000  0.000000      1.000000
  0.121497 -0.023382 -0.016534      1.000000
 -0.080998  0.093528  0.066134      1.000000
 -0.040499  0.070146  0.049601      1.000000
 -0.000000  0.093528  0.016534      1.000000
  0.040499  0.070146  0.000000      1.000000
  0.080998  0.046764 -0.016534      1.000000
  0.121497  0.023382 -0.033067      1.000000
 -0.080998  0.140292  0.049601      1.000000
 -0.040499  0.116910  0.033067      1.000000
 -0.000000  0.140292  0.000000      1.000000
  0.040499  0.116910 -0.016534      1.000000
  0.080998  0.093528 -0.033067      1.000000
  0.121497  0.070146 -0.049601      1.000000
 -0.080998  0.187056  0.033067      1.000000
 -0.040499  0.163674  0.016534      1.000000
[...]
  0.121497  0.070146 -0.148802      1.000000
 -0.080998  0.187056 -0.066134      1.000000
 -0.040499  0.163674 -0.082668      1.000000
  0.000000 -0.093528 -0.016534      1.000000
  0.040499 -0.116910 -0.033067      1.000000
  0.080998 -0.140292 -0.049601      1.000000
  0.121497 -0.163674 -0.066134      1.000000
 -0.080998 -0.046764  0.016534      1.000000
 -0.040499 -0.070146 -0.000000      1.000000
  0.000000 -0.046764 -0.033067      1.000000
  0.040499 -0.070146 -0.049601      1.000000
  0.080998 -0.093528 -0.066134      1.000000
  0.121497 -0.116910 -0.082668      1.000000
 -0.080998  0.000000 -0.000000      1.000000
 -0.040499 -0.023382 -0.016534      1.000000

 Subroutine IBZKPT_HF returns following result:

 Found    216 k-points in 1st BZ
 the following    216 k-points will be used (e.g. in the exchange kernel)
 Following reciprocal coordinates:   # in IRBZ
  0.000000  0.000000  0.000000    0.00462963   1 t-inv F
  0.166667  0.000000  0.000000    0.00462963   2 t-inv F
  0.333333 -0.000000  0.000000    0.00462963   3 t-inv F
  0.500000  0.000000  0.000000    0.00462963   4 t-inv F
 -0.333333  0.000000 -0.000000    0.00462963   5 t-inv F
 -0.166667 -0.000000 -0.000000    0.00462963   6 t-inv F
 -0.000000  0.166667 -0.000000    0.00462963   7 t-inv F
  0.166667  0.166667  0.000000    0.00462963   8 t-inv F
  0.333333  0.166667  0.000000    0.00462963   9 t-inv F
  0.500000  0.166667  0.000000    0.00462963  10 t-inv F
 -0.333333  0.166667 -0.000000    0.00462963  11 t-inv F
 -0.166667  0.166667 -0.000000    0.00462963  12 t-inv F
 -0.000000  0.333333  0.000000    0.00462963  13 t-inv F
  0.166667  0.333333  0.000000    0.00462963  14 t-inv F
  0.333333  0.333333  0.000000    0.00462963  15 t-inv F
  0.500000  0.333333  0.000000    0.00462963  16 t-inv F
 -0.333333  0.333333 -0.000000    0.00462963  17 t-inv F
 -0.166667  0.333333 -0.000000    0.00462963  18 t-inv F
  0.000000  0.500000 -0.000000    0.00462963  19 t-inv F
  0.166667  0.500000  0.000000    0.00462963  20 t-inv F
  0.333333  0.500000  0.000000    0.00462963  21 t-inv F
  0.500000  0.500000  0.000000    0.00462963  22 t-inv F
 -0.333333  0.500000 -0.000000    0.00462963  23 t-inv F
 -0.166667  0.500000 -0.000000    0.00462963  24 t-inv F
  0.000000 -0.333333 -0.000000    0.00462963  25 t-inv F
  0.166667 -0.333333  0.000000    0.00462963  26 t-inv F
  0.333333 -0.333333  0.000000    0.00462963  27 t-inv F
  0.500000 -0.333333  0.000000    0.00462963  28 t-inv F
 -0.333333 -0.333333  0.000000    0.00462963  29 t-inv F
 -0.166667 -0.333333  0.000000    0.00462963  30 t-inv F
  0.000000 -0.166667  0.000000    0.00462963  31 t-inv F
  0.166667 -0.166667  0.000000    0.00462963  32 t-inv F
  0.333333 -0.166667  0.000000    0.00462963  33 t-inv F
  0.500000 -0.166667  0.000000    0.00462963  34 t-inv F
 -0.333333 -0.166667 -0.000000    0.00462963  35 t-inv F
 -0.166667 -0.166667  0.000000    0.00462963  36 t-inv F
  0.000000  0.000000  0.166667    0.00462963  37 t-inv F
  0.166667  0.000000  0.166667    0.00462963  38 t-inv F
  0.333333 -0.000000  0.166667    0.00462963  39 t-inv F
  0.500000  0.000000  0.166667    0.00462963  40 t-inv F
 -0.333333  0.000000  0.166667    0.00462963  41 t-inv F
 -0.166667  0.000000  0.166667    0.00462963  42 t-inv F
 -0.000000  0.166667  0.166667    0.00462963  43 t-inv F
  0.166667  0.166667  0.166667    0.00462963  44 t-inv F
  0.333333  0.166667  0.166667    0.00462963  45 t-inv F
  0.500000  0.166667  0.166667    0.00462963  46 t-inv F
 -0.333333  0.166667  0.166667    0.00462963  47 t-inv F
 -0.166667  0.166667  0.166667    0.00462963  48 t-inv F
 -0.000000  0.333333  0.166667    0.00462963  49 t-inv F
[...]
 k-point 30 :  -0.1667-0.3333 0.0000  plane waves:    1074
 k-point 31 :   0.0000-0.1667 0.0000  plane waves:    1080
 k-point 32 :   0.1667-0.1667 0.0000  plane waves:    1074
 k-point 33 :   0.3333-0.1667 0.0000  plane waves:    1082
 k-point 34 :   0.5000-0.1667 0.0000  plane waves:    1080
 k-point 35 :  -0.3333-0.1667-0.0000  plane waves:    1074
 k-point 36 :  -0.1667-0.1667 0.0000  plane waves:    1096
 k-point 37 :   0.0000 0.0000 0.1667  plane waves:    1080
 k-point 38 :   0.1667 0.0000 0.1667  plane waves:    1096
 k-point 39 :   0.3333-0.0000 0.1667  plane waves:    1074
 k-point 40 :   0.5000 0.0000 0.1667  plane waves:    1080
 k-point 41 :  -0.3333 0.0000 0.1667  plane waves:    1082
 k-point 42 :  -0.1667 0.0000 0.1667  plane waves:    1074
 k-point 43 :  -0.0000 0.1667 0.1667  plane waves:    1096
 k-point 44 :   0.1667 0.1667 0.1667  plane waves:    1080
 k-point 45 :   0.3333 0.1667 0.1667  plane waves:    1074
 k-point 46 :   0.5000 0.1667 0.1667  plane waves:    1082
 k-point 47 :  -0.3333 0.1667 0.1667  plane waves:    1080
 k-point 48 :  -0.1667 0.1667 0.1667  plane waves:    1074
 k-point 49 :  -0.0000 0.3333 0.1667  plane waves:    1074
 k-point 50 :   0.1667 0.3333 0.1667  plane waves:    1074
 k-point 51 :   0.3333 0.3333 0.1667  plane waves:    1074
 k-point 52 :   0.5000 0.3333 0.1667  plane waves:    1070
 k-point 53 :  -0.3333 0.3333 0.1667  plane waves:    1068
 k-point 54 :  -0.1667 0.3333 0.1667  plane waves:    1070
 k-point 55 :   0.0000 0.5000 0.1667  plane waves:    1080
 k-point 56 :   0.1667 0.5000 0.1667  plane waves:    1082
 k-point 57 :   0.3333 0.5000 0.1667  plane waves:    1070
 k-point 58 :   0.5000 0.5000 0.1667  plane waves:    1072
 k-point 59 :  -0.3333 0.5000 0.1667  plane waves:    1068
 k-point 60 :  -0.1667 0.5000 0.1667  plane waves:    1068
[...]
 k-point 85 :   0.0000 0.3333 0.3333  plane waves:    1080
 k-point 86 :   0.1667 0.3333 0.3333  plane waves:    1074
 k-point 87 :   0.3333 0.3333 0.3333  plane waves:    1062
 k-point 88 :   0.5000 0.3333 0.3333  plane waves:    1082
 k-point 89 :  -0.3333 0.3333 0.3333  plane waves:    1056
 k-point 90 :  -0.1667 0.3333 0.3333  plane waves:    1072
 k-point 91 :  -0.0000 0.5000 0.3333  plane waves:    1072
 k-point 92 :   0.1667 0.5000 0.3333  plane waves:    1070
 k-point 93 :   0.3333 0.5000 0.3333  plane waves:    1082
 k-point 94 :   0.5000 0.5000 0.3333  plane waves:    1080
 k-point 95 :  -0.3333 0.5000 0.3333  plane waves:    1068
 k-point 96 :  -0.1667 0.5000 0.3333  plane waves:    1068
 k-point 97 :  -0.0000-0.3333 0.3333  plane waves:    1056
 k-point 98 :   0.1667-0.3333 0.3333  plane waves:    1068
 k-point 99 :   0.3333-0.3333 0.3333  plane waves:    1056
 k-point ** :   0.5000-0.3333 0.3333  plane waves:    1068
 k-point ** :  -0.3333-0.3333 0.3333  plane waves:    1056
 k-point ** :  -0.1667-0.3333 0.3333  plane waves:    1068
 k-point ** :   0.0000-0.1667 0.3333  plane waves:    1082
 k-point ** :   0.1667-0.1667 0.3333  plane waves:    1070
 k-point ** :   0.3333-0.1667 0.3333  plane waves:    1072
 k-point ** :   0.5000-0.1667 0.3333  plane waves:    1068
 k-point ** :  -0.3333-0.1667 0.3333  plane waves:    1068
 k-point ** :  -0.1667-0.1667 0.3333  plane waves:    1080
 k-point ** :   0.0000 0.0000 0.5000  plane waves:    1088
 k-point ** :   0.1667 0.0000 0.5000  plane waves:    1080
 k-point ** :   0.3333-0.0000 0.5000  plane waves:    1072
 k-point ** :   0.5000-0.0000 0.5000  plane waves:    1048
 k-point ** :  -0.3333 0.0000 0.5000  plane waves:    1072
 k-point ** :  -0.1667-0.0000 0.5000  plane waves:    1080
 k-point ** :   0.0000 0.1667 0.5000  plane waves:    1080
 k-point ** :   0.1667 0.1667 0.5000  plane waves:    1082
 k-point ** :   0.3333 0.1667 0.5000  plane waves:    1070
 k-point ** :   0.5000 0.1667 0.5000  plane waves:    1072
 k-point ** :  -0.3333 0.1667 0.5000  plane waves:    1068
 k-point ** :  -0.1667 0.1667 0.5000  plane waves:    1068
 k-point ** :   0.0000 0.3333 0.5000  plane waves:    1072
 k-point ** :   0.1667 0.3333 0.5000  plane waves:    1070
 k-point ** :   0.3333 0.3333 0.5000  plane waves:    1082
 k-point ** :   0.5000 0.3333 0.5000  plane waves:    1080
 k-point ** :  -0.3333 0.3333 0.5000  plane waves:    1068
 k-point ** :  -0.1667 0.3333 0.5000  plane waves:    1068
 k-point ** :  -0.0000 0.5000 0.5000  plane waves:    1048
 k-point ** :   0.1667 0.5000 0.5000  plane waves:    1072
 k-point ** :   0.3333 0.5000 0.5000  plane waves:    1080
 k-point ** :   0.5000 0.5000 0.5000  plane waves:    1088
 k-point ** :  -0.3333 0.5000 0.5000  plane waves:    1080
 k-point ** :  -0.1667 0.5000 0.5000  plane waves:    1072
 k-point ** :   0.0000-0.3333 0.5000  plane waves:    1072
 k-point ** :   0.1667-0.3333 0.5000  plane waves:    1068
 k-point ** :   0.3333-0.3333 0.5000  plane waves:    1068
 k-point ** :   0.5000-0.3333 0.5000  plane waves:    1080
 k-point ** :  -0.3333-0.3333 0.5000  plane waves:    1082
 k-point ** :  -0.1667-0.3333 0.5000  plane waves:    1070
 k-point ** :   0.0000-0.1667 0.5000  plane waves:    1080
 k-point ** :   0.1667-0.1667 0.5000  plane waves:    1068
 k-point ** :   0.3333-0.1667 0.5000  plane waves:    1068
 k-point ** :   0.5000-0.1667 0.5000  plane waves:    1072
 k-point ** :  -0.3333-0.1667 0.5000  plane waves:    1070
 k-point ** :  -0.1667-0.1667 0.5000  plane waves:    1082
 k-point ** :   0.0000 0.0000-0.3333  plane waves:    1062
 k-point ** :   0.1667-0.0000-0.3333  plane waves:    1082
 k-point ** :   0.3333-0.0000-0.3333  plane waves:    1056
 k-point ** :   0.5000 0.0000-0.3333  plane waves:    1072
 k-point ** :  -0.3333 0.0000-0.3333  plane waves:    1080
 k-point ** :  -0.1667 0.0000-0.3333  plane waves:    1074
 k-point ** :   0.0000 0.1667-0.3333  plane waves:    1082
 k-point ** :   0.1667 0.1667-0.3333  plane waves:    1080
 k-point ** :   0.3333 0.1667-0.3333  plane waves:    1068
 k-point ** :   0.5000 0.1667-0.3333  plane waves:    1068
 k-point ** :  -0.3333 0.1667-0.3333  plane waves:    1072
 k-point ** :  -0.1667 0.1667-0.3333  plane waves:    1070
 k-point ** :   0.0000 0.3333-0.3333  plane waves:    1056
 k-point ** :   0.1667 0.3333-0.3333  plane waves:    1068
 k-point ** :   0.3333 0.3333-0.3333  plane waves:    1056
[...]
 k-point ** :   0.5000 0.5000-0.1667  plane waves:    1072
 k-point ** :  -0.3333 0.5000-0.1667  plane waves:    1070
 k-point ** :  -0.1667 0.5000-0.1667  plane waves:    1082
 k-point ** :   0.0000-0.3333-0.1667  plane waves:    1074
 k-point ** :   0.1667-0.3333-0.1667  plane waves:    1070
 k-point ** :   0.3333-0.3333-0.1667  plane waves:    1068
 k-point ** :   0.5000-0.3333-0.1667  plane waves:    1070
 k-point ** :  -0.3333-0.3333-0.1667  plane waves:    1074
 k-point ** :  -0.1667-0.3333-0.1667  plane waves:    1074
 k-point ** :  -0.0000-0.1667-0.1667  plane waves:    1096
 k-point ** :   0.1667-0.1667-0.1667  plane waves:    1074
 k-point ** :   0.3333-0.1667-0.1667  plane waves:    1080
 k-point ** :   0.5000-0.1667-0.1667  plane waves:    1082
 k-point ** :  -0.3333-0.1667-0.1667  plane waves:    1074
 k-point ** :  -0.1667-0.1667-0.1667  plane waves:    1080

 maximum and minimum number of plane-waves per node :       300      236

 maximum number of plane-waves:      1096
 maximum index in each direction:
   IXMAX=    5   IYMAX=    5   IZMAX=    5
   IXMIN=   -6   IYMIN=   -6   IZMIN=   -6

 parallel 3D FFT for wavefunctions:
    minimum data exchange during FFTs selected (reduces bandwidth)
 parallel 3D FFT for charge:
    minimum data exchange during FFTs selected (reduces bandwidth)

 FFT grid for exact exchange (Hartree Fock)
  NGX = 18; NGY = 18; NGZ = 18

 Radii for the augmentation spheres in the non-local exchange
 for species   1 augmentation radius   1.213 (default was   0.970)
       energy cutoff for augmentation   1200.0

 real space projection operators:
  max/ min on nodes  :         58.59         33.20

 Maximum index for augmentation-charges in exchange          299
  SETUP_FOCK is finished

 Broyden mixing: mesh for mixing (old mesh)
   NGX = 11   NGY = 11   NGZ = 11
  (NGX  = 48   NGY  = 48   NGZ  = 48)
  gives a total of   1331 points

 initial charge density was supplied:
 charge density of overlapping atoms calculated
 number of electron       8.0000000 magnetization       1.0000000      1.0000000      1.0000000
 keeping initial charge density in first step

 Maximum index for augmentation-charges         9351 (set IRDMAX)

 First call to EWALD:  gamma=   0.496
 Maximum number of real-space cells 3x 3x 3
 Maximum number of reciprocal cells 3x 3x 3

--------------------------------------- Iteration      1(   1)  ---------------------------------------

 eigenvalue-minimisations  : 10088
 total energy-change (2. order) : 0.6759237E+02  (-0.2554329E+03)
 number of electron       8.0000000 magnetization       1.0000000      1.0000000      1.0000000
 augmentation part        8.0000000 magnetization       1.0000000      1.0000000      1.0000000

 Free energy of the ion-electron system (eV)
  alpha Z        PSCENC =         9.21045435
  Ewald energy   TEWEN  =      -372.60190661
  -Hartree energ DENC   =      -100.31978674
  -exchange      EXHF   =         0.00000000
  -V(xc)+E(xc)   XCENC  =        11.07483585
  PAW double counting   =       413.61296143     -409.58412225
  entropy T*S    EENTRO =        -0.00076408
  eigenvalues    EBANDS =         9.99855001
  atomic energy  EATOM  =       506.20215197
  free energy    TOTEN  =        67.59237393 eV

  energy without entropy =       67.59313801  energy(sigma->0) =       67.59275597
  exchange ACFDT corr.  =         0.00000000  see jH, gK, PRB 81, 115126

[...]

 eigenvalue-minimisations  : 15552
 total energy-change (2. order) :-0.4563411E+02  (-0.3908356E+02)
 number of electron       8.0000000 magnetization       1.0000000      1.0000000      1.0000000
 augmentation part        8.0000000 magnetization       1.0000000      1.0000000      1.0000000

[...]

--------------------------------------- Iteration      1(  20)  ---------------------------------------

 eigenvalue-minimisations  :     0
 total energy-change (2. order) :-0.6842549E-07  (-0.4843516E-07)
 number of electron       8.0000000 magnetization      -0.0000000     -0.0000000     -0.0000000
 augmentation part       -0.8516368 magnetization      -0.0000020     -0.0000019     -0.0000019

 Free energy of the ion-electron system (eV)
  alpha Z        PSCENC =         9.21045435
  Ewald energy   TEWEN  =      -372.60190661
  -Hartree energ DENC   =      -100.81886719
  -exchange      EXHF   =        16.81388464
  -V(xc)+E(xc)   XCENC  =        10.97692768
  PAW double counting   =       416.84114734     -412.81706837
  entropy T*S    EENTRO =        -0.00000000
  eigenvalues    EBANDS =       -73.87303289
  atomic energy  EATOM  =       506.20215197
  free energy    TOTEN  =        -0.06626006 eV

  energy without entropy =       -0.06626006  energy(sigma->0) =       -0.06626006
  exchange ACFDT corr.  =         0.00000000  see jH, gK, PRB 81, 115126

  average scaling for gradient   1.0599

 average (electrostatic) potential at core
  the test charge radii are     0.9700
  (the norm of the test charge is              1.0000)
       1 -94.6216

 E-fermi :  -4.3364     XC(G=0):  -5.6215     alpha+bet : -4.8640

 k-point     1 :       0.0000    0.0000    0.0000
  band No.  band energies     occupation
      1     -20.5781      1.00000
      2     -20.5780      1.00000
      3      -5.3727      1.00000
      4      -5.3727      1.00000
      5      -4.6382      1.00000
      6      -4.6382      1.00000
      7      -4.6381      1.00000
      8      -4.6381      1.00000
      9       3.8455      0.00000
     10       3.8455      0.00000
     11      10.4325      0.00000
     12      10.4326      0.00000
     13      10.4326      0.00000
     14      10.4326      0.00000
     15      10.4439      0.00000
     16      10.4440      0.00000
     17      13.0648      0.00000
     18      13.0679      0.00000

[...]

 k-point   216 :      -0.1667   -0.1667   -0.1667
  band No.  band energies     occupation
      1     -20.5295      1.00000
      2     -20.5294      1.00000
      3      -5.5814      1.00000
      4      -5.5814      1.00000
      5      -4.9049      1.00000
      6      -4.9049      1.00000
      7      -4.6841      1.00000
      8      -4.6840      1.00000
      9       4.5907      0.00000
     10       4.5907      0.00000
     11       9.5172      0.00000
     12       9.5172      0.00000
     13      10.6657      0.00000
     14      10.6666      0.00000
     15      10.6740      0.00000
     16      10.6743      0.00000
     17      12.4954      0.00000
     18      12.4997      0.00000

 soft charge-density along one line, spin component           1
         0         1         2         3         4         5         6         7         8         9
 total charge-density along one line

[...]

 soft charge-density along one line, spin component           4
         0         1         2         3         4         5         6         7         8         9
 total charge-density along one line

------------------------ aborting loop because EDIFF is reached ----------------------------------------

  FORCE on cell =-STRESS in cart. coord.  units (eV):
  Direction    XX          YY          ZZ          XY          YZ          ZX
  Alpha Z     9.21045     9.21045     9.21045
  Ewald    -124.20064  -124.20064  -124.20064    -0.00000    -0.00000    -0.00000
  Hartree    33.60609    33.60609    33.60609    -0.00000    -0.00000     0.00000
  E(xc)     -23.86784   -23.86784   -23.86784    -0.00000    -0.00000    -0.00000
  Local     -94.15565   -94.15563   -94.15562    -0.00001    -0.00000    -0.00001
  n-local   104.46772   104.46772   104.46772    -0.00000    -0.00000     0.00000
  augment   -17.42383   -17.42385   -17.42385     0.00001     0.00000     0.00001
  Kinetic   117.83698   117.83698   117.83698     0.00000    -0.00000    -0.00000
  Fock       -5.28262    -5.28262    -5.28262    -0.00000    -0.00000    -0.00000
  Total       0.19066     0.19067     0.19067     0.00000    -0.00000    -0.00000
  in kB       6.70316     6.70330     6.70333     0.00004    -0.00002    -0.00010

 VOLUME and BASIS-vectors are now :
  energy-cutoff  :      300.00
  volume of cell :       45.57
      direct lattice vectors                 reciprocal lattice vectors
     4.009334177  0.000000000  0.000000000     0.249417972 -0.144001533 -0.101824461
     2.004667088  3.472185249 -0.000000000     0.000000000  0.288003067 -0.101824461
     2.004667088  1.157395083  3.273607647    -0.000000000  0.000000000  0.305473382

  length of vectors
     4.009334177  4.009334177  4.009334177     0.305473382  0.305473382  0.305473382

 FORCES acting on ions:
    Electron-Ion                     Ewald-Force                    Non-Local-Force
   0.246E-06 0.728E-06 0.487E-06   0.634E-15 -.247E-15 0.643E-15   0.751E-06 -.188E-06 0.193E-05
   0.233E-06 0.752E-06 0.454E-06   0.634E-15 -.247E-15 0.643E-15   0.751E-06 -.188E-06 0.193E-05

 POSITION                                       TOTAL-FORCE (eV/Angst)
      0.00000      0.00000      0.00000         0.000001      0.000001      0.000002
    total drift:                                0.000001      0.000001      0.000002

  FREE ENERGIE OF THE ION-ELECTRON SYSTEM (eV)
  free  energy   TOTEN  =        -0.06626006 eV

  energy  without entropy=       -0.06626006  energy(sigma->0) =       -0.06626006

 writing wavefunctions

 Spin-Orbit-Coupling matrix elements

 Ion:    1  E_soc:     -0.0787000
 l=   1
     0.0000000    -0.0131164    -0.0131164
    -0.0131164     0.0000000    -0.0131164
    -0.0131164    -0.0131164     0.0000000
 l=   2
     0.0000000    -0.0000001     0.0000000    -0.0000001    -0.0000002
    -0.0000001     0.0000000    -0.0000002    -0.0000001    -0.0000001
     0.0000000    -0.0000002     0.0000000    -0.0000002     0.0000000
    -0.0000001    -0.0000001    -0.0000002     0.0000000    -0.0000001
    -0.0000002    -0.0000001     0.0000000    -0.0000001     0.0000000
 l=   3
     0.0000000     0.0000000     0.0000000     0.0000000     0.0000000     0.0000000     0.0000000
     0.0000000     0.0000000     0.0000000     0.0000000     0.0000000     0.0000000     0.0000000
     0.0000000     0.0000000     0.0000000     0.0000000     0.0000000     0.0000000     0.0000000
     0.0000000     0.0000000     0.0000000     0.0000000     0.0000000     0.0000000     0.0000000
     0.0000000     0.0000000     0.0000000     0.0000000     0.0000000     0.0000000     0.0000000
     0.0000000     0.0000000     0.0000000     0.0000000     0.0000000     0.0000000     0.0000000
     0.0000000     0.0000000     0.0000000     0.0000000     0.0000000     0.0000000     0.0000000