 vasp.5.4.4.18Apr17-6-g9f103f2a35 (build Jul 09 2018 16:43:14) complex

 executed on             LinuxIFC date 2018.11.29  20:07:01

 INCAR:
 POTCAR:    PAW_PBE Xe_GW 08Jan2009

 POTCAR:    PAW_PBE Xe_GW 08Jan2009
   VRHFIN =Xe: s2p6

   TITEL  = PAW_PBE Xe_GW 08Jan2009
   POMASS =  131.294; ZVAL   =    8.000    mass and valenz
   ENMAX  =  179.547; ENMIN  =  134.660 eV

  PAW_PBE Xe_GW 08Jan2009               :

 POSCAR: Xe_FCC
  positions in direct lattice
  velocities in cartesian coordinates

 METAGGA = SCAN     LMAXTAU =  0    LMIXTAU =  F

 ion  position               nearest neighbor table
   1  0.000  0.000  0.000-

IMPORTANT INFORMATION: All symmetrisations will be switched off!
NOSYMM: (Re-)initialisation of all symmetry stuff for point group C_1.

 KPOINTS: k-points

Automatic generation of k-mesh.
Space group operators:
 irot       det(A)        alpha          n_x          n_y          n_z        tau_x        tau_y        tau_z
    1     1.000000     0.000001     1.000000     0.000000     0.000000     0.000000     0.000000     0.000000

 Subroutine IBZKPT returns following result:

 Found    216 irreducible k-points:

 Following reciprocal coordinates:
            Coordinates               Weight
  0.000000  0.000000  0.000000      1.000000
  0.166667  0.000000  0.000000      1.000000
  0.333333 -0.000000  0.000000      1.000000
  0.500000  0.000000  0.000000      1.000000
 -0.333333 -0.000000 -0.000000      1.000000
 -0.166667 -0.000000 -0.000000      1.000000
 -0.000000  0.166667  0.000000      1.000000
  0.166667  0.166667  0.000000      1.000000
  0.333333  0.166667  0.000000      1.000000
  0.500000  0.166667  0.000000      1.000000
 -0.333333  0.166667 -0.000000      1.000000
 -0.166667  0.166667  0.000000      1.000000
 -0.000000  0.333333  0.000000      1.000000
  0.166667  0.333333  0.000000      1.000000
  0.333333  0.333333  0.000000      1.000000
  0.500000  0.333333  0.000000      1.000000
 -0.333333  0.333333 -0.000000      1.000000
 -0.166667  0.333333  0.000000      1.000000
  0.000000  0.500000  0.000000      1.000000
  0.166667  0.500000  0.000000      1.000000
  0.333333  0.500000  0.000000      1.000000
  0.500000  0.500000  0.000000      1.000000
 -0.333333  0.500000  0.000000      1.000000
 -0.166667  0.500000 -0.000000      1.000000
  0.000000 -0.333333  0.000000      1.000000
  0.166667 -0.333333  0.000000      1.000000
  0.333333 -0.333333  0.000000      1.000000
  0.500000 -0.333333  0.000000      1.000000
 -0.333333 -0.333333 -0.000000      1.000000
 -0.166667 -0.333333 -0.000000      1.000000
  0.000000 -0.166667  0.000000      1.000000
  0.166667 -0.166667 -0.000000      1.000000
  0.333333 -0.166667  0.000000      1.000000
  0.500000 -0.166667  0.000000      1.000000
 -0.333333 -0.166667 -0.000000      1.000000
 -0.166667 -0.166667 -0.000000      1.000000
 -0.000000 -0.000000  0.166667      1.000000
  0.166667  0.000000  0.166667      1.000000
  0.333333 -0.000000  0.166667      1.000000
  0.500000  0.000000  0.166667      1.000000
 -0.333333 -0.000000  0.166667      1.000000
 -0.166667  0.000000  0.166667      1.000000
 -0.000000  0.166667  0.166667      1.000000
  0.166667  0.166667  0.166667      1.000000
  0.333333  0.166667  0.166667      1.000000
  0.500000  0.166667  0.166667      1.000000
 -0.333333  0.166667  0.166667      1.000000
 -0.166667  0.166667  0.166667      1.000000
 -0.000000  0.333333  0.166667      1.000000
  0.166667  0.333333  0.166667      1.000000
  0.333333  0.333333  0.166667      1.000000
  0.500000  0.333333  0.166667      1.000000
 -0.333333  0.333333  0.166667      1.000000
 -0.166667  0.333333  0.166667      1.000000
 -0.000000  0.500000  0.166667      1.000000
  0.166667  0.500000  0.166667      1.000000
  0.333333  0.500000  0.166667      1.000000
  0.500000  0.500000  0.166667      1.000000
 -0.333333  0.500000  0.166667      1.000000
 -0.166667  0.500000  0.166667      1.000000
[...]
  0.500000  0.500000 -0.166667      1.000000
 -0.333333  0.500000 -0.166667      1.000000
 -0.166667  0.500000 -0.166667      1.000000
  0.000000 -0.333333 -0.166667      1.000000
  0.166667 -0.333333 -0.166667      1.000000
  0.333333 -0.333333 -0.166667      1.000000
  0.500000 -0.333333 -0.166667      1.000000
 -0.333333 -0.333333 -0.166667      1.000000
 -0.166667 -0.333333 -0.166667      1.000000
  0.000000 -0.166667 -0.166667      1.000000
  0.166667 -0.166667 -0.166667      1.000000
  0.333333 -0.166667 -0.166667      1.000000
  0.500000 -0.166667 -0.166667      1.000000
 -0.333333 -0.166667 -0.166667      1.000000
 -0.166667 -0.166667 -0.166667      1.000000

 Following cartesian coordinates:
            Coordinates               Weight
  0.000000  0.000000  0.000000      1.000000
  0.037604 -0.021710 -0.015352      1.000000
  0.075207 -0.043421 -0.030703      1.000000
  0.112811 -0.065131 -0.046055      1.000000
 -0.075207  0.043421  0.030703      1.000000
 -0.037604  0.021710  0.015352      1.000000
  0.000000  0.043421 -0.015352      1.000000
  0.037604  0.021710 -0.030703      1.000000
  0.075207  0.000000 -0.046055      1.000000
  0.112811 -0.021710 -0.061406      1.000000
 -0.075207  0.086842  0.015352      1.000000
 -0.037604  0.065131  0.000000      1.000000
  0.000000  0.086842 -0.030703      1.000000
  0.037604  0.065131 -0.046055      1.000000
  0.075207  0.043421 -0.061406      1.000000
  0.112811  0.021710 -0.076758      1.000000
 -0.075207  0.130263  0.000000      1.000000
 -0.037604  0.108552 -0.015352      1.000000
  0.000000  0.130263 -0.046055      1.000000
  0.037604  0.108552 -0.061406      1.000000
  0.075207  0.086842 -0.076758      1.000000
  0.112811  0.065131 -0.092110      1.000000
 -0.075207  0.173684 -0.015352      1.000000
 -0.037604  0.151973 -0.030703      1.000000
 -0.000000 -0.086842  0.030703      1.000000
  0.037604 -0.108552  0.015352      1.000000
  0.075207 -0.130263 -0.000000      1.000000
  0.112811 -0.151973 -0.015352      1.000000
 -0.075207 -0.043421  0.061406      1.000000
 -0.037604 -0.065131  0.046055      1.000000
 -0.000000 -0.043421  0.015352      1.000000
  0.037604 -0.065131 -0.000000      1.000000
  0.075207 -0.086842 -0.015352      1.000000
  0.112811 -0.108552 -0.030703      1.000000
 -0.075207 -0.000000  0.046055      1.000000
 -0.037604 -0.021710  0.030703      1.000000
 -0.000000  0.000000  0.046055      1.000000
  0.037604 -0.021710  0.030703      1.000000
  0.075207 -0.043421  0.015352      1.000000
  0.112811 -0.065131 -0.000000      1.000000
 -0.075207  0.043421  0.076758      1.000000
 -0.037604  0.021710  0.061406      1.000000
 -0.000000  0.043421  0.030703      1.000000
  0.037604  0.021710  0.015352      1.000000
  0.075207  0.000000  0.000000      1.000000
  0.112811 -0.021710 -0.015352      1.000000
 -0.075207  0.086842  0.061406      1.000000
 -0.037604  0.065131  0.046055      1.000000
 -0.000000  0.086842  0.015352      1.000000
  0.037604  0.065131  0.000000      1.000000
  0.075207  0.043421 -0.015352      1.000000
  0.112811  0.021710 -0.030703      1.000000
 -0.075207  0.130263  0.046055      1.000000
 -0.037604  0.108552  0.030703      1.000000
 -0.000000  0.130263  0.000000      1.000000
  0.037604  0.108552 -0.015352      1.000000
  0.075207  0.086842 -0.030703      1.000000
  0.112811  0.065131 -0.046055      1.000000
 -0.075207  0.173684  0.030703      1.000000
 -0.037604  0.151973  0.015352      1.000000
[...]
  0.112811  0.065131 -0.138164      1.000000
 -0.075207  0.173684 -0.061406      1.000000
 -0.037604  0.151973 -0.076758      1.000000
  0.000000 -0.086842 -0.015352      1.000000
  0.037604 -0.108552 -0.030703      1.000000
  0.075207 -0.130263 -0.046055      1.000000
  0.112811 -0.151973 -0.061406      1.000000
 -0.075207 -0.043421  0.015352      1.000000
 -0.037604 -0.065131 -0.000000      1.000000
  0.000000 -0.043421 -0.030703      1.000000
  0.037604 -0.065131 -0.046055      1.000000
  0.075207 -0.086842 -0.061406      1.000000
  0.112811 -0.108552 -0.076758      1.000000
 -0.075207 -0.000000 -0.000000      1.000000
 -0.037604 -0.021710 -0.015352      1.000000

 SYSTEM =  Og_FCC
 POSCAR =  Xe_FCC

 Startparameter for this run:
   NWRITE =      2    write-flag & timer
   PREC   = accura    normal or accurate (medium, high low for compatibility)
   ISTART =      0    job   : 0-new  1-cont  2-samecut
   ICHARG =      2    charge: 1-file 2-atom 10-const
   ISPIN  =      1    spin polarized calculation?
   LNONCOLLINEAR =      T non collinear calculations
   LSORBIT =      T    spin-orbit coupling
   INIWAV =      1    electr: 0-lowe 1-rand  2-diag
   LASPH  =      F    aspherical Exc in radial PAW
   METAGGA=      F    non-selfconsistent MetaGGA calc.

 Electronic Relaxation 1
   ENCUT  =  300.0 eV  22.05 Ry    4.70 a.u.   6.26  6.26  6.26*2*pi/ulx,y,z
   ENINI  =  300.0     initial cutoff
   ENAUG  =  605.9 eV  augmentation charge cutoff
   NELM   =     50;   NELMIN=  2; NELMDL= -5     # of ELM steps
   EDIFF  = 0.1E-07   stopping-criterion for ELM
   LREAL  =      F    real-space projection
   NLSPLINE    = F    spline interpolate recip. space projectors
   LCOMPAT=      F    compatible to vasp.4.4
   GGA_COMPAT  = F    GGA compatible to vasp.4.4-vasp.4.6
   LMAXPAW     = -100 max onsite density
   LMAXMIX     =    2 max onsite mixed and CHGCAR
   VOSKOWN=      0    Vosko Wilk Nusair interpolation
   ROPT   =    0.00000
 Ionic relaxation
   EDIFFG = 0.1E-04   stopping-criterion for IOM
   NSW    =      1    number of steps for IOM
   NBLOCK =      1;   KBLOCK =      1    inner block; outer block
   IBRION =     -1    ionic relax: 0-MD 1-quasi-New 2-CG
   NFREE  =      5    steps in history (QN), initial steepest desc. (CG)
   ISIF   =      3    stress and relaxation
   IWAVPR =     10    prediction:  0-non 1-charg 2-wave 3-comb
   ISYM   =      0    0-nonsym 1-usesym 2-fastsym
   LCORR  =      T    Harris-Foulkes like correction to forces

   POTIM  = 0.1000    time-step for ionic-motion
   TEIN   =    0.0    initial temperature
   TEBEG  =    0.0;   TEEND  =   0.0 temperature during run
   SMASS  =  -3.00    Nose mass-parameter (am)
   estimated Nose-frequenzy (Omega)   =  0.10E-29 period in steps =****** mass=  -0.449E-27a.u.
   SCALEE = 1.0000    scale energy and forces
   NPACO  =    256;   APACO  = 16.0  distance and # of slots for P.C.
   PSTRESS=    0.0 pullay stress

  Mass of Ions in am
   POMASS = 131.29
  Ionic Valenz
   ZVAL   =   8.00
  Atomic Wigner-Seitz radii
  virtual crystal weights
   VCA    =   1.00
   NELECT =       8.0000    total number of electrons
   NUPDOWN=      -1.0000    fix difference up-down

 DOS related values:
   EMIN   =  10.00;   EMAX   =-10.00  energy-range for DOS
   EFERMI =   0.00
   ISMEAR =     0;   SIGMA  =   0.00  broadening in eV -4-tet -1-fermi 0-gaus

 Electronic relaxation 2 (details)
   IALGO  =     38    algorithm
   LDIAG  =      T    sub-space diagonalisation (order eigenvalues)
   LSUBROT=      F    optimize rotation matrix (better conditioning)
   TURBO    =      0    0=normal 1=particle mesh
   IRESTART =      0    0=no restart 2=restart with 2 vectors
   NREBOOT  =      0    no. of reboots
   NMIN     =      0    reboot dimension
[...]
   17.030987    0.061053    0.063055    0.063243    0.000694    0.001271    0.001226
   17.378558    0.066040    0.063927    0.063167    0.002131   -0.000515    0.001230
   17.726129    0.073865    0.073019    0.072711    0.000658    0.000119    0.000388
   18.073700   -0.025430   -0.025748   -0.026215   -0.000302   -0.000246   -0.000453
   18.421271    0.142879    0.142668    0.142349   -0.000099   -0.000139   -0.000185
   18.768843    0.236930    0.236784    0.236530   -0.000054   -0.000077   -0.000111
   19.116414    0.304758    0.304650    0.304437   -0.000038   -0.000045   -0.000078
   19.463985    0.358744    0.358662    0.358477   -0.000029   -0.000026   -0.000059
   19.811556    0.403918    0.403854    0.403690   -0.000024   -0.000015   -0.000047
   20.159127    0.443010    0.442958    0.442811   -0.000021   -0.000008   -0.000039
   20.506698    0.476071    0.476028    0.475895   -0.000019   -0.000003   -0.000033
[...]
   29.543549    0.810685    0.810682    0.810648   -0.000005    0.000007   -0.000005
   29.891120    0.815992    0.815989    0.815956   -0.000004    0.000007   -0.000005
   30.238691    0.821061    0.821058    0.821026   -0.000004    0.000006   -0.000005
   30.586262    0.825907    0.825905    0.825874   -0.000004    0.000006   -0.000005
   30.933833    0.830546    0.830544    0.830513   -0.000004    0.000006   -0.000004
   31.281404    0.834990    0.834987    0.834958   -0.000004    0.000006   -0.000004
   31.628976    0.839250    0.839248    0.839219   -0.000004    0.000006   -0.000004
   31.976547    0.843337    0.843336    0.843308   -0.000004    0.000006   -0.000004
   32.324118    0.847262    0.847260    0.847233   -0.000004    0.000006   -0.000004
   32.671689    0.851033    0.851031    0.851005   -0.000003    0.000006   -0.000004
   33.019260    0.854658    0.854657    0.854631   -0.000003    0.000005   -0.000004
   33.366831    0.858146    0.858145    0.858120   -0.000003    0.000005   -0.000003
   33.714403    0.861503    0.861502    0.861478   -0.000003    0.000005   -0.000003
   34.061974    0.864737    0.864736    0.864712   -0.000003    0.000005   -0.000003
   34.409545    0.867854    0.867852    0.867829   -0.000003    0.000005   -0.000003

  frequency dependent IMAGINARY DIELECTRIC FUNCTION (independent particle, no local field effects) current-current (2nd set in vasprun.xml)
     E(ev)      X         Y         Z        XY        YZ        ZX
    0.000000    6.469509    6.469389    6.469871    0.013917    0.011109    0.013897
    0.347571    0.648421    0.648409    0.648458    0.001393    0.001112    0.001390
    0.695142    0.326456    0.326450    0.326474    0.000698    0.000557    0.000696
    1.042713    0.220172    0.220168    0.220184    0.000466    0.000372    0.000466
    1.390285    0.167855    0.167852    0.167864    0.000351    0.000280    0.000351
    1.737856    0.137180    0.137178    0.137187    0.000283    0.000225    0.000282
    2.085427    0.117390    0.117388    0.117396    0.000237    0.000189    0.000237
    2.432998    0.103895    0.103893    0.103900    0.000205    0.000163    0.000204
    2.780569    0.094421    0.094420    0.094426    0.000181    0.000144    0.000181
    3.128140    0.087733    0.087731    0.087737    0.000163    0.000129    0.000162
    3.475712    0.083122    0.083120    0.083125    0.000148    0.000118    0.000148
    3.823283    0.080180    0.080178    0.080183    0.000137    0.000108    0.000136
    4.170854    0.078698    0.078697    0.078701    0.000127    0.000101    0.000127
    4.518425    0.078622    0.078621    0.078625    0.000120    0.000094    0.000119
    4.865996    0.080060    0.080059    0.080063    0.000113    0.000089    0.000112
    5.213567    0.083363    0.083362    0.083365    0.000108    0.000085    0.000107
    5.561139    0.089414    0.089412    0.089416    0.000104    0.000081    0.000103
    5.908710    0.101027    0.101024    0.101028    0.000100    0.000078    0.000099
    6.256281    0.140806    0.140802    0.140805    0.000098    0.000076    0.000097
    6.603852    0.190608    0.190602    0.190605    0.000097    0.000074    0.000095
    6.951423    0.272161    0.272149    0.272151    0.000100    0.000074    0.000097
    7.298994    0.542318    0.542297    0.542297    0.000106    0.000076    0.000101
    7.646566    0.636831    0.636815    0.636816    0.000101    0.000073    0.000096
    7.994137    0.891287    0.891172    0.891157    0.000186    0.000107    0.000156
    8.341708    1.495758    1.495750    1.495748    0.000093    0.000069    0.000090
    8.689279    2.741010    2.741336    2.741400   -0.000194   -0.000048   -0.000114
    9.036850    3.466454    3.466232    3.466196    0.000274    0.000140    0.000217
    9.384421    2.519091    2.518874    2.518838    0.000276    0.000143    0.000219
    9.731992    2.715663    2.715652    2.715655    0.000098    0.000070    0.000093
   10.079564    4.963002    4.962918    4.962902    0.000159    0.000093    0.000137
   10.427135    3.549761    3.550166    3.550256   -0.000254   -0.000071   -0.000153
   10.774706    3.265619    3.265615    3.265620    0.000101    0.000072    0.000097
   11.122277    2.957188    2.957174    2.957171    0.000112    0.000077    0.000107
   11.469848    3.353309    3.353422    3.353462    0.000007    0.000034    0.000033
   11.817419    3.109035    3.108932    3.108920    0.000199    0.000113    0.000170
   12.164991    1.967040    1.967048    1.967061    0.000106    0.000072    0.000105
   12.512562    1.783582    1.783792    1.783856   -0.000076   -0.000015   -0.000024
   12.860133    1.930043    1.930072    1.930104    0.000080    0.000042    0.000084
   13.207704    1.463694    1.463726    1.463783    0.000030   -0.000022    0.000036
   13.555275    1.987619    1.987558    1.987775   -0.000210   -0.000360   -0.000227
   13.902846    1.000055    1.000054    1.000444    0.001278    0.001113    0.001124
   14.250418    1.369408    1.369106    1.369039    0.001639    0.000750    0.001241
   14.597989    0.838075    0.837953    0.838002   -0.000237   -0.000491   -0.000298
   14.945560    1.073904    1.073531    1.073695    0.000560    0.000169    0.000444
   15.293131    0.796872    0.792360    0.793446    0.004056   -0.000422    0.003170
   15.640702    0.552423    0.552565    0.552798   -0.000070   -0.001586   -0.000065
   15.988273    1.035706    1.035452    1.037310   -0.003015   -0.001909   -0.003216
   16.335845    0.438445    0.438354    0.438577   -0.001382   -0.000520   -0.001365
   16.683416    0.324133    0.324184    0.324219   -0.000910    0.000314   -0.000704
   17.030987    0.187330    0.187987    0.188121   -0.001960   -0.000400   -0.001497
   17.378558    0.347492    0.349723    0.350294    0.001233    0.001285    0.001796
   17.726129    0.351601    0.351760    0.351904    0.000724    0.000037    0.000738
   18.073700    0.081079    0.081097    0.081200    0.000362    0.000371    0.000344
   18.421271    0.024939    0.024960    0.024983    0.000108    0.000087    0.000093
   18.768843    0.014376    0.014389    0.014401    0.000055    0.000031    0.000043
   19.116414    0.009970    0.009978    0.009986    0.000030    0.000009    0.000021
   19.463985    0.007538    0.007543    0.007549    0.000016   -0.000000    0.000009
   19.811556    0.006025    0.006029    0.006033    0.000008   -0.000005    0.000002
   20.159127    0.005495    0.005497    0.005500    0.000003   -0.000008   -0.000002
   20.506698    0.004797    0.004799    0.004801   -0.000000   -0.000009   -0.000004
[...]
   29.543549    0.000282    0.000282    0.000282   -0.000004   -0.000004   -0.000004
   29.891120    0.000261    0.000261    0.000261   -0.000003   -0.000004   -0.000004
   30.238691    0.000242    0.000242    0.000242   -0.000003   -0.000004   -0.000004
   30.586262    0.000226    0.000226    0.000226   -0.000003   -0.000003   -0.000004
   30.933833    0.000210    0.000210    0.000211   -0.000003   -0.000003   -0.000003
   31.281404    0.000197    0.000197    0.000197   -0.000003   -0.000003   -0.000003
   31.628976    0.000184    0.000184    0.000184   -0.000003   -0.000003   -0.000003
   31.976547    0.000172    0.000172    0.000172   -0.000003   -0.000003   -0.000003
   32.324118    0.000162    0.000162    0.000162   -0.000003   -0.000003   -0.000003
   32.671689    0.000152    0.000152    0.000152   -0.000003   -0.000003   -0.000003
   33.019260    0.000143    0.000143    0.000143   -0.000003   -0.000003   -0.000003
   33.366831    0.000134    0.000134    0.000134   -0.000002   -0.000003   -0.000003
   33.714403    0.000126    0.000126    0.000126   -0.000002   -0.000002   -0.000003
   34.061974    0.000119    0.000119    0.000119   -0.000002   -0.000002   -0.000003
   34.409545    0.000112    0.000112    0.000112   -0.000002   -0.000002   -0.000002

  frequency dependent      REAL DIELECTRIC FUNCTION (independent particle, no local field effects) current-current (2nd set in vasprun.xml)
     E(ev)        X           Y           Z          XY          YZ          ZX
    0.000000    2.123868    2.123847    2.123931    0.000017   -0.000033    0.000008
    0.347571    2.125143    2.125123    2.125206    0.000017   -0.000033    0.000008
    0.695142    2.129029    2.129008    2.129092    0.000017   -0.000033    0.000009
    1.042713    2.135573    2.135552    2.135636    0.000017   -0.000033    0.000009
    1.390285    2.144882    2.144861    2.144945    0.000017   -0.000033    0.000009
    1.737856    2.157110    2.157089    2.157173    0.000018   -0.000034    0.000009
    2.085427    2.172469    2.172447    2.172532    0.000018   -0.000034    0.000009
    2.432998    2.191237    2.191215    2.191300    0.000018   -0.000034    0.000009
    2.780569    2.213777    2.213754    2.213840    0.000019   -0.000034    0.000009
    3.128140    2.240557    2.240533    2.240620    0.000019   -0.000035    0.000009
    3.475712    2.272183    2.272158    2.272246    0.000020   -0.000035    0.000010
    3.823283    2.309449    2.309423    2.309512    0.000020   -0.000035    0.000010
    4.170854    2.353412    2.353385    2.353475    0.000021   -0.000036    0.000010
    4.518425    2.405512    2.405485    2.405575    0.000022   -0.000036    0.000011
    4.865996    2.467790    2.467760    2.467852    0.000023   -0.000036    0.000012
    5.213567    2.543292    2.543261    2.543354    0.000025   -0.000037    0.000013
    5.561139    2.637020    2.636985    2.637080    0.000027   -0.000037    0.000014
    5.908710    2.758822    2.758785    2.758880    0.000029   -0.000037    0.000015
    6.256281    2.938103    2.938060    2.938156    0.000034   -0.000037    0.000018
    6.603852    3.009393    3.009346    3.009445    0.000036   -0.000037    0.000020
    6.951423    3.421133    3.421069    3.421167    0.000050   -0.000033    0.000029
    7.298994    3.421170    3.421123    3.421227    0.000035   -0.000041    0.000018
    7.646566    3.483139    3.483076    3.483181    0.000049   -0.000038    0.000028
    7.994137    4.487824    4.487665    4.487756    0.000131   -0.000006    0.000086
    8.341708    4.559922    4.559747    4.559840    0.000142   -0.000006    0.000092
    8.689279    3.492832    3.492952    3.493105   -0.000111   -0.000110   -0.000086
    9.036850    1.951003    1.950960    1.951085    0.000030   -0.000054    0.000012
    9.384421    2.892712    2.892862    2.893029   -0.000143   -0.000133   -0.000113
    9.731992    2.501670    2.501606    2.501743    0.000040   -0.000063    0.000019
   10.079564    1.238221    1.238137    1.238275    0.000059   -0.000057    0.000030
   10.427135    1.492879    1.492951    1.493137   -0.000079   -0.000121   -0.000070
   10.774706    0.398334    0.398341    0.398514   -0.000029   -0.000110   -0.000036
   11.122277    0.743175    0.743109    0.743282    0.000030   -0.000096    0.000002
   11.469848    1.639964    1.639907    1.640097    0.000020   -0.000109   -0.000006
   11.817419   -0.360834   -0.360907   -0.360699    0.000026   -0.000122   -0.000008
   12.164991   -0.632400   -0.632523   -0.632299    0.000059   -0.000127    0.000010
   12.512562   -0.802542   -0.802607   -0.802333   -0.000008   -0.000183   -0.000044
   12.860133   -0.614533   -0.614664   -0.614353    0.000031   -0.000205   -0.000031
   13.207704   -0.273213   -0.273324   -0.272910   -0.000017   -0.000284   -0.000088
   13.555275   -0.441731   -0.441890   -0.441218    0.000096   -0.000278   -0.000041
   13.902846   -0.296289   -0.296642   -0.296924    0.000890    0.000442    0.000757
   14.250418   -0.225923   -0.226357   -0.226291   -0.001390   -0.002127   -0.001519
   14.597989   -0.436392   -0.436805   -0.436394    0.000228    0.000024    0.000270
   14.945560   -0.234486   -0.235526   -0.234850    0.000785   -0.000163    0.000649
   15.293131   -0.217387   -0.216330   -0.216355   -0.001554   -0.001182   -0.001105
   15.640702   -0.133223   -0.132370   -0.130929   -0.002816   -0.001568   -0.002922
   15.988273   -0.135005   -0.133864   -0.135775   -0.001158    0.002123   -0.000362
   16.335845   -0.230961   -0.230164   -0.230881   -0.000010    0.001132    0.000327
   16.683416   -0.138695   -0.137508   -0.137995   -0.000504    0.000840    0.000122
   17.030987    0.059151    0.061148    0.061334    0.000714    0.001274    0.001241
   17.378558    0.062291    0.060150    0.059385    0.002116   -0.000538    0.001206
   17.726129    0.069749    0.068899    0.068590    0.000650    0.000116    0.000378
   18.073700   -0.026433   -0.026750   -0.027218   -0.000307   -0.000251   -0.000458
   18.421271    0.142554    0.142344    0.142025   -0.000100   -0.000140   -0.000186
   18.768843    0.236748    0.236601    0.236348   -0.000055   -0.000077   -0.000111
   19.116414    0.304638    0.304531    0.304318   -0.000038   -0.000045   -0.000078
   19.463985    0.358660    0.358578    0.358394   -0.000030   -0.000026   -0.000059
   19.811556    0.403857    0.403793    0.403629   -0.000025   -0.000015   -0.000047
   20.159127    0.442960    0.442908    0.442762   -0.000021   -0.000007   -0.000039
   20.506698    0.476033    0.475990    0.475857   -0.000019   -0.000002   -0.000033
[...]
   29.543549    0.810700    0.810697    0.810663   -0.000005    0.000007   -0.000005
   29.891120    0.816007    0.816005    0.815971   -0.000004    0.000007   -0.000005
   30.238691    0.821076    0.821073    0.821041   -0.000004    0.000007   -0.000005
   30.586262    0.825922    0.825920    0.825889   -0.000004    0.000006   -0.000004
   30.933833    0.830561    0.830559    0.830528   -0.000004    0.000006   -0.000004
   31.281404    0.835004    0.835002    0.834973   -0.000004    0.000006   -0.000004
   31.628976    0.839264    0.839263    0.839234   -0.000004    0.000006   -0.000004
   31.976547    0.843352    0.843350    0.843322   -0.000004    0.000006   -0.000004
   32.324118    0.847276    0.847275    0.847248   -0.000004    0.000006   -0.000004
   32.671689    0.851047    0.851045    0.851019   -0.000003    0.000006   -0.000004
   33.019260    0.854672    0.854671    0.854645   -0.000003    0.000006   -0.000004
   33.366831    0.858160    0.858159    0.858134   -0.000003    0.000005   -0.000003
   33.714403    0.861517    0.861516    0.861492   -0.000003    0.000005   -0.000003
   34.061974    0.864751    0.864749    0.864726   -0.000003    0.000005   -0.000003
   34.409545    0.867867    0.867866    0.867843   -0.000003    0.000005   -0.000003

 The outermost node in the dielectric function lies at epsilon=  18.1

 Spin-Orbit-Coupling matrix elements

 Ion:    1  E_soc:     -0.2839408
 l=   1
     0.0000000    -0.0473190    -0.0473190
    -0.0473190     0.0000000    -0.0473190
    -0.0473190    -0.0473190     0.0000000
 l=   2
     0.0000000    -0.0000009     0.0000000    -0.0000009    -0.0000036
    -0.0000009     0.0000000    -0.0000027    -0.0000008    -0.0000009
     0.0000000    -0.0000027     0.0000000    -0.0000027     0.0000000
    -0.0000009    -0.0000008    -0.0000027     0.0000000    -0.0000009
    -0.0000036    -0.0000009     0.0000000    -0.0000009     0.0000000
 l=   3
     0.0000000     0.0000000     0.0000000     0.0000000     0.0000000     0.0000000    -0.0000000
     0.0000000     0.0000000    -0.0000000     0.0000000    -0.0000000    -0.0000000    -0.0000000
     0.0000000    -0.0000000     0.0000000    -0.0000000    -0.0000000    -0.0000000     0.0000000
     0.0000000     0.0000000    -0.0000000     0.0000000    -0.0000000     0.0000000     0.0000000
     0.0000000    -0.0000000    -0.0000000    -0.0000000     0.0000000    -0.0000000     0.0000000
     0.0000000    -0.0000000    -0.0000000     0.0000000    -0.0000000     0.0000000    -0.0000000
    -0.0000000    -0.0000000     0.0000000     0.0000000     0.0000000    -0.0000000     0.0000000