 vasp.5.4.4.18Apr17-6-g9f103f2a35 (build Nov 03 2018 10:20:46) complex

 executed on             LinuxIFC date 2018.12.03  16:47:29

 INCAR:
 POTCAR:    PAW Og, JanMewes Oct 18

 POTCAR:    PAW Og, JanMewes Oct 18
   VRHFIN =Og : 10d 2s 6p, PE

   TITEL  = PAW Og, JanMewes Oct 18
   POMASS =    0.010; ZVAL   =   18.000    mass and valenz
   ENMAX  =  339.336; ENMIN  =  254.502 eV
   QCUT   =   -4.994; QGAM   =    9.988    optimization parameters

  PAW Og, JanMewes Oct 18               :

 POSCAR: Og_FCC
  positions in direct lattice
  velocities in cartesian coordinates
 exchange correlation table for  LEXCH =        8
   RHO(1)=    0.500       N(1)  =     2000
   RHO(2)=  100.500       N(2)  =     4000

 ion  position               nearest neighbor table
   1  0.000  0.000  0.000-

  LATTYP: Found a face centered cubic cell.
 ALAT       =     6.4908661888

  Lattice vectors:

 A1 = (   4.5897354978,   0.0000000000,   0.0000000000)
 A2 = (   2.2948677489,   3.9748275377,  -0.0000000000)
 A3 = (   2.2948677489,   1.3249425126,   3.7475033414)

Analysis of symmetry for initial positions (statically):
 Subroutine PRICEL returns:
 Original cell was already a primitive cell.

 Routine SETGRP: Setting up the symmetry group for a
 face centered cubic supercell.

 Subroutine GETGRP returns: Found 48 space group operations
 (whereof 48 operations were pure point group operations)
 out of a pool of 48 trial point group operations.

The static configuration has the point symmetry O_h .

Analysis of symmetry for dynamics (positions and initial velocities):
 Subroutine PRICEL returns:
 Original cell was already a primitive cell.

[...]

The dynamic configuration has the point symmetry O_h .

Analysis of structural, dynamic, and magnetic symmetry:
 Subroutine PRICEL returns:
 Original cell was already a primitive cell.

 Routine SETGRP: Setting up the symmetry group for a
 face centered cubic supercell.

 Subroutine GETGRP returns: Found  2 space group operations
 (whereof  2 operations were pure point group operations)
 out of a pool of 48 trial point group operations.

The (compounded) configuration has the point symmetry S_2 .

 Subroutine INISYM returns: Found  2 space group operations
 (whereof  2 operations are pure point group operations),
 and found     1 'primitive' translations

Automatic generation of k-mesh.
 generate k-points for:    9    9    9
Space group operators:
 irot       det(A)        alpha          n_x          n_y          n_z        tau_x        tau_y        tau_z
    1     1.000000     0.000000     1.000000     0.000000     0.000000     0.000000     0.000000     0.000000
    2    -1.000000     0.000000     1.000000     0.000000     0.000000     0.000000     0.000000     0.000000

 Subroutine IBZKPT returns following result:

 Found    365 irreducible k-points:

 Following reciprocal coordinates:
            Coordinates               Weight
  0.000000  0.000000  0.000000      1.000000
  0.111111 -0.000000  0.000000      2.000000
  0.222222 -0.000000  0.000000      2.000000
  0.333333 -0.000000  0.000000      2.000000
  0.444444 -0.000000  0.000000      2.000000
  0.000000  0.111111  0.000000      2.000000
  0.111111  0.111111  0.000000      2.000000
  0.222222  0.111111  0.000000      2.000000
  0.333333  0.111111 -0.000000      2.000000
  0.444444  0.111111  0.000000      2.000000
 -0.444444  0.111111 -0.000000      2.000000
 -0.333333  0.111111  0.000000      2.000000
 -0.222222  0.111111 -0.000000      2.000000
 -0.111111  0.111111 -0.000000      2.000000
 -0.000000  0.222222 -0.000000      2.000000
  0.111111  0.222222 -0.000000      2.000000
  0.222222  0.222222  0.000000      2.000000
  0.333333  0.222222 -0.000000      2.000000
  0.444444  0.222222  0.000000      2.000000
 -0.444444  0.222222 -0.000000      2.000000
 -0.333333  0.222222 -0.000000      2.000000
 -0.222222  0.222222 -0.000000      2.000000
 -0.111111  0.222222 -0.000000      2.000000
  0.000000  0.333333  0.000000      2.000000
  0.111111  0.333333  0.000000      2.000000
  0.222222  0.333333  0.000000      2.000000
  0.333333  0.333333  0.000000      2.000000
  0.444444  0.333333  0.000000      2.000000
 -0.444444  0.333333 -0.000000      2.000000
 -0.333333  0.333333  0.000000      2.000000
 -0.222222  0.333333 -0.000000      2.000000
 -0.111111  0.333333  0.000000      2.000000
 -0.000000  0.444444 -0.000000      2.000000
  0.111111  0.444444  0.000000      2.000000
  0.222222  0.444444 -0.000000      2.000000
  0.333333  0.444444  0.000000      2.000000
  0.444444  0.444444  0.000000      2.000000
 -0.444444  0.444444 -0.000000      2.000000
 -0.333333  0.444444 -0.000000      2.000000
 -0.222222  0.444444 -0.000000      2.000000
 -0.111111  0.444444 -0.000000      2.000000
  0.000000  0.000000  0.111111      2.000000
  0.111111 -0.000000  0.111111      2.000000
  0.222222 -0.000000  0.111111      2.000000
  0.333333 -0.000000  0.111111      2.000000
  0.444444 -0.000000  0.111111      2.000000
 -0.444444  0.000000  0.111111      2.000000
 -0.333333  0.000000  0.111111      2.000000
 -0.222222  0.000000  0.111111      2.000000
 -0.111111  0.000000  0.111111      2.000000
  0.000000  0.111111  0.111111      2.000000
  0.111111  0.111111  0.111111      2.000000
  0.222222  0.111111  0.111111      2.000000
  0.333333  0.111111  0.111111      2.000000
  0.444444  0.111111  0.111111      2.000000
 -0.444444  0.111111  0.111111      2.000000
 -0.333333  0.111111  0.111111      2.000000
 -0.222222  0.111111  0.111111      2.000000
 -0.111111  0.111111  0.111111      2.000000
 -0.000000  0.222222  0.111111      2.000000
[...]
  0.333333 -0.222222  0.444444      2.000000
  0.444444 -0.222222  0.444444      2.000000
 -0.444444 -0.222222  0.444444      2.000000
 -0.333333 -0.222222  0.444444      2.000000
 -0.222222 -0.222222  0.444444      2.000000
 -0.111111 -0.222222  0.444444      2.000000
  0.000000 -0.111111  0.444444      2.000000
  0.111111 -0.111111  0.444444      2.000000
  0.222222 -0.111111  0.444444      2.000000
  0.333333 -0.111111  0.444444      2.000000
  0.444444 -0.111111  0.444444      2.000000
 -0.444444 -0.111111  0.444444      2.000000
 -0.333333 -0.111111  0.444444      2.000000
 -0.222222 -0.111111  0.444444      2.000000
 -0.111111 -0.111111  0.444444      2.000000

 Following cartesian coordinates:
            Coordinates               Weight
  0.000000  0.000000  0.000000      1.000000
  0.024330 -0.014047 -0.009933      2.000000
  0.048659 -0.028093 -0.019865      2.000000
  0.072989 -0.042140 -0.029798      2.000000
  0.097319 -0.056187 -0.039730      2.000000
  0.000000  0.028093 -0.009933      2.000000
  0.024330  0.014047 -0.019865      2.000000
  0.048659 -0.000000 -0.029798      2.000000
  0.072989 -0.014047 -0.039730      2.000000
  0.097319 -0.028093 -0.049663      2.000000
 -0.097319  0.084280  0.029798      2.000000
 -0.072989  0.070234  0.019865      2.000000
 -0.048659  0.056187  0.009933      2.000000
 -0.024330  0.042140  0.000000      2.000000
  0.000000  0.056187 -0.019865      2.000000
  0.024330  0.042140 -0.029798      2.000000
  0.048659  0.028093 -0.039730      2.000000
  0.072989  0.014047 -0.049663      2.000000
  0.097319  0.000000 -0.059595      2.000000
 -0.097319  0.112374  0.019865      2.000000
 -0.072989  0.098327  0.009933      2.000000
 -0.048659  0.084280  0.000000      2.000000
 -0.024330  0.070234 -0.009933      2.000000
  0.000000  0.084280 -0.029798      2.000000
  0.024330  0.070234 -0.039730      2.000000
  0.048659  0.056187 -0.049663      2.000000
  0.072989  0.042140 -0.059595      2.000000
  0.097319  0.028093 -0.069528      2.000000
 -0.097319  0.140467  0.009933      2.000000
 -0.072989  0.126421  0.000000      2.000000
 -0.048659  0.112374 -0.009933      2.000000
 -0.024330  0.098327 -0.019865      2.000000
  0.000000  0.112374 -0.039730      2.000000
  0.024330  0.098327 -0.049663      2.000000
  0.048659  0.084280 -0.059595      2.000000
  0.072989  0.070234 -0.069528      2.000000
  0.097319  0.056187 -0.079460      2.000000
 -0.097319  0.168561  0.000000      2.000000
 -0.072989  0.154514 -0.009933      2.000000
 -0.048659  0.140467 -0.019865      2.000000
 -0.024330  0.126421 -0.029798      2.000000
 -0.000000  0.000000  0.029798      2.000000
  0.024330 -0.014047  0.019865      2.000000
  0.048659 -0.028093  0.009933      2.000000
  0.072989 -0.042140 -0.000000      2.000000
  0.097319 -0.056187 -0.009933      2.000000
 -0.097319  0.056187  0.069528      2.000000
 -0.072989  0.042140  0.059595      2.000000
 -0.048659  0.028093  0.049663      2.000000
 -0.024330  0.014047  0.039730      2.000000
 -0.000000  0.028093  0.019865      2.000000
  0.024330  0.014047  0.009933      2.000000
  0.048659 -0.000000 -0.000000      2.000000
  0.072989 -0.014047 -0.009933      2.000000
  0.097319 -0.028093 -0.019865      2.000000
 -0.097319  0.084280  0.059595      2.000000
 -0.072989  0.070234  0.049663      2.000000
 -0.048659  0.056187  0.039730      2.000000
 -0.024330  0.042140  0.029798      2.000000
 -0.000000  0.056187  0.009933      2.000000
[...]
  0.072989 -0.098327  0.109258      2.000000
  0.097319 -0.112374  0.099325      2.000000
 -0.097319  0.000000  0.178786      2.000000
 -0.072989 -0.014047  0.168853      2.000000
 -0.048659 -0.028093  0.158921      2.000000
 -0.024330 -0.042140  0.148988      2.000000
 -0.000000 -0.028093  0.129123      2.000000
  0.024330 -0.042140  0.119190      2.000000
  0.048659 -0.056187  0.109258      2.000000
  0.072989 -0.070234  0.099325      2.000000
  0.097319 -0.084280  0.089393      2.000000
 -0.097319  0.028093  0.168853      2.000000
 -0.072989  0.014047  0.158921      2.000000
 -0.048659  0.000000  0.148988      2.000000
 -0.024330 -0.014047  0.139056      2.000000

 SYSTEM =  Og_FCC
 POSCAR =  Og_FCC

 Startparameter for this run:
   NWRITE =      2    write-flag & timer
   PREC   = accura    normal or accurate (medium, high low for compatibility)
   ISTART =      0    job   : 0-new  1-cont  2-samecut
   ICHARG =      2    charge: 1-file 2-atom 10-const
   ISPIN  =      1    spin polarized calculation?
   LNONCOLLINEAR =      T non collinear calculations
   LSORBIT =      T    spin-orbit coupling
   INIWAV =      1    electr: 0-lowe 1-rand  2-diag
   LASPH  =      F    aspherical Exc in radial PAW
   METAGGA=      F    non-selfconsistent MetaGGA calc.

 Electronic Relaxation 1
   ENCUT  =  600.0 eV  44.10 Ry    6.64 a.u.   9.17  9.17  9.17*2*pi/ulx,y,z
   ENINI  =  600.0     initial cutoff
   ENAUG  =  361.0 eV  augmentation charge cutoff
   NELM   =    100;   NELMIN=  5; NELMDL= -5     # of ELM steps
   EDIFF  = 0.1E-06   stopping-criterion for ELM
   LREAL  =      F    real-space projection
   NLSPLINE    = F    spline interpolate recip. space projectors
   LCOMPAT=      F    compatible to vasp.4.4
   GGA_COMPAT  = F    GGA compatible to vasp.4.4-vasp.4.6
   LMAXPAW     = -100 max onsite density
   LMAXMIX     =    2 max onsite mixed and CHGCAR
   VOSKOWN=      0    Vosko Wilk Nusair interpolation
   ROPT   =    0.00000
 Ionic relaxation
   EDIFFG = 0.1E-04   stopping-criterion for IOM
   NSW    =      1    number of steps for IOM
[...]
 k-point 51 :   0.0000 0.1111 0.1111  plane waves:    4554
 k-point 52 :   0.1111 0.1111 0.1111  plane waves:    4566
 k-point 53 :   0.2222 0.1111 0.1111  plane waves:    4538
 k-point 54 :   0.3333 0.1111 0.1111  plane waves:    4538
 k-point 55 :   0.4444 0.1111 0.1111  plane waves:    4570
 k-point 56 :  -0.4444 0.1111 0.1111  plane waves:    4588
 k-point 57 :  -0.3333 0.1111 0.1111  plane waves:    4566
 k-point 58 :  -0.2222 0.1111 0.1111  plane waves:    4554
 k-point 59 :  -0.1111 0.1111 0.1111  plane waves:    4530
 k-point 60 :  -0.0000 0.2222 0.1111  plane waves:    4530
[...]
 k-point 85 :  -0.2222 0.4444 0.1111  plane waves:    4552
 k-point 86 :  -0.1111 0.4444 0.1111  plane waves:    4566
 k-point 87 :   0.0000-0.4444 0.1111  plane waves:    4588
 k-point 88 :   0.1111-0.4444 0.1111  plane waves:    4588
 k-point 89 :   0.2222-0.4444 0.1111  plane waves:    4566
 k-point 90 :   0.3333-0.4444 0.1111  plane waves:    4570
 k-point 91 :   0.4444-0.4444 0.1111  plane waves:    4566
 k-point 92 :  -0.4444-0.4444 0.1111  plane waves:    4552
 k-point 93 :  -0.3333-0.4444 0.1111  plane waves:    4566
 k-point 94 :  -0.2222-0.4444 0.1111  plane waves:    4570
 k-point 95 :  -0.1111-0.4444 0.1111  plane waves:    4566
 k-point 96 :   0.0000-0.3333 0.1111  plane waves:    4570
 k-point 97 :   0.1111-0.3333 0.1111  plane waves:    4566
 k-point 98 :   0.2222-0.3333 0.1111  plane waves:    4566
 k-point 99 :   0.3333-0.3333 0.1111  plane waves:    4552
 k-point ** :   0.4444-0.3333 0.1111  plane waves:    4542
 k-point ** :  -0.4444-0.3333 0.1111  plane waves:    4566
 k-point ** :  -0.3333-0.3333 0.1111  plane waves:    4586
 k-point ** :  -0.2222-0.3333 0.1111  plane waves:    4578
 k-point ** :  -0.1111-0.3333 0.1111  plane waves:    4578
 k-point ** :   0.0000-0.2222 0.1111  plane waves:    4538
 k-point ** :   0.1111-0.2222 0.1111  plane waves:    4554
 k-point ** :   0.2222-0.2222 0.1111  plane waves:    4578
 k-point ** :   0.3333-0.2222 0.1111  plane waves:    4570
 k-point ** :   0.4444-0.2222 0.1111  plane waves:    4552
 k-point ** :  -0.4444-0.2222 0.1111  plane waves:    4570
 k-point ** :  -0.3333-0.2222 0.1111  plane waves:    4578
 k-point ** :  -0.2222-0.2222 0.1111  plane waves:    4566
 k-point ** :  -0.1111-0.2222 0.1111  plane waves:    4556
 k-point ** :   0.0000-0.1111 0.1111  plane waves:    4538
 k-point ** :   0.1111-0.1111 0.1111  plane waves:    4530
 k-point ** :   0.2222-0.1111 0.1111  plane waves:    4556
 k-point ** :   0.3333-0.1111 0.1111  plane waves:    4578
 k-point ** :   0.4444-0.1111 0.1111  plane waves:    4566
 k-point ** :  -0.4444-0.1111 0.1111  plane waves:    4566
 k-point ** :  -0.3333-0.1111 0.1111  plane waves:    4578
 k-point ** :  -0.2222-0.1111 0.1111  plane waves:    4556
 k-point ** :  -0.1111-0.1111 0.1111  plane waves:    4530
 k-point ** :   0.0000 0.0000 0.2222  plane waves:    4524
 k-point ** :   0.1111-0.0000 0.2222  plane waves:    4530
 k-point ** :   0.2222 0.0000 0.2222  plane waves:    4554
 k-point ** :   0.3333-0.0000 0.2222  plane waves:    4566
 k-point ** :   0.4444-0.0000 0.2222  plane waves:    4590
 k-point ** :  -0.4444 0.0000 0.2222  plane waves:    4586
 k-point ** :  -0.3333 0.0000 0.2222  plane waves:    4572
 k-point ** :  -0.2222 0.0000 0.2222  plane waves:    4574
 k-point ** :  -0.1111 0.0000 0.2222  plane waves:    4538
 k-point ** :   0.0000 0.1111 0.2222  plane waves:    4530
 k-point ** :   0.1111 0.1111 0.2222  plane waves:    4538
 k-point ** :   0.2222 0.1111 0.2222  plane waves:    4530
 k-point ** :   0.3333 0.1111 0.2222  plane waves:    4556
 k-point ** :   0.4444 0.1111 0.2222  plane waves:    4578
 k-point ** :  -0.4444 0.1111 0.2222  plane waves:    4566
 k-point ** :  -0.3333 0.1111 0.2222  plane waves:    4566
 k-point ** :  -0.2222 0.1111 0.2222  plane waves:    4578
 k-point ** :  -0.1111 0.1111 0.2222  plane waves:    4556
 k-point ** :  -0.0000 0.2222 0.2222  plane waves:    4554
 k-point ** :   0.1111 0.2222 0.2222  plane waves:    4530
 k-point ** :   0.2222 0.2222 0.2222  plane waves:    4524
 k-point ** :   0.3333 0.2222 0.2222  plane waves:    4538
 k-point ** :   0.4444 0.2222 0.2222  plane waves:    4574
 k-point ** :  -0.4444 0.2222 0.2222  plane waves:    4572
 k-point ** :  -0.3333 0.2222 0.2222  plane waves:    4586
 k-point ** :  -0.2222 0.2222 0.2222  plane waves:    4590
 k-point ** :  -0.1111 0.2222 0.2222  plane waves:    4566
 k-point ** :   0.0000 0.3333 0.2222  plane waves:    4566
 k-point ** :   0.1111 0.3333 0.2222  plane waves:    4556
 k-point ** :   0.2222 0.3333 0.2222  plane waves:    4538
 k-point ** :   0.3333 0.3333 0.2222  plane waves:    4554
 k-point ** :   0.4444 0.3333 0.2222  plane waves:    4578
 k-point ** :  -0.4444 0.3333 0.2222  plane waves:    4570
 k-point ** :  -0.3333 0.3333 0.2222  plane waves:    4552
 k-point ** :  -0.2222 0.3333 0.2222  plane waves:    4570
 k-point ** :  -0.1111 0.3333 0.2222  plane waves:    4578
 k-point ** :  -0.0000 0.4444 0.2222  plane waves:    4590
[...]
 k-point ** :   0.3333-0.2222 0.4444  plane waves:    4542
 k-point ** :   0.4444-0.2222 0.4444  plane waves:    4566
 k-point ** :  -0.4444-0.2222 0.4444  plane waves:    4570
 k-point ** :  -0.3333-0.2222 0.4444  plane waves:    4570
 k-point ** :  -0.2222-0.2222 0.4444  plane waves:    4572
 k-point ** :  -0.1111-0.2222 0.4444  plane waves:    4566
 k-point ** :   0.0000-0.1111 0.4444  plane waves:    4588
 k-point ** :   0.1111-0.1111 0.4444  plane waves:    4566
 k-point ** :   0.2222-0.1111 0.4444  plane waves:    4570
 k-point ** :   0.3333-0.1111 0.4444  plane waves:    4566
 k-point ** :   0.4444-0.1111 0.4444  plane waves:    4552
 k-point ** :  -0.4444-0.1111 0.4444  plane waves:    4566
 k-point ** :  -0.3333-0.1111 0.4444  plane waves:    4570
 k-point ** :  -0.2222-0.1111 0.4444  plane waves:    4566
 k-point ** :  -0.1111-0.1111 0.4444  plane waves:    4588

 maximum and minimum number of plane-waves per node :      2326     2230

 maximum number of plane-waves:      4602
 maximum index in each direction:
   IXMAX=    9   IYMAX=    9   IZMAX=    9
   IXMIN=   -9   IYMIN=   -9   IZMIN=   -9

 parallel 3D FFT for wavefunctions:
    minimum data exchange during FFTs selected (reduces bandwidth)
 parallel 3D FFT for charge:
    minimum data exchange during FFTs selected (reduces bandwidth)

 Broyden mixing: mesh for mixing (old mesh)
   NGX = 19   NGY = 19   NGZ = 19
  (NGX  = 80   NGY  = 80   NGZ  = 80)
  gives a total of   6859 points

 initial charge density was supplied:
 charge density of overlapping atoms calculated
 number of electron      18.0000000 magnetization       1.0000000      1.0000000      1.0000000
 keeping initial charge density in first step

 Maximum index for augmentation-charges       218495 (set IRDMAX)

 First call to EWALD:  gamma=   0.433
 Maximum number of real-space cells 3x 3x 3
 Maximum number of reciprocal cells 3x 3x 3

--------------------------------------- Iteration      1(   1)  ---------------------------------------

 eigenvalue-minimisations  : 20848
 total energy-change (2. order) : 0.3139236E+03  (-0.9201930E+03)
 number of electron      18.0000000 magnetization       1.0000000      1.0000000      1.0000000
 augmentation part       18.0000000 magnetization       1.0000000      1.0000000      1.0000000

 Free energy of the ion-electron system (eV)
  alpha Z        PSCENC =        55.80534217
  Ewald energy   TEWEN  =     -1647.76284900
  -Hartree energ DENC   =      -722.93490608
  -exchange      EXHF   =         0.00000000
  -V(xc)+E(xc)   XCENC  =       -69.31457229
  PAW double counting   =      2268.28454800    -2184.08492831
  entropy T*S    EENTRO =         0.00007374
  eigenvalues    EBANDS =       -26.59784950
  atomic energy  EATOM  =      2640.52872706
  Solvation  Ediel_sol  =         0.00000000
  free energy    TOTEN  =       313.92358579 eV

  energy without entropy =      313.92351205  energy(sigma->0) =      313.92356121

[...]

 eigenvalue-minimisations  : 27396
 total energy-change (2. order) :-0.3099178E+03  (-0.2996863E+03)
 number of electron      18.0000000 magnetization       1.0000000      1.0000000      1.0000000
 augmentation part       18.0000000 magnetization       1.0000000      1.0000000      1.0000000

[...]

 Broyden mixing:
  rms(total) = 0.63105E+00    rms(broyden)= 0.63102E+00
  rms(prec ) = 0.84893E+00
  weight for this iteration     100.00

[...]

 eigenvalues of (default mixing * dielectric matrix)
  average eigenvalue GAMMA=   0.7733
  0.7733

[...]

WARNING in EDDRMM: call to ZHEGV failed, returncode =   6  3     19

[...]

 eigenvalue-minimisations  : 15846
 total energy-change (2. order) :-0.1131507E-06  (-0.2469904E-08)
 number of electron      18.0000000 magnetization       0.0000002      0.0000003      0.0000003
 augmentation part        2.7935717 magnetization       0.0000003      0.0000003      0.0000004

 Broyden mixing:
  rms(total) = 0.55264E-05    rms(broyden)= 0.55259E-05
  rms(prec ) = 0.16891E-04
  weight for this iteration     100.00

 eigenvalues of (default mixing * dielectric matrix)
  average eigenvalue GAMMA=   1.4913
  3.8243  3.1439  2.6361  2.6361  1.2995  1.0960  1.0960  0.8901  0.8901  0.7395
  0.7340  0.6392  0.6270  0.6270

[...]

--------------------------------------- Iteration      1(  20)  ---------------------------------------

 eigenvalue-minimisations  : 14606
 total energy-change (2. order) : 0.5479706E-09  (-0.1290184E-08)
 number of electron      18.0000000 magnetization       0.0000002      0.0000003      0.0000003
 augmentation part        2.7935717 magnetization       0.0000003      0.0000003      0.0000004

 Free energy of the ion-electron system (eV)
  alpha Z        PSCENC =        55.80534217
  Ewald energy   TEWEN  =     -1647.76284900
  -Hartree energ DENC   =      -735.47883677
  -exchange      EXHF   =         0.00000000
  -V(xc)+E(xc)   XCENC  =       -68.96200832
  PAW double counting   =      2322.02651244    -2246.59492380
  entropy T*S    EENTRO =         0.00012345
  eigenvalues    EBANDS =      -332.87922110
  atomic energy  EATOM  =      2640.52872706
  Solvation  Ediel_sol  =         0.00000000
  free energy    TOTEN  =       -13.31713386 eV

  energy without entropy =      -13.31725732  energy(sigma->0) =      -13.31717502

 average (electrostatic) potential at core
  the test charge radii are     1.2024
  (the norm of the test charge is              1.0000)
       1-111.1636

 E-fermi :   2.3278     XC(G=0):  -7.4835     alpha+bet : -6.4186

 k-point     1 :       0.0000    0.0000    0.0000
  band No.  band energies     occupation
      1     -31.6625      1.00000
      2     -31.6625      1.00000
      3     -31.6625      1.00000
      4     -31.6625      1.00000
      5     -24.9701      1.00000
      6     -24.9701      1.00000
      7     -24.9683      1.00000
      8     -24.9683      1.00000
      9     -24.9683      1.00000
     10     -24.9683      1.00000
     11     -21.3308      1.00000
     12     -21.3308      1.00000
     13      -8.1867      1.00000
     14      -8.1867      1.00000
     15       2.2786      0.86553
     16       2.2786      0.86553
     17       2.2786      0.86553
     18       2.2786      0.86553
     19       2.6442     -0.00004
     20       2.6442     -0.00004
     21       9.3504      0.00000
     22       9.3504      0.00000
     23       9.3504      0.00000
     24       9.3504      0.00000
     25       9.7106      0.00000
     26       9.7106      0.00000
     27       9.9569      0.00000
     28       9.9569      0.00000

[...]

 k-point   365 :      -0.1111   -0.1111    0.4444
  band No.  band energies     occupation
      1     -31.6621      1.00000
      2     -31.6621      1.00000
      3     -31.6612      1.00000
      4     -31.6612      1.00000
      5     -24.9691      1.00000
      6     -24.9691      1.00000
      7     -24.9659      1.00000
      8     -24.9659      1.00000
      9     -24.9647      1.00000
     10     -24.9647      1.00000
     11     -21.2724      1.00000
     12     -21.2724      1.00000
     13      -8.4115      1.00000
     14      -8.4115      1.00000
     15      -0.1320      1.00000
     16      -0.1320      1.00000
     17       1.6096      1.00000
     18       1.6096      1.00000
     19       5.4220      0.00000
     20       5.4220      0.00000
     21       8.0103      0.00000
     22       8.0103      0.00000
     23       9.1567      0.00000
     24       9.1567      0.00000
     25       9.6576      0.00000
     26       9.6576      0.00000
     27      10.9965      0.00000
     28      11.0007      0.00000

 soft charge-density along one line, spin component           1
         0         1         2         3         4         5         6         7         8         9
 total charge-density along one line

[...]

 soft charge-density along one line, spin component           4
         0         1         2         3         4         5         6         7         8         9
 total charge-density along one line

------------------------ aborting loop because EDIFF is reached ----------------------------------------

  FORCE on cell =-STRESS in cart. coord.  units (eV):
  Direction    XX          YY          ZZ          XY          YZ          ZX
  Alpha Z    55.80534    55.80534    55.80534
  Ewald    -549.25430  -549.25430  -549.25430    -0.00000    -0.00000     0.00000
  Hartree   245.15935   245.15935   245.15935     0.00000     0.00000     0.00000
  E(xc)    -111.67716  -111.67716  -111.67716    -0.00000     0.00000    -0.00000
  Local    -208.86282  -208.86283  -208.86283     0.00000     0.00000     0.00000
  n-local    97.82441    97.82441    97.82440     0.00001    -0.00000     0.00001
  augment    74.04045    74.04046    74.04046    -0.00000    -0.00000    -0.00000
  Kinetic   396.94564   396.94564   396.94564    -0.00001     0.00000    -0.00001
  Fock        0.00000     0.00000     0.00000     0.00000     0.00000     0.00000
  Total      -0.01908    -0.01908    -0.01908     0.00000     0.00000    -0.00000
  in kB      -0.44718    -0.44721    -0.44723     0.00002     0.00000    -0.00001

 VOLUME and BASIS-vectors are now :
  energy-cutoff  :      600.00
  volume of cell :       68.37
      direct lattice vectors                 reciprocal lattice vectors
     4.589735498  0.000000000  0.000000000     0.217877479 -0.125791621 -0.088948108
     2.294867749  3.974827538 -0.000000000     0.000000000  0.251583242 -0.088948108
     2.294867749  1.324942513  3.747503341    -0.000000000  0.000000000  0.266844325

  length of vectors
     4.589735498  4.589735498  4.589735498     0.266844325  0.266844325  0.266844325

 FORCES acting on ions
    electron-ion (+dipol)            ewald-force                    non-local-force                 convergence-correction
   0.322E-14 0.288E-13 -.127E-13   0.291E-15 -.699E-15 -.154E-15   0.000E+00 0.000E+00 0.000E+00   -.123E-12 0.143E-13 -.729E-13
   0.322E-14 0.288E-13 -.127E-13   0.291E-15 -.699E-15 -.154E-15   0.000E+00 0.000E+00 0.000E+00   -.123E-12 0.143E-13 -.729E-13

 POSITION                                       TOTAL-FORCE (eV/Angst)
      0.00000      0.00000      0.00000         0.000000      0.000000      0.000000
    total drift:                               -0.000000      0.000000     -0.000000

  FREE ENERGIE OF THE ION-ELECTRON SYSTEM (eV)
  free  energy   TOTEN  =       -13.31713386 eV

  energy  without entropy=      -13.31725732  energy(sigma->0) =      -13.31717502

 Spin-Orbit-Coupling matrix elements

 Ion:    1  E_soc:    -32.9767907
 l=   1
     0.0000000    -5.0716483    -5.0716487
    -5.0716483     0.0000000    -5.0716486
    -5.0716487    -5.0716486     0.0000000
 l=   2
     0.0000000    -0.0848989     0.0000000    -0.0848989    -0.3395806
    -0.0848989     0.0000000    -0.2546855    -0.0849026    -0.0848989
     0.0000000    -0.2546855     0.0000000    -0.2546855     0.0000000
    -0.0848989    -0.0849026    -0.2546855     0.0000000    -0.0848989
    -0.3395806    -0.0848989     0.0000000    -0.0848989     0.0000000
 l=   3
     0.0000000     0.0000000     0.0000000     0.0000000     0.0000000     0.0000000     0.0000000
     0.0000000     0.0000000     0.0000000     0.0000000     0.0000000     0.0000000     0.0000000
     0.0000000     0.0000000     0.0000000     0.0000000     0.0000000     0.0000000     0.0000000
     0.0000000     0.0000000     0.0000000     0.0000000     0.0000000     0.0000000     0.0000000
     0.0000000     0.0000000     0.0000000     0.0000000     0.0000000     0.0000000     0.0000000
     0.0000000     0.0000000     0.0000000     0.0000000     0.0000000     0.0000000     0.0000000
     0.0000000     0.0000000     0.0000000     0.0000000     0.0000000     0.0000000     0.0000000