 vasp.5.4.4.18Apr17-6-g9f103f2a35 (build Nov 03 2018 10:20:46) complex

 executed on             LinuxIFC date 2018.12.04  16:40:02

 INCAR:
 POTCAR:    PAW_PBE Ne_GW 22Sep2014

 POTCAR:    PAW_PBE Ne_GW 22Sep2014
   VRHFIN =Ne: s2p6

   TITEL  = PAW_PBE Ne_GW 22Sep2014
   POMASS =   20.180; ZVAL   =    8.000    mass and valenz
   ENMAX  =  432.275; ENMIN  =  324.206 eV

  PAW_PBE Ne_GW 22Sep2014               :

 POSCAR: Ne_FCC
  positions in direct lattice
  velocities in cartesian coordinates
 exchange correlation table for  LEXCH =        8
   RHO(1)=    0.500       N(1)  =     2000
   RHO(2)=  100.500       N(2)  =     4000

 ion  position               nearest neighbor table
   1  0.000  0.000  0.000-

IMPORTANT INFORMATION: All symmetrisations will be switched off!
NOSYMM: (Re-)initialisation of all symmetry stuff for point group C_1.

 KPOINTS: k-points

Automatic generation of k-mesh.
Space group operators:
 irot       det(A)        alpha          n_x          n_y          n_z        tau_x        tau_y        tau_z
    1     1.000000     0.000000     1.000000     0.000000     0.000000     0.000000     0.000000     0.000000

 Subroutine IBZKPT returns following result:

 Found     64 irreducible k-points:

 Following reciprocal coordinates:
            Coordinates               Weight
  0.000000  0.000000  0.000000      1.000000
  0.250000  0.000000 -0.000000      1.000000
  0.500000  0.000000 -0.000000      1.000000
 -0.250000 -0.000000  0.000000      1.000000
  0.000000  0.250000  0.000000      1.000000
  0.250000  0.250000 -0.000000      1.000000
  0.500000  0.250000  0.000000      1.000000
 -0.250000  0.250000  0.000000      1.000000
  0.000000  0.500000  0.000000      1.000000
  0.250000  0.500000 -0.000000      1.000000
  0.500000  0.500000 -0.000000      1.000000
 -0.250000  0.500000  0.000000      1.000000
  0.000000 -0.250000 -0.000000      1.000000
  0.250000 -0.250000 -0.000000      1.000000
  0.500000 -0.250000 -0.000000      1.000000
 -0.250000 -0.250000  0.000000      1.000000
  0.000000  0.000000  0.250000      1.000000
  0.250000  0.000000  0.250000      1.000000
  0.500000  0.000000  0.250000      1.000000
 -0.250000 -0.000000  0.250000      1.000000
  0.000000  0.250000  0.250000      1.000000
  0.250000  0.250000  0.250000      1.000000
  0.500000  0.250000  0.250000      1.000000
 -0.250000  0.250000  0.250000      1.000000
  0.000000  0.500000  0.250000      1.000000
  0.250000  0.500000  0.250000      1.000000
  0.500000  0.500000  0.250000      1.000000
 -0.250000  0.500000  0.250000      1.000000
  0.000000 -0.250000  0.250000      1.000000
  0.250000 -0.250000  0.250000      1.000000
  0.500000 -0.250000  0.250000      1.000000
 -0.250000 -0.250000  0.250000      1.000000
  0.000000  0.000000  0.500000      1.000000
  0.250000  0.000000  0.500000      1.000000
  0.500000  0.000000  0.500000      1.000000
 -0.250000 -0.000000  0.500000      1.000000
  0.000000  0.250000  0.500000      1.000000
  0.250000  0.250000  0.500000      1.000000
  0.500000  0.250000  0.500000      1.000000
 -0.250000  0.250000  0.500000      1.000000
  0.000000  0.500000  0.500000      1.000000
  0.250000  0.500000  0.500000      1.000000
  0.500000  0.500000  0.500000      1.000000
 -0.250000  0.500000  0.500000      1.000000
  0.000000 -0.250000  0.500000      1.000000
  0.250000 -0.250000  0.500000      1.000000
  0.500000 -0.250000  0.500000      1.000000
 -0.250000 -0.250000  0.500000      1.000000
  0.000000  0.000000 -0.250000      1.000000
  0.250000  0.000000 -0.250000      1.000000
  0.500000  0.000000 -0.250000      1.000000
 -0.250000 -0.000000 -0.250000      1.000000
  0.000000  0.250000 -0.250000      1.000000
  0.250000  0.250000 -0.250000      1.000000
  0.500000  0.250000 -0.250000      1.000000
 -0.250000  0.250000 -0.250000      1.000000
  0.000000  0.500000 -0.250000      1.000000
  0.250000  0.500000 -0.250000      1.000000
  0.500000  0.500000 -0.250000      1.000000
 -0.250000  0.500000 -0.250000      1.000000
  0.000000 -0.250000 -0.250000      1.000000
  0.250000 -0.250000 -0.250000      1.000000
  0.500000 -0.250000 -0.250000      1.000000
 -0.250000 -0.250000 -0.250000      1.000000

 Following cartesian coordinates:
            Coordinates               Weight
  0.000000  0.000000  0.000000      1.000000
  0.084056 -0.048530 -0.034316      1.000000
  0.168111 -0.097059 -0.068631      1.000000
 -0.084056  0.048530  0.034316      1.000000
  0.000000  0.097059 -0.034316      1.000000
  0.084056  0.048530 -0.068631      1.000000
  0.168111  0.000000 -0.102947      1.000000
 -0.084056  0.145589  0.000000      1.000000
  0.000000  0.194118 -0.068631      1.000000
  0.084056  0.145589 -0.102947      1.000000
  0.168111  0.097059 -0.137262      1.000000
 -0.084056  0.242648 -0.034316      1.000000
  0.000000 -0.097059  0.034316      1.000000
  0.084056 -0.145589 -0.000000      1.000000
  0.168111 -0.194118 -0.034316      1.000000
 -0.084056 -0.048530  0.068631      1.000000
  0.000000  0.000000  0.102947      1.000000
  0.084056 -0.048530  0.068631      1.000000
  0.168111 -0.097059  0.034316      1.000000
 -0.084056  0.048530  0.137262      1.000000
  0.000000  0.097059  0.068631      1.000000
  0.084056  0.048530  0.034316      1.000000
  0.168111  0.000000  0.000000      1.000000
 -0.084056  0.145589  0.102947      1.000000
  0.000000  0.194118  0.034316      1.000000
  0.084056  0.145589  0.000000      1.000000
  0.168111  0.097059 -0.034316      1.000000
 -0.084056  0.242648  0.068631      1.000000
  0.000000 -0.097059  0.137262      1.000000
  0.084056 -0.145589  0.102947      1.000000
  0.168111 -0.194118  0.068631      1.000000
 -0.084056 -0.048530  0.171578      1.000000
  0.000000  0.000000  0.205893      1.000000
  0.084056 -0.048530  0.171578      1.000000
  0.168111 -0.097059  0.137262      1.000000
 -0.084056  0.048530  0.240209      1.000000
  0.000000  0.097059  0.171578      1.000000
  0.084056  0.048530  0.137262      1.000000
  0.168111  0.000000  0.102947      1.000000
 -0.084056  0.145589  0.205893      1.000000
  0.000000  0.194118  0.137262      1.000000
  0.084056  0.145589  0.102947      1.000000
  0.168111  0.097059  0.068631      1.000000
 -0.084056  0.242648  0.171578      1.000000
  0.000000 -0.097059  0.240209      1.000000
  0.084056 -0.145589  0.205893      1.000000
  0.168111 -0.194118  0.171578      1.000000
 -0.084056 -0.048530  0.274525      1.000000
  0.000000  0.000000 -0.102947      1.000000
  0.084056 -0.048530 -0.137262      1.000000
  0.168111 -0.097059 -0.171578      1.000000
 -0.084056  0.048530 -0.068631      1.000000
  0.000000  0.097059 -0.137262      1.000000
  0.084056  0.048530 -0.171578      1.000000
  0.168111  0.000000 -0.205893      1.000000
 -0.084056  0.145589 -0.102947      1.000000
  0.000000  0.194118 -0.171578      1.000000
  0.084056  0.145589 -0.205893      1.000000
  0.168111  0.097059 -0.240209      1.000000
 -0.084056  0.242648 -0.137262      1.000000
  0.000000 -0.097059 -0.068631      1.000000
  0.084056 -0.145589 -0.102947      1.000000
  0.168111 -0.194118 -0.137262      1.000000
 -0.084056 -0.048530 -0.034316      1.000000

 SYSTEM =  Og_FCC
 POSCAR =  Ne_FCC

 Startparameter for this run:
   NWRITE =      2    write-flag & timer
   PREC   = accura    normal or accurate (medium, high low for compatibility)
   ISTART =      1    job   : 0-new  1-cont  2-samecut
   ICHARG =      0    charge: 1-file 2-atom 10-const
   ISPIN  =      1    spin polarized calculation?
   LNONCOLLINEAR =      T non collinear calculations
   LSORBIT =      T    spin-orbit coupling
   INIWAV =      1    electr: 0-lowe 1-rand  2-diag
   LASPH  =      F    aspherical Exc in radial PAW
   METAGGA=      F    non-selfconsistent MetaGGA calc.

 Electronic Relaxation 1
   ENCUT  =  200.0 eV  14.70 Ry    3.83 a.u.   3.43  3.43  3.43*2*pi/ulx,y,z
   ENINI  =  200.0     initial cutoff
   ENAUG  =  755.8 eV  augmentation charge cutoff
   NELM   =     50;   NELMIN=  2; NELMDL= -5     # of ELM steps
   EDIFF  = 0.1E-07   stopping-criterion for ELM
   LREAL  =      F    real-space projection
   NLSPLINE    = F    spline interpolate recip. space projectors
   LCOMPAT=      F    compatible to vasp.4.4
   GGA_COMPAT  = F    GGA compatible to vasp.4.4-vasp.4.6
   LMAXPAW     = -100 max onsite density
   LMAXMIX     =    2 max onsite mixed and CHGCAR
   VOSKOWN=      0    Vosko Wilk Nusair interpolation
   ROPT   =    0.00000
 Ionic relaxation
   EDIFFG = 0.1E-04   stopping-criterion for IOM
   NSW    =      1    number of steps for IOM
   NBLOCK =      1;   KBLOCK =      1    inner block; outer block
   IBRION =     -1    ionic relax: 0-MD 1-quasi-New 2-CG
   NFREE  =      5    steps in history (QN), initial steepest desc. (CG)
   ISIF   =      3    stress and relaxation
   IWAVPR =     10    prediction:  0-non 1-charg 2-wave 3-comb
   ISYM   =      0    0-nonsym 1-usesym 2-fastsym
   LCORR  =      T    Harris-Foulkes like correction to forces

   POTIM  = 0.1000    time-step for ionic-motion
   TEIN   =    0.0    initial temperature
   TEBEG  =    0.0;   TEEND  =   0.0 temperature during run
   SMASS  =  -3.00    Nose mass-parameter (am)
   estimated Nose-frequenzy (Omega)   =  0.10E-29 period in steps =****** mass=  -0.202E-27a.u.
   SCALEE = 1.0000    scale energy and forces
   NPACO  =    256;   APACO  = 16.0  distance and # of slots for P.C.
   PSTRESS=    0.0 pullay stress

  Mass of Ions in am
   POMASS =  20.18
  Ionic Valenz
   ZVAL   =   8.00
  Atomic Wigner-Seitz radii
  virtual crystal weights
   VCA    =   1.00
   NELECT =       8.0000    total number of electrons
   NUPDOWN=      -1.0000    fix difference up-down

 DOS related values:
   EMIN   =  10.00;   EMAX   =-10.00  energy-range for DOS
   EFERMI =   0.00
   ISMEAR =     0;   SIGMA  =   0.00  broadening in eV -4-tet -1-fermi 0-gaus

 Electronic relaxation 2 (details)
   IALGO  =     38    algorithm
   LDIAG  =      T    sub-space diagonalisation (order eigenvalues)
   LSUBROT=      F    optimize rotation matrix (better conditioning)
   TURBO    =      0    0=normal 1=particle mesh
   IRESTART =      0    0=no restart 2=restart with 2 vectors
   NREBOOT  =      0    no. of reboots
   NMIN     =      0    reboot dimension
   EREF     =   0.00    reference energy to select bands
   IMIX   =      4    mixing-type and parameters
     AMIX     =   0.40;   BMIX     =  1.00
     AMIX_MAG =   1.60;   BMIX_MAG =  1.00
     AMIN     =   0.10
     WC   =   100.;   INIMIX=   1;  MIXPRE=   1;  MAXMIX=  50

 Intra band minimization:
   WEIMIN = 0.0000     energy-eigenvalue tresh-hold
   EBREAK =  0.13E-09  absolut break condition
   DEPER  =   0.30     relativ break condition

   TIME   =   0.40     timestep for ELM

  volume/ion in A,a.u.               =      18.60       125.55
  Fermi-wavevector in a.u.,A,eV,Ry     =   1.235672  2.335082 20.774542  1.526886
  Thomas-Fermi vector in A             =   2.370312

 Write flags
   LWAVE        =      T    write WAVECAR
   LDOWNSAMPLE  =      F    k-point downsampling of WAVECAR
   LCHARG       =      T    write CHGCAR
   LVTOT        =      F    write LOCPOT, total local potential
[...]
   43.613128    0.829561    0.829544    0.829562   -0.000013   -0.000000   -0.000005
   44.503192    0.847636    0.847621    0.847636   -0.000011    0.000000   -0.000004
   45.393256    0.861434    0.861420    0.861433   -0.000010    0.000000   -0.000003
   46.283320    0.872617    0.872605    0.872616   -0.000008    0.000000   -0.000003
   47.173383    0.882011    0.882000    0.882009   -0.000007    0.000000   -0.000002
   48.063447    0.890043    0.890033    0.890042   -0.000006    0.000000   -0.000002
   48.953511    0.897093    0.897084    0.897092   -0.000006    0.000000   -0.000002
   49.843575    0.903325    0.903316    0.903324   -0.000005    0.000000   -0.000001
   50.733639    0.908902    0.908894    0.908901   -0.000005    0.000000   -0.000001
   51.623703    0.913904    0.913896    0.913902   -0.000004    0.000000   -0.000001
   52.513766    0.918610    0.918602    0.918608   -0.000004    0.000000   -0.000001
[...]
   75.655426    0.967420    0.967427    0.967434   -0.000007   -0.000000   -0.000005
   76.545490    0.968497    0.968502    0.968508   -0.000006   -0.000000   -0.000004
   77.435554    0.969445    0.969449    0.969455   -0.000005   -0.000000   -0.000004
   78.325618    0.970318    0.970321    0.970327   -0.000005   -0.000000   -0.000003
   79.215682    0.971136    0.971139    0.971143   -0.000004   -0.000000   -0.000003
   80.105745    0.971909    0.971911    0.971915   -0.000004   -0.000000   -0.000003
   80.995809    0.972643    0.972645    0.972649   -0.000003   -0.000000   -0.000002
   81.885873    0.973344    0.973346    0.973349   -0.000003   -0.000000   -0.000002
   82.775937    0.974014    0.974015    0.974018   -0.000003   -0.000000   -0.000002
   83.666001    0.974655    0.974656    0.974659   -0.000003   -0.000000   -0.000002
   84.556065    0.975270    0.975271    0.975274   -0.000003   -0.000000   -0.000002
   85.446128    0.975861    0.975862    0.975865   -0.000003   -0.000000   -0.000002
   86.336192    0.976429    0.976430    0.976432   -0.000002   -0.000000   -0.000002
   87.226256    0.976975    0.976976    0.976979   -0.000002   -0.000000   -0.000001
   88.116320    0.977502    0.977502    0.977505   -0.000002   -0.000000   -0.000001

  frequency dependent IMAGINARY DIELECTRIC FUNCTION (independent particle, no local field effects) current-current (2nd set in vasprun.xml)
     E(ev)      X         Y         Z        XY        YZ        ZX
    0.000000    0.590100    0.590109    0.590094    0.000619    0.000180    0.000477
    0.890064    0.059251    0.059252    0.059250    0.000062    0.000018    0.000048
    1.780128    0.029998    0.029999    0.029998    0.000031    0.000009    0.000024
    2.670192    0.020431    0.020431    0.020431    0.000021    0.000006    0.000016
    3.560255    0.015808    0.015808    0.015808    0.000016    0.000005    0.000012
    4.450319    0.013195    0.013195    0.013195    0.000013    0.000004    0.000010
    5.340383    0.011636    0.011636    0.011636    0.000011    0.000003    0.000008
    6.230447    0.010758    0.010758    0.010758    0.000009    0.000003    0.000007
    7.120511    0.010463    0.010463    0.010463    0.000008    0.000003    0.000006
    8.010575    0.010964    0.010964    0.010964    0.000007    0.000002    0.000006
    8.900638    0.013751    0.013751    0.013751    0.000007    0.000002    0.000005
    9.790702    0.044827    0.044827    0.044827    0.000006    0.000002    0.000005
   10.680766    0.040085    0.040086    0.040085    0.000006    0.000002    0.000005
   11.570830    0.015308    0.015308    0.015308    0.000006    0.000002    0.000004
   12.460894    0.020140    0.020140    0.020140    0.000005    0.000002    0.000004
   13.350958    0.075556    0.075556    0.075556    0.000005    0.000002    0.000004
   14.241021    0.137991    0.137992    0.137991    0.000005    0.000002    0.000004
   15.131085    0.048141    0.048141    0.048140    0.000005    0.000002    0.000004
   16.021149    0.243823    0.243826    0.243836    0.000001    0.000001    0.000002
   16.911213    0.032053    0.032053    0.032053    0.000004    0.000002    0.000004
   17.801277    0.082179    0.082179    0.082179    0.000004    0.000002    0.000004
   18.691341    0.189742    0.189743    0.189743    0.000004    0.000002    0.000004
   19.581404    0.767823    0.767826    0.767828    0.000003    0.000002    0.000002
   20.471468    1.844888    1.844891    1.844894    0.000001    0.000001    0.000002
   21.361532    0.229984    0.229979    0.229978    0.000008    0.000004    0.000007
   22.251596    0.113611    0.113611    0.113611    0.000005    0.000002    0.000004
   23.141660    0.172058    0.172057    0.172056    0.000006    0.000003    0.000005
   24.031724    0.469530    0.469533    0.469536    0.000003    0.000002    0.000003
   24.921787    0.444275    0.444269    0.444256    0.000011    0.000004    0.000009
   25.811851    0.572565    0.572562    0.572564    0.000009    0.000005    0.000007
   26.701915    0.610487    0.610485    0.610483    0.000008    0.000005    0.000007
   27.591979    0.543429    0.543476    0.543446    0.000008    0.000039    0.000007
   28.482043    0.046383    0.046383    0.046383    0.000008    0.000005    0.000008
   29.372107    0.242670    0.242670    0.242671    0.000009    0.000007    0.000009
   30.262171    0.299452    0.299415    0.299719    0.000070    0.000056    0.000052
   31.152234    0.727674    0.727672    0.727667    0.000014    0.000011    0.000014
   32.042298    0.625144    0.625152    0.625146    0.000017    0.000020    0.000017
   32.932362    0.166071    0.166070    0.166069    0.000024    0.000021    0.000024
   33.822426    0.036254    0.036255    0.036253    0.000037    0.000035    0.000038
   34.712490    0.021137    0.021138    0.021132    0.000074    0.000070    0.000076
   35.602554    0.182881    0.182902    0.182746    0.000361    0.000257    0.000346
   36.492617    0.170536    0.170524    0.170601   -0.000429   -0.000440   -0.000459
   37.382681    0.053101    0.053138    0.053101   -0.000281   -0.000379   -0.000336
   38.272745    0.427316    0.427392    0.427307    0.000298    0.000318    0.000298
   39.162809    0.074647    0.074653    0.074646    0.000052    0.000067    0.000057
   40.052873    0.019474    0.019476    0.019474    0.000021    0.000029    0.000024
   40.942937    0.373756    0.373751    0.373744    0.000020    0.000021    0.000021
   41.833000    0.014308    0.014307    0.014306    0.000008    0.000011    0.000008
   42.723064    0.003029    0.003029    0.003028    0.000005    0.000007    0.000005
   43.613128    0.001609    0.001609    0.001609    0.000003    0.000005    0.000003
   44.503192    0.001063    0.001063    0.001063    0.000002    0.000004    0.000002
   45.393256    0.000773    0.000773    0.000773    0.000002    0.000003    0.000002
   46.283320    0.000594    0.000595    0.000594    0.000001    0.000002    0.000001
   47.173383    0.000476    0.000476    0.000476    0.000001    0.000002    0.000001
   48.063447    0.000390    0.000390    0.000390    0.000001    0.000001    0.000001
   48.953511    0.000322    0.000322    0.000322    0.000001    0.000001    0.000001
   49.843575    0.000273    0.000273    0.000273    0.000001    0.000001    0.000000
   50.733639    0.000237    0.000237    0.000237    0.000000    0.000001    0.000000
   51.623703    0.000211    0.000211    0.000211    0.000000    0.000001    0.000000
   52.513766    0.000253    0.000253    0.000253    0.000000    0.000001    0.000000
[...]
   75.655426    0.000047    0.000047    0.000046   -0.000001    0.000001    0.000000
   76.545490    0.000030    0.000030    0.000030   -0.000001    0.000001    0.000000
   77.435554    0.000023    0.000023    0.000023   -0.000001    0.000000    0.000000
   78.325618    0.000019    0.000019    0.000019   -0.000000    0.000000    0.000000
   79.215682    0.000016    0.000016    0.000016   -0.000000    0.000000    0.000000
   80.105745    0.000014    0.000014    0.000014   -0.000000    0.000000    0.000000
   80.995809    0.000013    0.000013    0.000013   -0.000000    0.000000    0.000000
   81.885873    0.000012    0.000012    0.000012   -0.000000    0.000000    0.000000
   82.775937    0.000011    0.000011    0.000011   -0.000000    0.000000    0.000000
   83.666001    0.000010    0.000010    0.000010   -0.000000    0.000000    0.000000
   84.556065    0.000009    0.000009    0.000009   -0.000000    0.000000    0.000000
   85.446128    0.000009    0.000009    0.000009   -0.000000    0.000000    0.000000
   86.336192    0.000008    0.000008    0.000008   -0.000000    0.000000    0.000000
   87.226256    0.000007    0.000007    0.000007   -0.000000    0.000000    0.000000
   88.116320    0.000007    0.000007    0.000007   -0.000000    0.000000    0.000000

  frequency dependent      REAL DIELECTRIC FUNCTION (independent particle, no local field effects) current-current (2nd set in vasprun.xml)
     E(ev)        X           Y           Z          XY          YZ          ZX
    0.000000    1.262581    1.262585    1.262578    0.000005   -0.000000    0.000002
    0.890064    1.263116    1.263120    1.263113    0.000005   -0.000000    0.000002
    1.780128    1.264760    1.264764    1.264757    0.000005   -0.000000    0.000002
    2.670192    1.267578    1.267582    1.267575    0.000005   -0.000000    0.000002
    3.560255    1.271697    1.271702    1.271695    0.000005   -0.000000    0.000002
    4.450319    1.277333    1.277337    1.277330    0.000006   -0.000000    0.000002
    5.340383    1.284833    1.284837    1.284830    0.000006   -0.000000    0.000002
    6.230447    1.294795    1.294799    1.294792    0.000006   -0.000000    0.000002
    7.120511    1.308352    1.308356    1.308349    0.000006   -0.000000    0.000002
    8.010575    1.328088    1.328092    1.328085    0.000006   -0.000000    0.000002
    8.900638    1.362365    1.362370    1.362363    0.000006   -0.000000    0.000002
    9.790702    1.475222    1.475227    1.475220    0.000006   -0.000000    0.000002
   10.680766    1.210165    1.210169    1.210162    0.000006   -0.000000    0.000002
   11.570830    1.344266    1.344271    1.344263    0.000006   -0.000000    0.000002
   12.460894    1.435205    1.435210    1.435202    0.000006   -0.000000    0.000002
   13.350958    1.673514    1.673519    1.673511    0.000006   -0.000000    0.000002
   14.241021    0.947497    0.947501    0.947493    0.000007   -0.000000    0.000003
   15.131085    1.407959    1.407964    1.407954    0.000007    0.000000    0.000003
   16.021149    0.900840    0.900844    0.900828    0.000008    0.000000    0.000004
   16.911213    1.346262    1.346267    1.346258    0.000007   -0.000000    0.000003
   17.801277    1.676548    1.676554    1.676545    0.000007   -0.000000    0.000003
   18.691341    1.249802    1.249808    1.249799    0.000007   -0.000000    0.000003
   19.581404    1.460015    1.460024    1.460014    0.000006    0.000000    0.000002
   20.471468    1.079773    1.079781    1.079771    0.000007    0.000001    0.000003
   21.361532    0.835036    0.835046    0.835037    0.000006   -0.000001    0.000002
   22.251596    0.871532    0.871537    0.871526    0.000010    0.000000    0.000004
   23.141660    1.578476    1.578481    1.578469    0.000011    0.000001    0.000005
   24.031724    0.891668    0.891673    0.891660    0.000011    0.000000    0.000005
   24.921787    1.786414    1.786417    1.786399    0.000014    0.000001    0.000007
   25.811851    0.901299    0.901306    0.901289    0.000012    0.000000    0.000005
   26.701915    1.621177    1.621181    1.621162    0.000016    0.000003    0.000008
   27.591979    0.868852    0.868873    0.868854    0.000011    0.000006    0.000004
   28.482043    0.836210    0.836222    0.836206    0.000013    0.000001    0.000006
   29.372107    1.229844    1.229855    1.229844    0.000015    0.000001    0.000006
   30.262171    1.554567    1.554569    1.554615    0.000030    0.000009    0.000016
   31.152234    1.774920    1.774930    1.774920    0.000021    0.000001    0.000010
   32.042298    0.149328    0.149343    0.149321    0.000020   -0.000003    0.000008
   32.932362    0.504015    0.504036    0.504005    0.000023   -0.000004    0.000008
   33.822426    0.577826    0.577851    0.577808    0.000030   -0.000006    0.000011
   34.712490    0.772188    0.772221    0.772149    0.000047   -0.000016    0.000018
   35.602554    0.848231    0.848304    0.847967    0.000182   -0.000112    0.000076
   36.492617    0.982256    0.982380    0.982096    0.000139   -0.000045    0.000077
   37.382681    0.707769    0.707977    0.707736    0.000206    0.000066    0.000124
   38.272745    0.722554    0.722274    0.722569   -0.000135    0.000084    0.000002
   39.162809    0.893781    0.893696    0.893783   -0.000058    0.000004   -0.000018
   40.052873    0.753776    0.753727    0.753775   -0.000033    0.000002   -0.000010
   40.942937    0.795506    0.795471    0.795504   -0.000022   -0.000001   -0.000008
   41.833000    0.740697    0.740674    0.740702   -0.000022   -0.000000   -0.000009
   42.723064    0.802647    0.802627    0.802649   -0.000016   -0.000000   -0.000006
   43.613128    0.829543    0.829525    0.829543   -0.000013   -0.000000   -0.000005
   44.503192    0.847627    0.847612    0.847627   -0.000011    0.000000   -0.000004
   45.393256    0.861429    0.861416    0.861429   -0.000010    0.000000   -0.000003
   46.283320    0.872615    0.872603    0.872615   -0.000008    0.000000   -0.000003
   47.173383    0.882011    0.882000    0.882010   -0.000007    0.000000   -0.000002
   48.063447    0.890044    0.890034    0.890043   -0.000007    0.000000   -0.000002
   48.953511    0.897095    0.897086    0.897094   -0.000006    0.000000   -0.000002
   49.843575    0.903328    0.903319    0.903326   -0.000005    0.000000   -0.000001
   50.733639    0.908905    0.908897    0.908904   -0.000005    0.000000   -0.000001
   51.623703    0.913907    0.913899    0.913905   -0.000004    0.000000   -0.000001
   52.513766    0.918613    0.918606    0.918611   -0.000004    0.000000   -0.000001
[...]
   75.655426    0.967423    0.967429    0.967437   -0.000007   -0.000000   -0.000005
   76.545490    0.968499    0.968504    0.968511   -0.000006   -0.000000   -0.000004
   77.435554    0.969448    0.969452    0.969457   -0.000005   -0.000000   -0.000004
   78.325618    0.970321    0.970324    0.970329   -0.000005   -0.000000   -0.000003
   79.215682    0.971138    0.971141    0.971146   -0.000004   -0.000000   -0.000003
   80.105745    0.971911    0.971913    0.971918   -0.000004   -0.000000   -0.000003
   80.995809    0.972646    0.972648    0.972652   -0.000004   -0.000000   -0.000002
   81.885873    0.973346    0.973348    0.973351   -0.000003   -0.000000   -0.000002
   82.775937    0.974016    0.974017    0.974021   -0.000003   -0.000000   -0.000002
   83.666001    0.974657    0.974658    0.974662   -0.000003   -0.000000   -0.000002
   84.556065    0.975272    0.975273    0.975276   -0.000003   -0.000000   -0.000002
   85.446128    0.975863    0.975864    0.975867   -0.000003   -0.000000   -0.000002
   86.336192    0.976431    0.976432    0.976434   -0.000002   -0.000000   -0.000002
   87.226256    0.976977    0.976978    0.976981   -0.000002   -0.000000   -0.000001
   88.116320    0.977503    0.977504    0.977507   -0.000002   -0.000000   -0.000001

 The outermost node in the dielectric function lies at epsilon=  27.1

 Spin-Orbit-Coupling matrix elements

 Ion:    1  E_soc:     -0.0001191
 l=   1
     0.0000000    -0.0000198    -0.0000198
    -0.0000198     0.0000000    -0.0000198
    -0.0000198    -0.0000198     0.0000000
 l=   2
     0.0000000     0.0000000     0.0000000     0.0000000    -0.0000000
     0.0000000     0.0000000    -0.0000000     0.0000000     0.0000000
     0.0000000    -0.0000000     0.0000000    -0.0000000     0.0000000
     0.0000000     0.0000000    -0.0000000     0.0000000     0.0000000
    -0.0000000     0.0000000     0.0000000     0.0000000     0.0000000
 l=   3
     0.0000000     0.0000000     0.0000000     0.0000000     0.0000000     0.0000000     0.0000000
     0.0000000     0.0000000     0.0000000     0.0000000     0.0000000     0.0000000     0.0000000
     0.0000000     0.0000000     0.0000000     0.0000000     0.0000000     0.0000000     0.0000000
     0.0000000     0.0000000     0.0000000     0.0000000     0.0000000     0.0000000     0.0000000
     0.0000000     0.0000000     0.0000000     0.0000000     0.0000000     0.0000000     0.0000000
     0.0000000     0.0000000     0.0000000     0.0000000     0.0000000     0.0000000     0.0000000
     0.0000000     0.0000000     0.0000000     0.0000000     0.0000000     0.0000000     0.0000000