 vasp.5.4.4.18Apr17-6-g9f103f2a35 (build Jul 09 2018 16:43:14) complex

 executed on             LinuxIFC date 2018.12.03  23:56:53

 INCAR:
 POTCAR:    PAW_PBE Kr_GW 21Aug2013

 POTCAR:    PAW_PBE Kr_GW 21Aug2013
   VRHFIN =Kr: s2p6

   TITEL  = PAW_PBE Kr_GW 21Aug2013
   POMASS =   83.800; ZVAL   =    8.000    mass and valenz
   ENMAX  =  252.232; ENMIN  =  189.174 eV

  PAW_PBE Kr_GW 21Aug2013               :

 POSCAR: Kr_FCC
  positions in direct lattice
  velocities in cartesian coordinates
 exchange correlation table for  LEXCH =        8
   RHO(1)=    0.500       N(1)  =     2000
   RHO(2)=  100.500       N(2)  =     4000

 ion  position               nearest neighbor table
   1  0.000  0.000  0.000-

IMPORTANT INFORMATION: All symmetrisations will be switched off!
NOSYMM: (Re-)initialisation of all symmetry stuff for point group C_1.

 KPOINTS: k-points

Automatic generation of k-mesh.
Space group operators:
 irot       det(A)        alpha          n_x          n_y          n_z        tau_x        tau_y        tau_z
    1     1.000000     0.000000     1.000000     0.000000     0.000000     0.000000     0.000000     0.000000

 Subroutine IBZKPT returns following result:

 Found    216 irreducible k-points:

 Following reciprocal coordinates:
            Coordinates               Weight
  0.000000  0.000000  0.000000      1.000000
  0.166667  0.000000  0.000000      1.000000
  0.333333 -0.000000  0.000000      1.000000
  0.500000  0.000000  0.000000      1.000000
 -0.333333  0.000000 -0.000000      1.000000
 -0.166667 -0.000000 -0.000000      1.000000
 -0.000000  0.166667 -0.000000      1.000000
  0.166667  0.166667  0.000000      1.000000
  0.333333  0.166667  0.000000      1.000000
  0.500000  0.166667  0.000000      1.000000
 -0.333333  0.166667 -0.000000      1.000000
 -0.166667  0.166667 -0.000000      1.000000
 -0.000000  0.333333  0.000000      1.000000
  0.166667  0.333333  0.000000      1.000000
  0.333333  0.333333  0.000000      1.000000
  0.500000  0.333333  0.000000      1.000000
 -0.333333  0.333333 -0.000000      1.000000
 -0.166667  0.333333 -0.000000      1.000000
  0.000000  0.500000 -0.000000      1.000000
  0.166667  0.500000  0.000000      1.000000
  0.333333  0.500000  0.000000      1.000000
  0.500000  0.500000  0.000000      1.000000
 -0.333333  0.500000 -0.000000      1.000000
 -0.166667  0.500000 -0.000000      1.000000
  0.000000 -0.333333 -0.000000      1.000000
  0.166667 -0.333333  0.000000      1.000000
  0.333333 -0.333333  0.000000      1.000000
  0.500000 -0.333333  0.000000      1.000000
 -0.333333 -0.333333  0.000000      1.000000
 -0.166667 -0.333333  0.000000      1.000000
  0.000000 -0.166667  0.000000      1.000000
  0.166667 -0.166667  0.000000      1.000000
  0.333333 -0.166667  0.000000      1.000000
  0.500000 -0.166667  0.000000      1.000000
 -0.333333 -0.166667 -0.000000      1.000000
 -0.166667 -0.166667  0.000000      1.000000
  0.000000  0.000000  0.166667      1.000000
  0.166667  0.000000  0.166667      1.000000
  0.333333 -0.000000  0.166667      1.000000
  0.500000  0.000000  0.166667      1.000000
 -0.333333  0.000000  0.166667      1.000000
 -0.166667  0.000000  0.166667      1.000000
 -0.000000  0.166667  0.166667      1.000000
  0.166667  0.166667  0.166667      1.000000
  0.333333  0.166667  0.166667      1.000000
  0.500000  0.166667  0.166667      1.000000
 -0.333333  0.166667  0.166667      1.000000
 -0.166667  0.166667  0.166667      1.000000
 -0.000000  0.333333  0.166667      1.000000
  0.166667  0.333333  0.166667      1.000000
  0.333333  0.333333  0.166667      1.000000
  0.500000  0.333333  0.166667      1.000000
 -0.333333  0.333333  0.166667      1.000000
 -0.166667  0.333333  0.166667      1.000000
  0.000000  0.500000  0.166667      1.000000
  0.166667  0.500000  0.166667      1.000000
  0.333333  0.500000  0.166667      1.000000
  0.500000  0.500000  0.166667      1.000000
 -0.333333  0.500000  0.166667      1.000000
 -0.166667  0.500000  0.166667      1.000000
[...]
  0.500000  0.500000 -0.166667      1.000000
 -0.333333  0.500000 -0.166667      1.000000
 -0.166667  0.500000 -0.166667      1.000000
  0.000000 -0.333333 -0.166667      1.000000
  0.166667 -0.333333 -0.166667      1.000000
  0.333333 -0.333333 -0.166667      1.000000
  0.500000 -0.333333 -0.166667      1.000000
 -0.333333 -0.333333 -0.166667      1.000000
 -0.166667 -0.333333 -0.166667      1.000000
 -0.000000 -0.166667 -0.166667      1.000000
  0.166667 -0.166667 -0.166667      1.000000
  0.333333 -0.166667 -0.166667      1.000000
  0.500000 -0.166667 -0.166667      1.000000
 -0.333333 -0.166667 -0.166667      1.000000
 -0.166667 -0.166667 -0.166667      1.000000

 Following cartesian coordinates:
            Coordinates               Weight
  0.000000  0.000000  0.000000      1.000000
  0.040499 -0.023382 -0.016534      1.000000
  0.080998 -0.046764 -0.033067      1.000000
  0.121497 -0.070146 -0.049601      1.000000
 -0.080998  0.046764  0.033067      1.000000
 -0.040499  0.023382  0.016534      1.000000
  0.000000  0.046764 -0.016534      1.000000
  0.040499  0.023382 -0.033067      1.000000
  0.080998  0.000000 -0.049601      1.000000
  0.121497 -0.023382 -0.066134      1.000000
 -0.080998  0.093528  0.016534      1.000000
 -0.040499  0.070146  0.000000      1.000000
  0.000000  0.093528 -0.033067      1.000000
  0.040499  0.070146 -0.049601      1.000000
  0.080998  0.046764 -0.066134      1.000000
  0.121497  0.023382 -0.082668      1.000000
 -0.080998  0.140292  0.000000      1.000000
 -0.040499  0.116910 -0.016534      1.000000
  0.000000  0.140292 -0.049601      1.000000
  0.040499  0.116910 -0.066134      1.000000
  0.080998  0.093528 -0.082668      1.000000
  0.121497  0.070146 -0.099202      1.000000
 -0.080998  0.187056 -0.016534      1.000000
 -0.040499  0.163674 -0.033067      1.000000
 -0.000000 -0.093528  0.033067      1.000000
  0.040499 -0.116910  0.016534      1.000000
  0.080998 -0.140292 -0.000000      1.000000
  0.121497 -0.163674 -0.016534      1.000000
 -0.080998 -0.046764  0.066134      1.000000
 -0.040499 -0.070146  0.049601      1.000000
 -0.000000 -0.046764  0.016534      1.000000
  0.040499 -0.070146 -0.000000      1.000000
  0.080998 -0.093528 -0.016534      1.000000
  0.121497 -0.116910 -0.033067      1.000000
 -0.080998  0.000000  0.049601      1.000000
 -0.040499 -0.023382  0.033067      1.000000
 -0.000000  0.000000  0.049601      1.000000
  0.040499 -0.023382  0.033067      1.000000
  0.080998 -0.046764  0.016534      1.000000
  0.121497 -0.070146 -0.000000      1.000000
 -0.080998  0.046764  0.082668      1.000000
 -0.040499  0.023382  0.066134      1.000000
 -0.000000  0.046764  0.033067      1.000000
  0.040499  0.023382  0.016534      1.000000
  0.080998  0.000000  0.000000      1.000000
  0.121497 -0.023382 -0.016534      1.000000
 -0.080998  0.093528  0.066134      1.000000
 -0.040499  0.070146  0.049601      1.000000
 -0.000000  0.093528  0.016534      1.000000
  0.040499  0.070146  0.000000      1.000000
  0.080998  0.046764 -0.016534      1.000000
  0.121497  0.023382 -0.033067      1.000000
 -0.080998  0.140292  0.049601      1.000000
 -0.040499  0.116910  0.033067      1.000000
 -0.000000  0.140292  0.000000      1.000000
  0.040499  0.116910 -0.016534      1.000000
  0.080998  0.093528 -0.033067      1.000000
  0.121497  0.070146 -0.049601      1.000000
 -0.080998  0.187056  0.033067      1.000000
 -0.040499  0.163674  0.016534      1.000000
[...]
  0.121497  0.070146 -0.148802      1.000000
 -0.080998  0.187056 -0.066134      1.000000
 -0.040499  0.163674 -0.082668      1.000000
  0.000000 -0.093528 -0.016534      1.000000
  0.040499 -0.116910 -0.033067      1.000000
  0.080998 -0.140292 -0.049601      1.000000
  0.121497 -0.163674 -0.066134      1.000000
 -0.080998 -0.046764  0.016534      1.000000
 -0.040499 -0.070146 -0.000000      1.000000
  0.000000 -0.046764 -0.033067      1.000000
  0.040499 -0.070146 -0.049601      1.000000
  0.080998 -0.093528 -0.066134      1.000000
  0.121497 -0.116910 -0.082668      1.000000
 -0.080998  0.000000 -0.000000      1.000000
 -0.040499 -0.023382 -0.016534      1.000000

 SYSTEM =  Og_FCC
 POSCAR =  Kr_FCC

 Startparameter for this run:
   NWRITE =      2    write-flag & timer
   PREC   = accura    normal or accurate (medium, high low for compatibility)
   ISTART =      1    job   : 0-new  1-cont  2-samecut
   ICHARG =      0    charge: 1-file 2-atom 10-const
   ISPIN  =      1    spin polarized calculation?
   LNONCOLLINEAR =      T non collinear calculations
   LSORBIT =      T    spin-orbit coupling
   INIWAV =      1    electr: 0-lowe 1-rand  2-diag
   LASPH  =      F    aspherical Exc in radial PAW
   METAGGA=      F    non-selfconsistent MetaGGA calc.

 Electronic Relaxation 1
   ENCUT  =  300.0 eV  22.05 Ry    4.70 a.u.   5.66  5.66  5.66*2*pi/ulx,y,z
   ENINI  =  300.0     initial cutoff
   ENAUG  =  554.8 eV  augmentation charge cutoff
   NELM   =     50;   NELMIN=  2; NELMDL= -5     # of ELM steps
   EDIFF  = 0.1E-07   stopping-criterion for ELM
   LREAL  =      F    real-space projection
   NLSPLINE    = F    spline interpolate recip. space projectors
   LCOMPAT=      F    compatible to vasp.4.4
   GGA_COMPAT  = F    GGA compatible to vasp.4.4-vasp.4.6
   LMAXPAW     = -100 max onsite density
   LMAXMIX     =    2 max onsite mixed and CHGCAR
   VOSKOWN=      0    Vosko Wilk Nusair interpolation
   ROPT   =    0.00000
 Ionic relaxation
   EDIFFG = 0.1E-04   stopping-criterion for IOM
   NSW    =      1    number of steps for IOM
   NBLOCK =      1;   KBLOCK =      1    inner block; outer block
   IBRION =     -1    ionic relax: 0-MD 1-quasi-New 2-CG
   NFREE  =      5    steps in history (QN), initial steepest desc. (CG)
   ISIF   =      3    stress and relaxation
   IWAVPR =     10    prediction:  0-non 1-charg 2-wave 3-comb
   ISYM   =      0    0-nonsym 1-usesym 2-fastsym
   LCORR  =      T    Harris-Foulkes like correction to forces

   POTIM  = 0.1000    time-step for ionic-motion
   TEIN   =    0.0    initial temperature
   TEBEG  =    0.0;   TEEND  =   0.0 temperature during run
   SMASS  =  -3.00    Nose mass-parameter (am)
   estimated Nose-frequenzy (Omega)   =  0.10E-29 period in steps =****** mass=  -0.367E-27a.u.
   SCALEE = 1.0000    scale energy and forces
   NPACO  =    256;   APACO  = 16.0  distance and # of slots for P.C.
   PSTRESS=    0.0 pullay stress

  Mass of Ions in am
   POMASS =  83.80
  Ionic Valenz
   ZVAL   =   8.00
  Atomic Wigner-Seitz radii
  virtual crystal weights
   VCA    =   1.00
   NELECT =       8.0000    total number of electrons
   NUPDOWN=      -1.0000    fix difference up-down

 DOS related values:
   EMIN   =  10.00;   EMAX   =-10.00  energy-range for DOS
   EFERMI =   0.00
   ISMEAR =     0;   SIGMA  =   0.00  broadening in eV -4-tet -1-fermi 0-gaus

 Electronic relaxation 2 (details)
   IALGO  =     90    algorithm
   LDIAG  =      T    sub-space diagonalisation (order eigenvalues)
   LSUBROT=      F    optimize rotation matrix (better conditioning)
   TURBO    =      0    0=normal 1=particle mesh
   IRESTART =      0    0=no restart 2=restart with 2 vectors
   NREBOOT  =      0    no. of reboots
[...]
   51.330257    0.895019    0.895019    0.895019   -0.000000   -0.000000   -0.000000
   52.377813    0.901854    0.901854    0.901854    0.000000    0.000000    0.000000
   53.425369    0.906666    0.906666    0.906666    0.000000    0.000000    0.000000
   54.472925    0.910880    0.910880    0.910880   -0.000000   -0.000000   -0.000000
   55.520482    0.916924    0.916924    0.916924    0.000000   -0.000000    0.000000
   56.568038    0.917606    0.917606    0.917606   -0.000000    0.000000   -0.000000
   57.615594    0.920974    0.920974    0.920974    0.000000    0.000000    0.000000
   58.663150    0.923567    0.923567    0.923567   -0.000000   -0.000000   -0.000000
   59.710707    0.925809    0.925809    0.925809   -0.000000    0.000000   -0.000000
   60.758263    0.928378    0.928378    0.928378    0.000000   -0.000000    0.000000
   61.805819    0.933032    0.933032    0.933032    0.000000    0.000000    0.000000
[...]
   89.042282    0.968245    0.968245    0.968245    0.000000   -0.000000    0.000000
   90.089838    0.969067    0.969067    0.969067    0.000000   -0.000000    0.000000
   91.137394    0.969848    0.969848    0.969848    0.000000    0.000000    0.000000
   92.184951    0.970593    0.970593    0.970593    0.000000    0.000000    0.000000
   93.232507    0.971307    0.971307    0.971307    0.000000    0.000000    0.000000
   94.280063    0.971991    0.971991    0.971991    0.000000    0.000000    0.000000
   95.327619    0.972649    0.972649    0.972649    0.000000    0.000000    0.000000
   96.375176    0.973282    0.973282    0.973282    0.000000    0.000000    0.000000
   97.422732    0.973891    0.973891    0.973891    0.000000    0.000000    0.000000
   98.470288    0.974479    0.974479    0.974479    0.000000    0.000000    0.000000
   99.517844    0.975045    0.975045    0.975045    0.000000    0.000000    0.000000
  100.565401    0.975592    0.975592    0.975592    0.000000    0.000000    0.000000
  101.612957    0.976121    0.976121    0.976121    0.000000    0.000000    0.000000
  102.660513    0.976631    0.976631    0.976631    0.000000    0.000000    0.000000
  103.708069    0.977125    0.977125    0.977125    0.000000    0.000000    0.000000

  frequency dependent IMAGINARY DIELECTRIC FUNCTION (independent particle, no local field effects) current-current (2nd set in vasprun.xml)
     E(ev)      X         Y         Z        XY        YZ        ZX
    0.000000    0.000000    0.000000    0.000000   -0.000007   -0.000011   -0.000008
    1.047556    0.000000    0.000000    0.000000   -0.000001   -0.000001   -0.000001
    2.095113    0.000000    0.000000    0.000000   -0.000000   -0.000001   -0.000000
    3.142669    0.000000    0.000000    0.000000   -0.000000   -0.000000   -0.000000
    4.190225    0.000000    0.000000    0.000000   -0.000000   -0.000000   -0.000000
    5.237781    0.000000    0.000000    0.000000   -0.000000   -0.000000   -0.000000
    6.285338    0.000000    0.000000    0.000000   -0.000000   -0.000000   -0.000000
    7.332894    0.000000    0.000000    0.000000   -0.000000   -0.000000   -0.000000
    8.380450    0.000000    0.000000    0.000000   -0.000000   -0.000001   -0.000000
    9.428006    3.339367    3.339368    3.339368   -0.000001   -0.000001   -0.000001
   10.475563    2.588981    2.588981    2.588981   -0.000002   -0.000004   -0.000003
   11.523119    2.140747    2.140752    2.140753   -0.000011   -0.000015   -0.000011
   12.570675    3.925430    3.925430    3.925430   -0.000009   -0.000014   -0.000010
   13.618231    1.521081    1.521081    1.521081   -0.000001   -0.000001   -0.000001
   14.665788    1.710473    1.710475    1.710474   -0.000000   -0.000003   -0.000001
   15.713344    0.276000    0.275999    0.275999    0.000000   -0.000001   -0.000000
   16.760900    0.597708    0.597708    0.597708   -0.000000   -0.000000   -0.000000
   17.808456    1.325366    1.325366    1.325366    0.000000    0.000000    0.000000
   18.856013    0.223163    0.223163    0.223163    0.000000    0.000000    0.000000
   19.903569    2.241845    2.241845    2.241845    0.000001    0.000002    0.000001
   20.951125    0.009223    0.009223    0.009223    0.000000    0.000001    0.000000
   21.998681    0.290309    0.290309    0.290309    0.000000    0.000000    0.000000
   23.046238    0.752461    0.752461    0.752461   -0.000000   -0.000000   -0.000000
   24.093794    0.180267    0.180268    0.180268   -0.000000    0.000000   -0.000000
   25.141350    0.002858    0.002858    0.002858   -0.000000   -0.000000   -0.000000
   26.188906    0.294802    0.294802    0.294802   -0.000000   -0.000000   -0.000000
   27.236463    0.162139    0.162139    0.162139    0.000000    0.000000    0.000000
   28.284019    0.105554    0.105554    0.105554   -0.000000   -0.000000   -0.000000
   29.331575    0.051546    0.051546    0.051546    0.000000    0.000000    0.000000
   30.379131    0.043737    0.043737    0.043737    0.000000    0.000000    0.000000
   31.426688    0.018867    0.018867    0.018867    0.000000    0.000000    0.000000
   32.474244    0.101363    0.101363    0.101363    0.000000    0.000000    0.000000
   33.521800    0.120641    0.120641    0.120641    0.000000    0.000000    0.000000
   34.569356    0.030165    0.030165    0.030165    0.000000    0.000000    0.000000
   35.616913    0.099361    0.099361    0.099361    0.000000    0.000000    0.000000
   36.664469    0.038257    0.038257    0.038257    0.000000    0.000000    0.000000
   37.712025    0.031827    0.031827    0.031827    0.000000    0.000000    0.000000
   38.759581    0.036865    0.036865    0.036865   -0.000000   -0.000001   -0.000000
   39.807138    0.016102    0.016102    0.016102    0.000000    0.000000    0.000000
   40.854694    0.020776    0.020776    0.020776    0.000000    0.000000    0.000000
   41.902250    0.026240    0.026240    0.026240    0.000000    0.000000    0.000000
   42.949807    0.019472    0.019472    0.019472   -0.000000   -0.000000   -0.000000
   43.997363    0.008912    0.008912    0.008912    0.000000    0.000000    0.000000
   45.044919    0.005288    0.005288    0.005288    0.000000    0.000000    0.000000
   46.092475    0.009379    0.009379    0.009379   -0.000000   -0.000000   -0.000000
   47.140032    0.014036    0.014036    0.014036   -0.000000   -0.000000   -0.000000
   48.187588    0.013819    0.013819    0.013819   -0.000000   -0.000000   -0.000000
   49.235144    0.001284    0.001284    0.001284    0.000000    0.000000    0.000000
   50.282700    0.006663    0.006663    0.006663   -0.000000   -0.000000   -0.000000
   51.330257    0.001276    0.001276    0.001276   -0.000000   -0.000000   -0.000000
   52.377813    0.004380    0.004380    0.004380    0.000000   -0.000000    0.000000
   53.425369    0.003927    0.003927    0.003927    0.000000    0.000000    0.000000
   54.472925    0.001964    0.001964    0.001964   -0.000000   -0.000000   -0.000000
   55.520482    0.001290    0.001290    0.001290   -0.000000   -0.000000   -0.000000
   56.568038    0.003654    0.003654    0.003654    0.000000    0.000000    0.000000
   57.615594    0.006617    0.006617    0.006617   -0.000000   -0.000000   -0.000000
   58.663150    0.000000    0.000000    0.000000   -0.000000   -0.000000   -0.000000
   59.710707    0.004867    0.004867    0.004867   -0.000000   -0.000000   -0.000000
   60.758263    0.003309    0.003309    0.003309   -0.000000   -0.000000   -0.000000
   61.805819    0.005952    0.005952    0.005952   -0.000000   -0.000000   -0.000000
[...]
   89.042282    0.000000    0.000000    0.000000    0.000000    0.000000    0.000000
   90.089838    0.000000    0.000000    0.000000    0.000000    0.000000    0.000000
   91.137394    0.000000    0.000000    0.000000    0.000000    0.000000    0.000000
   92.184951    0.000000    0.000000    0.000000    0.000000    0.000000    0.000000
   93.232507    0.000000    0.000000    0.000000    0.000000    0.000000    0.000000
   94.280063    0.000000    0.000000    0.000000    0.000000    0.000000    0.000000
   95.327619    0.000000    0.000000    0.000000    0.000000    0.000000    0.000000
   96.375176    0.000000    0.000000    0.000000    0.000000    0.000000    0.000000
   97.422732    0.000000    0.000000    0.000000    0.000000    0.000000    0.000000
   98.470288    0.000000    0.000000    0.000000    0.000000    0.000000    0.000000
   99.517844    0.000000    0.000000    0.000000    0.000000    0.000000    0.000000
  100.565401    0.000000    0.000000    0.000000    0.000000    0.000000    0.000000
  101.612957    0.000000    0.000000    0.000000    0.000000    0.000000    0.000000
  102.660513    0.000000    0.000000    0.000000    0.000000    0.000000    0.000000
  103.708069    0.000000    0.000000    0.000000    0.000000    0.000000    0.000000

  frequency dependent      REAL DIELECTRIC FUNCTION (independent particle, no local field effects) current-current (2nd set in vasprun.xml)
     E(ev)        X           Y           Z          XY          YZ          ZX
    0.000000    2.165224    2.165224    2.165224   -0.000000    0.000000   -0.000000
    1.047556    2.173859    2.173859    2.173859   -0.000000    0.000000   -0.000000
    2.095113    2.201046    2.201046    2.201046   -0.000000    0.000000   -0.000000
    3.142669    2.250074    2.250074    2.250074   -0.000000    0.000000   -0.000000
    4.190225    2.328174    2.328174    2.328174   -0.000000    0.000000   -0.000000
    5.237781    2.450804    2.450804    2.450804   -0.000000    0.000000   -0.000000
    6.285338    2.660373    2.660373    2.660373   -0.000000   -0.000000   -0.000000
    7.332894    3.011191    3.011191    3.011191   -0.000000   -0.000000   -0.000000
    8.380450    2.998836    2.998836    2.998836   -0.000000   -0.000000   -0.000000
    9.428006    3.803104    3.803104    3.803104   -0.000000   -0.000000   -0.000000
   10.475563    3.090363    3.090362    3.090362    0.000000    0.000001    0.000001
   11.523119    3.405159    3.405158    3.405158   -0.000003   -0.000007   -0.000004
   12.570675    1.520868    1.520868    1.520868   -0.000006   -0.000010   -0.000007
   13.618231    0.461315    0.461315    0.461315   -0.000000   -0.000000   -0.000000
   14.665788   -0.496267   -0.496268   -0.496267    0.000000   -0.000004   -0.000000
   15.713344    0.209395    0.209395    0.209395    0.000000    0.000001    0.000000
   16.760900    0.057411    0.057411    0.057410    0.000000   -0.000000   -0.000000
   17.808456    0.136836    0.136836    0.136836   -0.000000   -0.000000   -0.000000
   18.856013    0.466802    0.466802    0.466802   -0.000000   -0.000000   -0.000000
   19.903569   -0.272920   -0.272920   -0.272920   -0.000001   -0.000001   -0.000001
   20.951125   -0.120193   -0.120193   -0.120193    0.000000    0.000000    0.000000
   21.998681    0.320949    0.320949    0.320949   -0.000000   -0.000000   -0.000000
   23.046238    0.297187    0.297187    0.297187    0.000000    0.000000    0.000000
   24.093794    0.288357    0.288357    0.288357    0.000000   -0.000000    0.000000
   25.141350    0.446030    0.446030    0.446030   -0.000000   -0.000000   -0.000000
   26.188906    0.571896    0.571896    0.571896    0.000000    0.000000    0.000000
   27.236463    0.570994    0.570994    0.570994    0.000000    0.000000    0.000000
   28.284019    0.644407    0.644407    0.644407   -0.000000   -0.000000   -0.000000
   29.331575    0.603051    0.603051    0.603051   -0.000000   -0.000000   -0.000000
   30.379131    0.598298    0.598298    0.598298   -0.000000   -0.000000   -0.000000
   31.426688    0.679864    0.679864    0.679864   -0.000000   -0.000000   -0.000000
   32.474244    0.716293    0.716293    0.716293   -0.000000   -0.000000   -0.000000
   33.521800    0.729251    0.729251    0.729251    0.000000    0.000000    0.000000
   34.569356    0.743981    0.743981    0.743981   -0.000000   -0.000000   -0.000000
   35.616913    0.762249    0.762249    0.762249    0.000000    0.000000    0.000000
   36.664469    0.787143    0.787143    0.787143    0.000000    0.000000    0.000000
   37.712025    0.786677    0.786677    0.786677    0.000000    0.000000    0.000000
   38.759581    0.806469    0.806469    0.806469   -0.000000   -0.000001   -0.000000
   39.807138    0.810436    0.810436    0.810436    0.000000    0.000000    0.000000
   40.854694    0.834140    0.834140    0.834140    0.000000    0.000000    0.000000
   41.902250    0.846267    0.846267    0.846267    0.000000   -0.000000    0.000000
   42.949807    0.844052    0.844052    0.844052   -0.000000   -0.000000   -0.000000
   43.997363    0.850368    0.850368    0.850368    0.000000    0.000000    0.000000
   45.044919    0.861820    0.861820    0.861820   -0.000000   -0.000000   -0.000000
   46.092475    0.874296    0.874296    0.874296   -0.000000    0.000000   -0.000000
   47.140032    0.884433    0.884433    0.884433   -0.000000   -0.000000   -0.000000
   48.187588    0.881799    0.881799    0.881799   -0.000000   -0.000000   -0.000000
   49.235144    0.885597    0.885597    0.885597    0.000000    0.000000    0.000000
   50.282700    0.892864    0.892864    0.892864    0.000000    0.000000    0.000000
   51.330257    0.894967    0.894967    0.894967   -0.000000   -0.000000   -0.000000
   52.377813    0.901806    0.901806    0.901806    0.000000    0.000000    0.000000
   53.425369    0.906614    0.906614    0.906614    0.000000    0.000000    0.000000
   54.472925    0.910838    0.910838    0.910838   -0.000000   -0.000000   -0.000000
   55.520482    0.916879    0.916879    0.916879    0.000000   -0.000000    0.000000
   56.568038    0.917563    0.917563    0.917563   -0.000000    0.000000   -0.000000
   57.615594    0.920929    0.920929    0.920929    0.000000    0.000000    0.000000
   58.663150    0.923533    0.923533    0.923533   -0.000000   -0.000000   -0.000000
   59.710707    0.925774    0.925774    0.925774   -0.000000   -0.000000   -0.000000
   60.758263    0.928345    0.928345    0.928345    0.000000   -0.000000   -0.000000
   61.805819    0.932995    0.932995    0.932995    0.000000    0.000000    0.000000
[...]
   89.042282    0.968234    0.968234    0.968234    0.000000   -0.000000    0.000000
   90.089838    0.969057    0.969057    0.969057    0.000000   -0.000000    0.000000
   91.137394    0.969838    0.969838    0.969838    0.000000   -0.000000    0.000000
   92.184951    0.970584    0.970584    0.970584    0.000000   -0.000000    0.000000
   93.232507    0.971297    0.971297    0.971297    0.000000   -0.000000    0.000000
   94.280063    0.971982    0.971982    0.971982    0.000000   -0.000000    0.000000
   95.327619    0.972640    0.972640    0.972640    0.000000   -0.000000    0.000000
   96.375176    0.973273    0.973273    0.973273    0.000000   -0.000000    0.000000
   97.422732    0.973883    0.973883    0.973883    0.000000   -0.000000    0.000000
   98.470288    0.974470    0.974470    0.974470    0.000000   -0.000000    0.000000
   99.517844    0.975037    0.975037    0.975037    0.000000   -0.000000    0.000000
  100.565401    0.975584    0.975584    0.975584    0.000000   -0.000000    0.000000
  101.612957    0.976113    0.976113    0.976113    0.000000   -0.000000    0.000000
  102.660513    0.976624    0.976624    0.976624    0.000000   -0.000000    0.000000
  103.708069    0.977118    0.977118    0.977118    0.000000   -0.000000    0.000000

 The outermost node in the dielectric function lies at epsilon=  21.1

 Spin-Orbit-Coupling matrix elements

 Ion:    1  E_soc:     -0.0805099
 l=   1
     0.0000000    -0.0134179    -0.0134179
    -0.0134179     0.0000000    -0.0134179
    -0.0134179    -0.0134179     0.0000000
 l=   2
     0.0000000    -0.0000001     0.0000000    -0.0000001    -0.0000003
    -0.0000001     0.0000000    -0.0000003    -0.0000001    -0.0000001
     0.0000000    -0.0000003     0.0000000    -0.0000003     0.0000000
    -0.0000001    -0.0000001    -0.0000003     0.0000000    -0.0000001
    -0.0000003    -0.0000001     0.0000000    -0.0000001     0.0000000
 l=   3
     0.0000000     0.0000000     0.0000000     0.0000000     0.0000000     0.0000000     0.0000000
     0.0000000     0.0000000     0.0000000     0.0000000     0.0000000     0.0000000     0.0000000
     0.0000000     0.0000000     0.0000000     0.0000000     0.0000000     0.0000000     0.0000000
     0.0000000     0.0000000     0.0000000     0.0000000     0.0000000     0.0000000     0.0000000
     0.0000000     0.0000000     0.0000000     0.0000000     0.0000000     0.0000000     0.0000000
     0.0000000     0.0000000     0.0000000     0.0000000     0.0000000     0.0000000     0.0000000
     0.0000000     0.0000000     0.0000000     0.0000000     0.0000000     0.0000000     0.0000000