 vasp.5.4.4.18Apr17-6-g9f103f2a35 (build Jul 09 2018 16:43:14) complex

 executed on             LinuxIFC date 2018.11.22  20:29:44

 INCAR:
 POTCAR:    PAW Og, JanMewes Oct 18

 POTCAR:    PAW Og, JanMewes Oct 18
   VRHFIN =Og : 10d 2s 6p, PE

   TITEL  = PAW Og, JanMewes Oct 18
   POMASS =    0.010; ZVAL   =   18.000    mass and valenz
   ENMAX  =  339.336; ENMIN  =  254.502 eV
   QCUT   =   -4.994; QGAM   =    9.988    optimization parameters

  PAW Og, JanMewes Oct 18               :

 POSCAR: Og_FCC
  positions in direct lattice
  velocities in cartesian coordinates
 exchange correlation table for  LEXCH =        8
   RHO(1)=    0.500       N(1)  =     2000
   RHO(2)=  100.500       N(2)  =     4000

 ion  position               nearest neighbor table
   1  0.000  0.000  0.000-

IMPORTANT INFORMATION: All symmetrisations will be switched off!
NOSYMM: (Re-)initialisation of all symmetry stuff for point group C_1.

 KPOINTS: k-points

Automatic generation of k-mesh.
Space group operators:
 irot       det(A)        alpha          n_x          n_y          n_z        tau_x        tau_y        tau_z
    1     1.000000     0.000000     1.000000     0.000000     0.000000     0.000000     0.000000     0.000000

 Subroutine IBZKPT returns following result:

 Found    112 irreducible k-points:

 Following reciprocal coordinates:
            Coordinates               Weight
  0.000000  0.000000  0.000000      1.000000
  0.166667  0.000000  0.000000      2.000000
  0.333333  0.000000  0.000000      2.000000
  0.500000  0.000000  0.000000      1.000000
 -0.000000  0.166667 -0.000000      2.000000
  0.166667  0.166667  0.000000      2.000000
  0.333333  0.166667 -0.000000      2.000000
  0.500000  0.166667  0.000000      2.000000
 -0.333333  0.166667 -0.000000      2.000000
 -0.166667  0.166667 -0.000000      2.000000
  0.000000  0.333333 -0.000000      2.000000
  0.166667  0.333333  0.000000      2.000000
  0.333333  0.333333  0.000000      2.000000
  0.500000  0.333333  0.000000      2.000000
 -0.333333  0.333333 -0.000000      2.000000
 -0.166667  0.333333 -0.000000      2.000000
  0.000000  0.500000 -0.000000      1.000000
  0.166667  0.500000  0.000000      2.000000
  0.333333  0.500000  0.000000      2.000000
  0.500000  0.500000  0.000000      1.000000
  0.000000  0.000000  0.166667      2.000000
  0.166667  0.000000  0.166667      2.000000
  0.333333 -0.000000  0.166667      2.000000
  0.500000 -0.000000  0.166667      2.000000
 -0.333333 -0.000000  0.166667      2.000000
 -0.166667  0.000000  0.166667      2.000000
 -0.000000  0.166667  0.166667      2.000000
  0.166667  0.166667  0.166667      2.000000
  0.333333  0.166667  0.166667      2.000000
  0.500000  0.166667  0.166667      2.000000
 -0.333333  0.166667  0.166667      2.000000
 -0.166667  0.166667  0.166667      2.000000
 -0.000000  0.333333  0.166667      2.000000
  0.166667  0.333333  0.166667      2.000000
  0.333333  0.333333  0.166667      2.000000
  0.500000  0.333333  0.166667      2.000000
 -0.333333  0.333333  0.166667      2.000000
 -0.166667  0.333333  0.166667      2.000000
 -0.000000  0.500000  0.166667      2.000000
  0.166667  0.500000  0.166667      2.000000
  0.333333  0.500000  0.166667      2.000000
  0.500000  0.500000  0.166667      2.000000
 -0.333333  0.500000  0.166667      2.000000
 -0.166667  0.500000  0.166667      2.000000
 -0.000000 -0.333333  0.166667      2.000000
  0.166667 -0.333333  0.166667      2.000000
  0.333333 -0.333333  0.166667      2.000000
  0.500000 -0.333333  0.166667      2.000000
 -0.333333 -0.333333  0.166667      2.000000
 -0.166667 -0.333333  0.166667      2.000000
  0.000000 -0.166667  0.166667      2.000000
  0.166667 -0.166667  0.166667      2.000000
  0.333333 -0.166667  0.166667      2.000000
  0.500000 -0.166667  0.166667      2.000000
 -0.333333 -0.166667  0.166667      2.000000
 -0.166667 -0.166667  0.166667      2.000000
  0.000000  0.000000  0.333333      2.000000
  0.166667  0.000000  0.333333      2.000000
  0.333333  0.000000  0.333333      2.000000
  0.500000 -0.000000  0.333333      2.000000
[...]
  0.166667  0.166667  0.500000      2.000000
  0.333333  0.166667  0.500000      2.000000
  0.500000  0.166667  0.500000      2.000000
 -0.333333  0.166667  0.500000      2.000000
 -0.166667  0.166667  0.500000      2.000000
  0.000000  0.333333  0.500000      2.000000
  0.166667  0.333333  0.500000      2.000000
  0.333333  0.333333  0.500000      2.000000
  0.500000  0.333333  0.500000      2.000000
 -0.333333  0.333333  0.500000      2.000000
 -0.166667  0.333333  0.500000      2.000000
 -0.000000  0.500000  0.500000      1.000000
  0.166667  0.500000  0.500000      2.000000
  0.333333  0.500000  0.500000      2.000000
  0.500000  0.500000  0.500000      1.000000

 Following cartesian coordinates:
            Coordinates               Weight
  0.000000  0.000000  0.000000      1.000000
  0.038382 -0.022160 -0.015669      2.000000
  0.076763 -0.044319 -0.031339      2.000000
  0.115145 -0.066479 -0.047008      1.000000
  0.000000  0.044319 -0.015669      2.000000
  0.038382  0.022160 -0.031339      2.000000
  0.076763  0.000000 -0.047008      2.000000
  0.115145 -0.022160 -0.062677      2.000000
 -0.076763  0.088639  0.015669      2.000000
 -0.038382  0.066479 -0.000000      2.000000
  0.000000  0.088639 -0.031339      2.000000
  0.038382  0.066479 -0.047008      2.000000
  0.076763  0.044319 -0.062677      2.000000
  0.115145  0.022160 -0.078346      2.000000
 -0.076763  0.132958  0.000000      2.000000
 -0.038382  0.110798 -0.015669      2.000000
  0.000000  0.132958 -0.047008      1.000000
  0.038382  0.110798 -0.062677      2.000000
  0.076763  0.088639 -0.078346      2.000000
  0.115145  0.066479 -0.094016      1.000000
 -0.000000  0.000000  0.047008      2.000000
  0.038382 -0.022160  0.031339      2.000000
  0.076763 -0.044319  0.015669      2.000000
  0.115145 -0.066479  0.000000      2.000000
 -0.076763  0.044319  0.078346      2.000000
 -0.038382  0.022160  0.062677      2.000000
 -0.000000  0.044319  0.031339      2.000000
  0.038382  0.022160  0.015669      2.000000
  0.076763  0.000000  0.000000      2.000000
  0.115145 -0.022160 -0.015669      2.000000
 -0.076763  0.088639  0.062677      2.000000
 -0.038382  0.066479  0.047008      2.000000
 -0.000000  0.088639  0.015669      2.000000
  0.038382  0.066479  0.000000      2.000000
  0.076763  0.044319 -0.015669      2.000000
  0.115145  0.022160 -0.031339      2.000000
 -0.076763  0.132958  0.047008      2.000000
 -0.038382  0.110798  0.031339      2.000000
 -0.000000  0.132958  0.000000      2.000000
  0.038382  0.110798 -0.015669      2.000000
  0.076763  0.088639 -0.031339      2.000000
  0.115145  0.066479 -0.047008      2.000000
 -0.076763  0.177278  0.031339      2.000000
 -0.038382  0.155118  0.015669      2.000000
 -0.000000 -0.088639  0.078346      2.000000
  0.038382 -0.110798  0.062677      2.000000
  0.076763 -0.132958  0.047008      2.000000
  0.115145 -0.155118  0.031339      2.000000
 -0.076763 -0.044319  0.109685      2.000000
 -0.038382 -0.066479  0.094016      2.000000
 -0.000000 -0.044319  0.062677      2.000000
  0.038382 -0.066479  0.047008      2.000000
  0.076763 -0.088639  0.031339      2.000000
  0.115145 -0.110798  0.015669      2.000000
 -0.076763  0.000000  0.094016      2.000000
 -0.038382 -0.022160  0.078346      2.000000
 -0.000000  0.000000  0.094016      2.000000
  0.038382 -0.022160  0.078346      2.000000
  0.076763 -0.044319  0.062677      2.000000
  0.115145 -0.066479  0.047008      2.000000
[...]
  0.038382  0.022160  0.109685      2.000000
  0.076763  0.000000  0.094016      2.000000
  0.115145 -0.022160  0.078346      2.000000
 -0.076763  0.088639  0.156693      2.000000
 -0.038382  0.066479  0.141023      2.000000
 -0.000000  0.088639  0.109685      2.000000
  0.038382  0.066479  0.094016      2.000000
  0.076763  0.044319  0.078346      2.000000
  0.115145  0.022160  0.062677      2.000000
 -0.076763  0.132958  0.141023      2.000000
 -0.038382  0.110798  0.125354      2.000000
 -0.000000  0.132958  0.094016      1.000000
  0.038382  0.110798  0.078346      2.000000
  0.076763  0.088639  0.062677      2.000000
  0.115145  0.066479  0.047008      1.000000

 SYSTEM =  Og_FCC
 POSCAR =  Og_FCC

 Startparameter for this run:
   NWRITE =      2    write-flag & timer
   PREC   = accura    normal or accurate (medium, high low for compatibility)
   ISTART =      1    job   : 0-new  1-cont  2-samecut
   ICHARG =      0    charge: 1-file 2-atom 10-const
   ISPIN  =      1    spin polarized calculation?
   LNONCOLLINEAR =      F non collinear calculations
   LSORBIT =      F    spin-orbit coupling
   INIWAV =      1    electr: 0-lowe 1-rand  2-diag
   LASPH  =      F    aspherical Exc in radial PAW
   METAGGA=      F    non-selfconsistent MetaGGA calc.

 Electronic Relaxation 1
   ENCUT  =  300.0 eV  22.05 Ry    4.70 a.u.   6.13  6.13  6.13*2*pi/ulx,y,z
   ENINI  =  300.0     initial cutoff
   ENAUG  =  361.0 eV  augmentation charge cutoff
   NELM   =     50;   NELMIN=  2; NELMDL= -5     # of ELM steps
   EDIFF  = 0.1E-07   stopping-criterion for ELM
   LREAL  =      F    real-space projection
   NLSPLINE    = F    spline interpolate recip. space projectors
   LCOMPAT=      F    compatible to vasp.4.4
   GGA_COMPAT  = F    GGA compatible to vasp.4.4-vasp.4.6
   LMAXPAW     = -100 max onsite density
   LMAXMIX     =    2 max onsite mixed and CHGCAR
   VOSKOWN=      0    Vosko Wilk Nusair interpolation
   ROPT   =    0.00000
 Ionic relaxation
   EDIFFG = 0.1E-04   stopping-criterion for IOM
   NSW    =      1    number of steps for IOM
   NBLOCK =      1;   KBLOCK =      1    inner block; outer block
   IBRION =     -1    ionic relax: 0-MD 1-quasi-New 2-CG
   NFREE  =      5    steps in history (QN), initial steepest desc. (CG)
   ISIF   =      3    stress and relaxation
   IWAVPR =     10    prediction:  0-non 1-charg 2-wave 3-comb
   ISYM   =      0    0-nonsym 1-usesym 2-fastsym
   LCORR  =      T    Harris-Foulkes like correction to forces

   POTIM  = 0.1000    time-step for ionic-motion
   TEIN   =    0.0    initial temperature
   TEBEG  =    0.0;   TEEND  =   0.0 temperature during run
   SMASS  =  -3.00    Nose mass-parameter (am)
   estimated Nose-frequenzy (Omega)   =  0.10E-29 period in steps =****** mass=  -0.431E-27a.u.
   SCALEE = 1.0000    scale energy and forces
   NPACO  =    256;   APACO  = 16.0  distance and # of slots for P.C.
   PSTRESS=    0.0 pullay stress

  Mass of Ions in am
   POMASS =   0.01
  Ionic Valenz
   ZVAL   =  18.00
  Atomic Wigner-Seitz radii
  virtual crystal weights
   VCA    =   1.00
   NELECT =      18.0000    total number of electrons
   NUPDOWN=      -1.0000    fix difference up-down

 DOS related values:
   EMIN   =  10.00;   EMAX   =-10.00  energy-range for DOS
   EFERMI =   0.00
   ISMEAR =     0;   SIGMA  =   0.00  broadening in eV -4-tet -1-fermi 0-gaus

 Electronic relaxation 2 (details)
   IALGO  =     38    algorithm
   LDIAG  =      T    sub-space diagonalisation (order eigenvalues)
   LSUBROT=      F    optimize rotation matrix (better conditioning)
   TURBO    =      0    0=normal 1=particle mesh
[...]
   18.185768    0.258861    0.258876    0.258617    0.000743   -0.000038    0.000160
   18.720643    0.326296    0.326321    0.326062    0.000558   -0.000017    0.000134
   19.255519    0.382821    0.382855    0.382601    0.000447   -0.000001    0.000114
   19.790394    0.431688    0.431728    0.431478    0.000372    0.000011    0.000098
   20.325270    0.474681    0.474727    0.474482    0.000318    0.000020    0.000086
   20.860146    0.512975    0.513026    0.512783    0.000277    0.000028    0.000076
   21.395021    0.547416    0.547471    0.547230    0.000245    0.000035    0.000067
   21.929897    0.578651    0.578710    0.578470    0.000220    0.000041    0.000060
   22.464772    0.607200    0.607263    0.607023    0.000199    0.000047    0.000054
   22.999648    0.633496    0.633563    0.633323    0.000182    0.000052    0.000049
   23.534523    0.657924    0.657994    0.657753    0.000167    0.000056    0.000044
   24.069399    0.680848    0.680921    0.680678    0.000154    0.000061    0.000040
   24.604274    0.702668    0.702744    0.702499    0.000143    0.000065    0.000036
   25.139150    0.723949    0.724029    0.723781    0.000134    0.000069    0.000033
   25.674025    0.746001    0.746084    0.745832    0.000125    0.000073    0.000030
   26.208901    0.776048    0.776134    0.775878    0.000118    0.000077    0.000027
   26.743776    0.788613    0.788703    0.788443    0.000111    0.000081    0.000024
   27.278652    0.798483    0.798576    0.798311    0.000105    0.000085    0.000022
   27.813527    0.822773    0.822870    0.822600    0.000100    0.000089    0.000020
   28.348403    0.787082    0.787182    0.786906    0.000095    0.000093    0.000017
   28.883278    0.828884    0.828988    0.828705    0.000091    0.000098    0.000015
   29.418154    0.851416    0.851525    0.851234    0.000087    0.000102    0.000013
   29.953029    0.850115    0.850229    0.849929    0.000084    0.000107    0.000011
   30.487905    0.813323    0.813441    0.813132    0.000080    0.000112    0.000008
   31.022781    0.849801    0.849924    0.849604    0.000077    0.000118    0.000006
   31.557656    0.889304    0.889433    0.889101    0.000075    0.000124    0.000003
[...]
   45.464420    0.771758    0.770988    0.773596    0.000020   -0.000944    0.000013
   45.999295    0.797044    0.796464    0.798237   -0.000004   -0.000668    0.000019
   46.534171    0.814678    0.814213    0.815555   -0.000007   -0.000520    0.000020
   47.069046    0.828141    0.827752    0.828831   -0.000006   -0.000426    0.000020
   47.603922    0.838979    0.838645    0.839545   -0.000004   -0.000361    0.000019
   48.138797    0.848017    0.847724    0.848497   -0.000002   -0.000314    0.000019
   48.673673    0.855749    0.855489    0.856164   -0.000000   -0.000277    0.000018
   49.208548    0.862492    0.862258    0.862857    0.000001   -0.000248    0.000017
   49.743424    0.868461    0.868248    0.868786    0.000002   -0.000225    0.000017
   50.278300    0.873810    0.873615    0.874102    0.000003   -0.000205    0.000016
   50.813175    0.878649    0.878469    0.878915    0.000004   -0.000189    0.000015
   51.348051    0.883065    0.882898    0.883308    0.000004   -0.000174    0.000015
   51.882926    0.887121    0.886966    0.887345    0.000005   -0.000162    0.000014
   52.417802    0.890869    0.890724    0.891077    0.000005   -0.000151    0.000014
   52.952677    0.894351    0.894214    0.894544    0.000006   -0.000142    0.000013

  frequency dependent IMAGINARY DIELECTRIC FUNCTION (independent particle, no local field effects) current-current (2nd set in vasprun.xml)
     E(ev)      X         Y         Z        XY        YZ        ZX
    0.000000   14.736044   14.736432   14.735956   -0.013447   -0.014083   -0.006858
    0.534876    1.521126    1.521165    1.521117   -0.001343   -0.001409   -0.000686
    1.069751    0.860560    0.860580    0.860556   -0.000669   -0.000705   -0.000343
    1.604627    0.926994    0.927007    0.926991   -0.000444   -0.000471   -0.000228
    2.139502    1.428276    1.428286    1.428274   -0.000330   -0.000355   -0.000171
    2.674378    0.574611    0.574619    0.574610   -0.000262   -0.000285   -0.000136
    3.209253    1.383019    1.383026    1.383018   -0.000215   -0.000238   -0.000113
    3.744129    1.279640    1.279646    1.279639   -0.000182   -0.000206   -0.000097
    4.279004    3.483698    3.483703    3.483697   -0.000156   -0.000181   -0.000084
    4.813880    7.033355    7.033359    7.033354   -0.000135   -0.000162   -0.000075
    5.348755    2.030286    2.030290    2.030285   -0.000119   -0.000147   -0.000067
    5.883631   11.446503   11.446512   11.446508   -0.000108   -0.000136   -0.000063
    6.418506    4.292828    4.292832    4.292828   -0.000092   -0.000126   -0.000055
    6.953382    3.413227    3.413231    3.413226   -0.000081   -0.000117   -0.000050
    7.488257    3.190852    3.190856    3.190852   -0.000071   -0.000111   -0.000046
    8.023133    5.860921    5.860926    5.860922   -0.000062   -0.000105   -0.000043
    8.558008    6.848295    6.848299    6.848295   -0.000054   -0.000100   -0.000039
    9.092884    3.832254    3.832258    3.832254   -0.000046   -0.000096   -0.000036
    9.627759    3.298368    3.298374    3.298370   -0.000039   -0.000094   -0.000035
   10.162635    2.918247    2.918252    2.918246   -0.000031   -0.000092   -0.000031
   10.697511    2.344121    2.344128    2.344120   -0.000025   -0.000092   -0.000029
   11.232386    1.062792    1.062801    1.062787   -0.000019   -0.000096   -0.000027
   11.767262    1.813788    1.813806    1.813776   -0.000017   -0.000115   -0.000025
   12.302137    2.092957    2.093024    2.092901   -0.000030   -0.000223   -0.000028
   12.837013    1.326172    1.326690    1.325735   -0.000276    0.000502   -0.000248
   13.371888    0.486833    0.486873    0.486488   -0.000397    0.000942   -0.000211
   13.906764    0.555717    0.555752    0.555099    0.000058   -0.000213   -0.000230
   14.441639    0.178387    0.178462    0.178458    0.000198   -0.000322   -0.000082
   14.976515    0.266022    0.266188    0.267169    0.000142   -0.000253   -0.000237
   15.511390    0.072784    0.073025    0.074931    0.000107   -0.000453   -0.000689
   16.046266    0.071573    0.071595    0.071685    0.000696   -0.000417   -0.000004
   16.581141    0.054764    0.054857    0.053206    0.000112    0.000243   -0.001038
   17.116017    0.116894    0.116921    0.116846   -0.002220    0.000566   -0.000317
   17.650892    0.010592    0.010596    0.010584   -0.000858    0.000205   -0.000153
   18.185768    0.005868    0.005871    0.005867   -0.000544    0.000106   -0.000105
   18.720643    0.004260    0.004262    0.004260   -0.000407    0.000062   -0.000083
   19.255519    0.003377    0.003378    0.003377   -0.000331    0.000038   -0.000071
   19.790394    0.002803    0.002805    0.002803   -0.000283    0.000023   -0.000062
   20.325270    0.002401    0.002403    0.002401   -0.000249    0.000012   -0.000057
   20.860146    0.002109    0.002110    0.002108   -0.000225    0.000005   -0.000053
   21.395021    0.001892    0.001893    0.001891   -0.000206   -0.000000   -0.000050
   21.929897    0.001732    0.001734    0.001732   -0.000192   -0.000004   -0.000047
   22.464772    0.001618    0.001620    0.001617   -0.000180   -0.000008   -0.000045
   22.999648    0.001544    0.001545    0.001543   -0.000171   -0.000010   -0.000044
   23.534523    0.001509    0.001510    0.001508   -0.000163   -0.000013   -0.000042
   24.069399    0.001518    0.001519    0.001517   -0.000157   -0.000014   -0.000041
   24.604274    0.001591    0.001592    0.001590   -0.000151   -0.000016   -0.000040
   25.139150    0.001793    0.001794    0.001791   -0.000147   -0.000018   -0.000040
   25.674025    0.002456    0.002457    0.002455   -0.000143   -0.000019   -0.000039
   26.208901    0.014112    0.014113    0.014110   -0.000140   -0.000020   -0.000039
   26.743776    0.015675    0.015677    0.015674   -0.000138   -0.000021   -0.000038
   27.278652    0.012856    0.012857    0.012854   -0.000135   -0.000022   -0.000038
   27.813527    0.024420    0.024421    0.024418   -0.000134   -0.000023   -0.000038
   28.348403    0.056194    0.056196    0.056192   -0.000133   -0.000024   -0.000038
   28.883278    0.024960    0.024962    0.024958   -0.000132   -0.000025   -0.000038
   29.418154    0.019257    0.019258    0.019255   -0.000131   -0.000026   -0.000038
   29.953029    0.023529    0.023530    0.023527   -0.000131   -0.000027   -0.000038
   30.487905    0.033464    0.033465    0.033461   -0.000131   -0.000028   -0.000039
   31.022781    0.045890    0.045892    0.045888   -0.000132   -0.000029   -0.000039
   31.557656    0.015467    0.015469    0.015465   -0.000133   -0.000030   -0.000040
[...]
   45.464420    0.004915    0.004960    0.004738    0.000965   -0.000121    0.000141
   45.999295    0.002978    0.003002    0.002903    0.000620   -0.000058    0.000100
   46.534171    0.002049    0.002064    0.002008    0.000450   -0.000029    0.000078
   47.069046    0.001510    0.001520    0.001485    0.000349   -0.000014    0.000064
   47.603922    0.001164    0.001171    0.001147    0.000282   -0.000005    0.000054
   48.138797    0.000925    0.000931    0.000913    0.000235    0.000000    0.000047
   48.673673    0.000753    0.000757    0.000744    0.000201    0.000003    0.000041
   49.208548    0.000624    0.000628    0.000617    0.000174    0.000005    0.000037
   49.743424    0.000525    0.000528    0.000520    0.000153    0.000006    0.000033
   50.278300    0.000448    0.000450    0.000443    0.000136    0.000007    0.000030
   50.813175    0.000385    0.000387    0.000382    0.000122    0.000008    0.000027
   51.348051    0.000335    0.000336    0.000332    0.000110    0.000008    0.000025
   51.882926    0.000293    0.000294    0.000291    0.000100    0.000008    0.000023
   52.417802    0.000258    0.000260    0.000256    0.000092    0.000008    0.000021
   52.952677    0.000229    0.000230    0.000227    0.000084    0.000008    0.000020

  frequency dependent      REAL DIELECTRIC FUNCTION (independent particle, no local field effects) current-current (2nd set in vasprun.xml)
     E(ev)        X           Y           Z          XY          YZ          ZX
    0.000000    4.931949    4.932053    4.931926   -0.000179    0.000122   -0.000086
    0.534876    4.993059    4.993162    4.993035   -0.000179    0.000122   -0.000086
    1.069751    5.219368    5.219472    5.219345   -0.000180    0.000122   -0.000086
    1.604627    5.922931    5.923035    5.922908   -0.000181    0.000123   -0.000086
    2.139502    3.367042    3.367147    3.367019   -0.000182    0.000123   -0.000087
    2.674378    5.298848    5.298953    5.298825   -0.000184    0.000124   -0.000088
    3.209253    7.369663    7.369769    7.369641   -0.000187    0.000125   -0.000090
    3.744129    3.896068    3.896175    3.896047   -0.000190    0.000127   -0.000091
    4.279004    6.547308    6.547417    6.547288   -0.000194    0.000128   -0.000093
    4.813880    4.287904    4.288014    4.287884   -0.000198    0.000130   -0.000095
    5.348755    6.738668    6.738779    6.738649   -0.000203    0.000132   -0.000098
    5.883631    4.414980    4.415095    4.414963   -0.000210    0.000134   -0.000101
    6.418506    0.412807    0.412923    0.412790   -0.000216    0.000137   -0.000104
    6.953382    1.468509    1.468627    1.468493   -0.000225    0.000141   -0.000109
    7.488257    4.089431    4.089553    4.089417   -0.000234    0.000145   -0.000114
    8.023133    1.943691    1.943817    1.943678   -0.000246    0.000150   -0.000120
    8.558008   -0.824983   -0.824852   -0.824995   -0.000259    0.000156   -0.000127
    9.092884   -0.579402   -0.579265   -0.579413   -0.000275    0.000163   -0.000136
    9.627759   -1.604007   -1.603861   -1.604017   -0.000296    0.000172   -0.000147
   10.162635   -0.815118   -0.814962   -0.815130   -0.000320    0.000183   -0.000161
   10.697511   -2.986273   -2.986102   -2.986290   -0.000352    0.000198   -0.000180
   11.232386   -1.402051   -1.401854   -1.402081   -0.000396    0.000218   -0.000206
   11.767262   -0.611426   -0.611182   -0.611491   -0.000460    0.000247   -0.000247
   12.302137   -1.708827   -1.708441   -1.709018   -0.000582    0.000302   -0.000333
   12.837013   -1.229193   -1.229600   -1.228836   -0.000500    0.001269   -0.000263
   13.371888   -0.969398   -0.969377   -0.969883   -0.000964    0.001046   -0.000582
   13.906764   -0.734136   -0.734066   -0.731821    0.000520   -0.001577    0.000288
   14.441639   -0.490084   -0.489899   -0.488252   -0.000348   -0.000321   -0.000263
   14.976515   -0.329802   -0.329322   -0.326073   -0.000991   -0.000130   -0.000869
   15.511390   -0.233803   -0.234348   -0.238754    0.000017    0.000253    0.001466
   16.046266   -0.033763   -0.033935   -0.035769   -0.001228    0.000324    0.000359
   16.581141   -0.002058   -0.002232   -0.004519   -0.006973    0.001667   -0.000235
   17.116017    0.070755    0.070712    0.070629    0.002265   -0.000049    0.000154
   17.650892    0.170760    0.170758    0.170521    0.001124   -0.000073    0.000196
   18.185768    0.258093    0.258107    0.257849    0.000749   -0.000042    0.000163
   18.720643    0.325597    0.325621    0.325364    0.000562   -0.000020    0.000136
   19.255519    0.382176    0.382209    0.381956    0.000450   -0.000004    0.000115
   19.790394    0.431088    0.431127    0.430878    0.000374    0.000009    0.000100
   20.325270    0.474121    0.474166    0.473921    0.000320    0.000019    0.000087
   20.860146    0.512449    0.512500    0.512257    0.000279    0.000027    0.000077
   21.395021    0.546921    0.546975    0.546735    0.000247    0.000034    0.000068
   21.929897    0.578184    0.578243    0.578003    0.000221    0.000040    0.000061
   22.464772    0.606758    0.606820    0.606581    0.000200    0.000046    0.000055
   22.999648    0.633078    0.633144    0.632904    0.000183    0.000051    0.000049
   23.534523    0.657527    0.657596    0.657355    0.000168    0.000056    0.000045
   24.069399    0.680470    0.680543    0.680300    0.000155    0.000060    0.000040
   24.604274    0.702307    0.702383    0.702138    0.000144    0.000064    0.000037
   25.139150    0.723603    0.723683    0.723435    0.000135    0.000068    0.000033
   25.674025    0.745665    0.745748    0.745497    0.000126    0.000072    0.000030
   26.208901    0.775636    0.775722    0.775467    0.000119    0.000076    0.000027
   26.743776    0.788217    0.788307    0.788047    0.000112    0.000080    0.000025
   27.278652    0.798102    0.798195    0.797930    0.000106    0.000085    0.000022
   27.813527    0.822302    0.822399    0.822129    0.000101    0.000089    0.000020
   28.348403    0.786471    0.786571    0.786295    0.000096    0.000093    0.000018
   28.883278    0.828498    0.828603    0.828320    0.000092    0.000097    0.000015
   29.418154    0.851049    0.851157    0.850866    0.000088    0.000102    0.000013
   29.953029    0.849766    0.849879    0.849580    0.000084    0.000107    0.000011
   30.487905    0.812855    0.812973    0.812664    0.000081    0.000112    0.000009
   31.022781    0.849278    0.849401    0.849081    0.000078    0.000118    0.000006
   31.557656    0.888983    0.889111    0.888780    0.000075    0.000124    0.000003
[...]
   45.464420    0.771651    0.770879    0.773487    0.000016   -0.000943    0.000014
   45.999295    0.796945    0.796364    0.798137   -0.000007   -0.000668    0.000019
   46.534171    0.814584    0.814118    0.815460   -0.000009   -0.000520    0.000020
   47.069046    0.828050    0.827661    0.828739   -0.000007   -0.000426    0.000020
   47.603922    0.838891    0.838556    0.839457   -0.000005   -0.000362    0.000020
   48.138797    0.847932    0.847638    0.848411   -0.000003   -0.000314    0.000019
   48.673673    0.855666    0.855405    0.856080   -0.000001   -0.000277    0.000018
   49.208548    0.862411    0.862176    0.862775    0.000000   -0.000248    0.000017
   49.743424    0.868382    0.868169    0.868707    0.000002   -0.000225    0.000017
   50.278300    0.873732    0.873537    0.874025    0.000003   -0.000205    0.000016
   50.813175    0.878573    0.878393    0.878839    0.000003   -0.000189    0.000015
   51.348051    0.882990    0.882824    0.883234    0.000004   -0.000175    0.000015
   51.882926    0.887048    0.886893    0.887272    0.000005   -0.000162    0.000014
   52.417802    0.890798    0.890653    0.891005    0.000005   -0.000152    0.000014
   52.952677    0.894281    0.894145    0.894474    0.000006   -0.000142    0.000013

 The outermost node in the dielectric function lies at epsilon=  16.6