 vasp.5.4.4.18Apr17-6-g9f103f2a35 (build Nov 03 2018 10:20:46) complex

 executed on             LinuxIFC date 2018.12.20  14:37:45

 INCAR:
 POTCAR:    PAW_PBE Rn_d_GW 14Apr2014

 POTCAR:    PAW_PBE Rn_d_GW 14Apr2014
   VRHFIN =Rn:

   TITEL  = PAW_PBE Rn_d_GW 14Apr2014
   POMASS =  220.170; ZVAL   =   18.000    mass and valenz
   ENMAX  =  268.495; ENMIN  =  201.371 eV

  PAW_PBE Rn_d_GW 14Apr2014             :

 POSCAR: Rn_FCC
  positions in direct lattice
  velocities in cartesian coordinates

 METAGGA = SCAN     LMAXTAU =  0    LMIXTAU =  F

 ion  position               nearest neighbor table
   1  0.000  0.000  0.000-

IMPORTANT INFORMATION: All symmetrisations will be switched off!
NOSYMM: (Re-)initialisation of all symmetry stuff for point group C_1.

 KPOINTS: k-points

Automatic generation of k-mesh.
Space group operators:
 irot       det(A)        alpha          n_x          n_y          n_z        tau_x        tau_y        tau_z
    1     1.000000     0.000000     1.000000     0.000000     0.000000     0.000000     0.000000     0.000000

 Subroutine IBZKPT returns following result:

 Found    216 irreducible k-points:

 Following reciprocal coordinates:
            Coordinates               Weight
  0.000000  0.000000  0.000000      1.000000
  0.166667  0.000000  0.000000      1.000000
  0.333333  0.000000  0.000000      1.000000
  0.500000  0.000000  0.000000      1.000000
 -0.333333 -0.000000 -0.000000      1.000000
 -0.166667 -0.000000 -0.000000      1.000000
  0.000000  0.166667 -0.000000      1.000000
  0.166667  0.166667  0.000000      1.000000
  0.333333  0.166667  0.000000      1.000000
  0.500000  0.166667  0.000000      1.000000
 -0.333333  0.166667 -0.000000      1.000000
 -0.166667  0.166667 -0.000000      1.000000
  0.000000  0.333333  0.000000      1.000000
  0.166667  0.333333  0.000000      1.000000
  0.333333  0.333333  0.000000      1.000000
  0.500000  0.333333  0.000000      1.000000
 -0.333333  0.333333 -0.000000      1.000000
 -0.166667  0.333333 -0.000000      1.000000
  0.000000  0.500000  0.000000      1.000000
  0.166667  0.500000  0.000000      1.000000
  0.333333  0.500000  0.000000      1.000000
  0.500000  0.500000  0.000000      1.000000
 -0.333333  0.500000 -0.000000      1.000000
 -0.166667  0.500000 -0.000000      1.000000
  0.000000 -0.333333  0.000000      1.000000
  0.166667 -0.333333  0.000000      1.000000
  0.333333 -0.333333  0.000000      1.000000
  0.500000 -0.333333  0.000000      1.000000
 -0.333333 -0.333333 -0.000000      1.000000
 -0.166667 -0.333333 -0.000000      1.000000
  0.000000 -0.166667  0.000000      1.000000
  0.166667 -0.166667  0.000000      1.000000
  0.333333 -0.166667  0.000000      1.000000
  0.500000 -0.166667  0.000000      1.000000
 -0.333333 -0.166667 -0.000000      1.000000
 -0.166667 -0.166667 -0.000000      1.000000
  0.000000 -0.000000  0.166667      1.000000
  0.166667  0.000000  0.166667      1.000000
  0.333333  0.000000  0.166667      1.000000
  0.500000  0.000000  0.166667      1.000000
 -0.333333 -0.000000  0.166667      1.000000
 -0.166667 -0.000000  0.166667      1.000000
  0.000000  0.166667  0.166667      1.000000
  0.166667  0.166667  0.166667      1.000000
  0.333333  0.166667  0.166667      1.000000
  0.500000  0.166667  0.166667      1.000000
 -0.333333  0.166667  0.166667      1.000000
 -0.166667  0.166667  0.166667      1.000000
  0.000000  0.333333  0.166667      1.000000
  0.166667  0.333333  0.166667      1.000000
  0.333333  0.333333  0.166667      1.000000
  0.500000  0.333333  0.166667      1.000000
 -0.333333  0.333333  0.166667      1.000000
 -0.166667  0.333333  0.166667      1.000000
  0.000000  0.500000  0.166667      1.000000
  0.166667  0.500000  0.166667      1.000000
  0.333333  0.500000  0.166667      1.000000
  0.500000  0.500000  0.166667      1.000000
 -0.333333  0.500000  0.166667      1.000000
 -0.166667  0.500000  0.166667      1.000000
[...]
  0.500000  0.500000 -0.166667      1.000000
 -0.333333  0.500000 -0.166667      1.000000
 -0.166667  0.500000 -0.166667      1.000000
 -0.000000 -0.333333 -0.166667      1.000000
  0.166667 -0.333333 -0.166667      1.000000
  0.333333 -0.333333 -0.166667      1.000000
  0.500000 -0.333333 -0.166667      1.000000
 -0.333333 -0.333333 -0.166667      1.000000
 -0.166667 -0.333333 -0.166667      1.000000
 -0.000000 -0.166667 -0.166667      1.000000
  0.166667 -0.166667 -0.166667      1.000000
  0.333333 -0.166667 -0.166667      1.000000
  0.500000 -0.166667 -0.166667      1.000000
 -0.333333 -0.166667 -0.166667      1.000000
 -0.166667 -0.166667 -0.166667      1.000000

 Following cartesian coordinates:
            Coordinates               Weight
  0.000000  0.000000  0.000000      1.000000
  0.036869 -0.021286 -0.015052      1.000000
  0.073737 -0.042572 -0.030103      1.000000
  0.110606 -0.063858 -0.045155      1.000000
 -0.073737  0.042572  0.030103      1.000000
 -0.036869  0.021286  0.015052      1.000000
  0.000000  0.042572 -0.015052      1.000000
  0.036869  0.021286 -0.030103      1.000000
  0.073737  0.000000 -0.045155      1.000000
  0.110606 -0.021286 -0.060206      1.000000
 -0.073737  0.085144  0.015052      1.000000
 -0.036869  0.063858  0.000000      1.000000
  0.000000  0.085144 -0.030103      1.000000
  0.036869  0.063858 -0.045155      1.000000
  0.073737  0.042572 -0.060206      1.000000
  0.110606  0.021286 -0.075258      1.000000
 -0.073737  0.127716  0.000000      1.000000
 -0.036869  0.106430 -0.015052      1.000000
  0.000000  0.127716 -0.045155      1.000000
  0.036869  0.106430 -0.060206      1.000000
  0.073737  0.085144 -0.075258      1.000000
  0.110606  0.063858 -0.090309      1.000000
 -0.073737  0.170289 -0.015052      1.000000
 -0.036869  0.149002 -0.030103      1.000000
 -0.000000 -0.085144  0.030103      1.000000
  0.036869 -0.106430  0.015052      1.000000
  0.073737 -0.127716 -0.000000      1.000000
  0.110606 -0.149002 -0.015052      1.000000
 -0.073737 -0.042572  0.060206      1.000000
 -0.036869 -0.063858  0.045155      1.000000
 -0.000000 -0.042572  0.015052      1.000000
  0.036869 -0.063858 -0.000000      1.000000
  0.073737 -0.085144 -0.015052      1.000000
  0.110606 -0.106430 -0.030103      1.000000
 -0.073737 -0.000000  0.045155      1.000000
 -0.036869 -0.021286  0.030103      1.000000
 -0.000000  0.000000  0.045155      1.000000
  0.036869 -0.021286  0.030103      1.000000
  0.073737 -0.042572  0.015052      1.000000
  0.110606 -0.063858 -0.000000      1.000000
 -0.073737  0.042572  0.075258      1.000000
 -0.036869  0.021286  0.060206      1.000000
 -0.000000  0.042572  0.030103      1.000000
  0.036869  0.021286  0.015052      1.000000
  0.073737  0.000000  0.000000      1.000000
  0.110606 -0.021286 -0.015052      1.000000
 -0.073737  0.085144  0.060206      1.000000
 -0.036869  0.063858  0.045155      1.000000
 -0.000000  0.085144  0.015052      1.000000
  0.036869  0.063858  0.000000      1.000000
  0.073737  0.042572 -0.015052      1.000000
  0.110606  0.021286 -0.030103      1.000000
 -0.073737  0.127716  0.045155      1.000000
 -0.036869  0.106430  0.030103      1.000000
 -0.000000  0.127716  0.000000      1.000000
  0.036869  0.106430 -0.015052      1.000000
  0.073737  0.085144 -0.030103      1.000000
  0.110606  0.063858 -0.045155      1.000000
 -0.073737  0.170289  0.030103      1.000000
 -0.036869  0.149002  0.015052      1.000000
[...]
  0.110606  0.063858 -0.135464      1.000000
 -0.073737  0.170289 -0.060206      1.000000
 -0.036869  0.149002 -0.075258      1.000000
  0.000000 -0.085144 -0.015052      1.000000
  0.036869 -0.106430 -0.030103      1.000000
  0.073737 -0.127716 -0.045155      1.000000
  0.110606 -0.149002 -0.060206      1.000000
 -0.073737 -0.042572  0.015052      1.000000
 -0.036869 -0.063858 -0.000000      1.000000
  0.000000 -0.042572 -0.030103      1.000000
  0.036869 -0.063858 -0.045155      1.000000
  0.073737 -0.085144 -0.060206      1.000000
  0.110606 -0.106430 -0.075258      1.000000
 -0.073737 -0.000000 -0.000000      1.000000
 -0.036869 -0.021286 -0.015052      1.000000

 SYSTEM =  Og_FCC
 POSCAR =  Rn_FCC

 Startparameter for this run:
   NWRITE =      2    write-flag & timer
   PREC   = accura    normal or accurate (medium, high low for compatibility)
   ISTART =      0    job   : 0-new  1-cont  2-samecut
   ICHARG =      2    charge: 1-file 2-atom 10-const
   ISPIN  =      1    spin polarized calculation?
   LNONCOLLINEAR =      T non collinear calculations
   LSORBIT =      T    spin-orbit coupling
   INIWAV =      1    electr: 0-lowe 1-rand  2-diag
   LASPH  =      F    aspherical Exc in radial PAW
   METAGGA=      F    non-selfconsistent MetaGGA calc.

 Electronic Relaxation 1
   ENCUT  =  300.0 eV  22.05 Ry    4.70 a.u.   6.23  6.23  6.23*2*pi/ulx,y,z
   ENINI  =  300.0     initial cutoff
   ENAUG  =  715.6 eV  augmentation charge cutoff
   NELM   =     50;   NELMIN=  2; NELMDL= -5     # of ELM steps
   EDIFF  = 0.1E-07   stopping-criterion for ELM
   LREAL  =      F    real-space projection
   NLSPLINE    = F    spline interpolate recip. space projectors
   LCOMPAT=      F    compatible to vasp.4.4
   GGA_COMPAT  = F    GGA compatible to vasp.4.4-vasp.4.6
   LMAXPAW     = -100 max onsite density
   LMAXMIX     =    2 max onsite mixed and CHGCAR
   VOSKOWN=      0    Vosko Wilk Nusair interpolation
   ROPT   =    0.00000
 Ionic relaxation
   EDIFFG = 0.1E-04   stopping-criterion for IOM
   NSW    =      1    number of steps for IOM
   NBLOCK =      1;   KBLOCK =      1    inner block; outer block
   IBRION =     -1    ionic relax: 0-MD 1-quasi-New 2-CG
   NFREE  =      5    steps in history (QN), initial steepest desc. (CG)
   ISIF   =      3    stress and relaxation
   IWAVPR =     10    prediction:  0-non 1-charg 2-wave 3-comb
   ISYM   =      0    0-nonsym 1-usesym 2-fastsym
   LCORR  =      T    Harris-Foulkes like correction to forces

   POTIM  = 0.1000    time-step for ionic-motion
   TEIN   =    0.0    initial temperature
   TEBEG  =    0.0;   TEEND  =   0.0 temperature during run
   SMASS  =  -3.00    Nose mass-parameter (am)
   estimated Nose-frequenzy (Omega)   =  0.10E-29 period in steps =****** mass=  -0.445E-27a.u.
   SCALEE = 1.0000    scale energy and forces
   NPACO  =    256;   APACO  = 16.0  distance and # of slots for P.C.
   PSTRESS=    0.0 pullay stress

  Mass of Ions in am
   POMASS = 220.17
  Ionic Valenz
   ZVAL   =  18.00
  Atomic Wigner-Seitz radii
  virtual crystal weights
   VCA    =   1.00
   NELECT =      18.0000    total number of electrons
   NUPDOWN=      -1.0000    fix difference up-down

 DOS related values:
   EMIN   =  10.00;   EMAX   =-10.00  energy-range for DOS
   EFERMI =   0.00
   ISMEAR =     0;   SIGMA  =   0.00  broadening in eV -4-tet -1-fermi 0-gaus

 Electronic relaxation 2 (details)
   IALGO  =     38    algorithm
   LDIAG  =      T    sub-space diagonalisation (order eigenvalues)
   LSUBROT=      F    optimize rotation matrix (better conditioning)
   TURBO    =      0    0=normal 1=particle mesh
   IRESTART =      0    0=no restart 2=restart with 2 vectors
   NREBOOT  =      0    no. of reboots
   NMIN     =      0    reboot dimension
[...]
   33.720016    0.871743    0.871802    0.871787   -0.000021    0.000024   -0.000002
   34.408179    0.877971    0.878028    0.878013   -0.000020    0.000023   -0.000002
   35.096343    0.883786    0.883840    0.883826   -0.000019    0.000022   -0.000002
   35.784506    0.889236    0.889288    0.889274   -0.000019    0.000021   -0.000002
   36.472670    0.894366    0.894415    0.894402   -0.000018    0.000020   -0.000002
   37.160834    0.899213    0.899261    0.899248   -0.000017    0.000020   -0.000002
   37.848997    0.903813    0.903859    0.903847   -0.000017    0.000019   -0.000002
   38.537161    0.908200    0.908244    0.908232   -0.000016    0.000018   -0.000002
   39.225324    0.912408    0.912450    0.912438   -0.000015    0.000018   -0.000002
   39.913488    0.916471    0.916512    0.916501   -0.000015    0.000017   -0.000002
   40.601652    0.920433    0.920472    0.920462   -0.000014    0.000017   -0.000002
[...]
   58.493905    0.948801    0.948822    0.948819   -0.000008    0.000008   -0.000002
   59.182068    0.951233    0.951253    0.951249   -0.000008    0.000008   -0.000002
   59.870232    0.953197    0.953217    0.953212   -0.000007    0.000008   -0.000002
   60.558396    0.954890    0.954909    0.954904   -0.000007    0.000007   -0.000002
   61.246559    0.956397    0.956415    0.956411   -0.000007    0.000007   -0.000002
   61.934723    0.957766    0.957784    0.957779   -0.000006    0.000007   -0.000002
   62.622886    0.959027    0.959044    0.959039   -0.000006    0.000007   -0.000002
   63.311050    0.960198    0.960215    0.960210   -0.000006    0.000006   -0.000002
   63.999213    0.961295    0.961311    0.961306   -0.000006    0.000006   -0.000001
   64.687377    0.962327    0.962342    0.962338   -0.000006    0.000006   -0.000001
   65.375541    0.963302    0.963317    0.963313   -0.000006    0.000006   -0.000001
   66.063704    0.964227    0.964242    0.964238   -0.000005    0.000006   -0.000001
   66.751868    0.965107    0.965122    0.965117   -0.000005    0.000006   -0.000001
   67.440031    0.965946    0.965961    0.965956   -0.000005    0.000006   -0.000001
   68.128195    0.966748    0.966762    0.966758   -0.000005    0.000005   -0.000001

  frequency dependent IMAGINARY DIELECTRIC FUNCTION (independent particle, no local field effects) current-current (2nd set in vasprun.xml)
     E(ev)      X         Y         Z        XY        YZ        ZX
    0.000000    4.370919    4.369849    4.371126   -0.041893   -0.028513   -0.048203
    0.688164    0.443141    0.443034    0.443164   -0.004135   -0.002784   -0.004767
    1.376327    0.231262    0.231209    0.231276   -0.001967   -0.001271   -0.002285
    2.064491    0.166313    0.166278    0.166326   -0.001146   -0.000663   -0.001361
    2.752654    0.140403    0.140379    0.140418   -0.000546   -0.000177   -0.000716
    3.440818    0.135661    0.135645    0.135680    0.000336    0.000573    0.000171
    4.128982    0.187023    0.187032    0.187059    0.004756    0.004052    0.004345
    4.817145    0.218311    0.218385    0.218384    0.007733    0.007044    0.007369
    5.505309    0.896105    0.897901    0.896512    0.002619    0.006925    0.004714
    6.193472    0.966889    0.958104    0.958679    0.021870    0.021681    0.017483
    6.881636    1.647064    1.650876    1.668912    0.056767    0.056226    0.053864
    7.569799    4.599904    4.554360    4.546899    0.027092   -0.046726   -0.006730
    8.257963    2.399371    2.384082    2.396187   -0.043909   -0.051426   -0.038060
    8.946127    4.484016    4.476020    4.491631    0.081386    0.042008    0.048217
    9.634290    3.050846    3.042211    3.023313    0.004072    0.012893    0.005386
   10.322454    2.200592    2.189166    2.186970   -0.004560   -0.015571   -0.007986
   11.010617    2.726388    2.702129    2.717314    0.068720    0.028630    0.049951
   11.698781    1.952503    1.936299    1.950629    0.003516   -0.007929   -0.001862
   12.386945    1.217896    1.216700    1.217012   -0.003418   -0.002656    0.000909
   13.075108    0.927011    0.923667    0.927336    0.002913   -0.003100    0.003574
   13.763272    1.092097    1.090028    1.076485    0.004514    0.000859    0.000515
   14.451435    0.758958    0.753958    0.756666    0.003448    0.001595    0.002965
   15.139599    0.316221    0.323921    0.318021    0.003600    0.008791    0.005077
   15.827762    0.154908    0.154765    0.154497    0.004927    0.002529    0.003386
   16.515926    0.415188    0.414204    0.414615    0.000429   -0.001448   -0.000910
   17.204090    0.059437    0.059425    0.059187   -0.000044    0.000128    0.000076
   17.892253    0.012881    0.012878    0.012855    0.000009   -0.000019   -0.000017
   18.580417    0.007784    0.007778    0.007767   -0.000024   -0.000046   -0.000024
   19.268580    0.004390    0.004388    0.004383    0.000065    0.000034    0.000064
   19.956744    0.003193    0.003191    0.003188    0.000039    0.000017    0.000042
   20.644908    0.002541    0.002540    0.002538    0.000004   -0.000008    0.000009
   21.333071    0.002469    0.002469    0.002468   -0.000072   -0.000064   -0.000062
   22.021235    0.007211    0.007210    0.007208    0.000363    0.000257    0.000350
   22.709398    0.016068    0.016074    0.016086    0.000593    0.000427    0.000567
   23.397562    0.014428    0.014411    0.014471   -0.000188   -0.000122   -0.000140
   24.085725    0.008481    0.008376    0.008435   -0.000082   -0.000234   -0.000089
   24.773889    0.016081    0.016078    0.016173    0.000419    0.000377    0.000436
   25.462053    0.010592    0.010552    0.010553   -0.000738   -0.000616   -0.000693
   26.150216    0.020614    0.020626    0.020668    0.000232    0.000213    0.000199
   26.838380    0.011116    0.011134    0.011123    0.000616    0.000456    0.000563
   27.526543    0.005167    0.005214    0.005205   -0.000088   -0.000012   -0.000076
   28.214707    0.007417    0.007383    0.007464   -0.000003   -0.000002    0.000038
   28.902871    0.003091    0.003102    0.003103   -0.000154   -0.000104   -0.000139
   29.591034    0.001375    0.001375    0.001376   -0.000120   -0.000101   -0.000105
   30.279198    0.001953    0.001965    0.001940    0.000033    0.000085    0.000044
   30.967361    0.000352    0.000352    0.000352    0.000006    0.000005    0.000009
   31.655525    0.000261    0.000261    0.000261    0.000015    0.000012    0.000017
   32.343689    0.000221    0.000221    0.000221    0.000016    0.000013    0.000018
   33.031852    0.000195    0.000195    0.000195    0.000017    0.000014    0.000019
   33.720016    0.000177    0.000177    0.000177    0.000016    0.000013    0.000018
   34.408179    0.000164    0.000164    0.000164    0.000016    0.000013    0.000018
   35.096343    0.000155    0.000155    0.000155    0.000016    0.000013    0.000017
   35.784506    0.000149    0.000149    0.000149    0.000015    0.000012    0.000017
   36.472670    0.000145    0.000145    0.000145    0.000015    0.000012    0.000017
   37.160834    0.000143    0.000143    0.000143    0.000015    0.000012    0.000016
   37.848997    0.000144    0.000144    0.000144    0.000015    0.000012    0.000016
   38.537161    0.000147    0.000147    0.000147    0.000015    0.000012    0.000016
   39.225324    0.000153    0.000153    0.000153    0.000016    0.000012    0.000017
   39.913488    0.000164    0.000164    0.000164    0.000016    0.000012    0.000017
   40.601652    0.000179    0.000179    0.000179    0.000017    0.000013    0.000018
[...]
   58.493905    0.000233    0.000233    0.000233    0.000006   -0.000000    0.000004
   59.182068    0.000148    0.000148    0.000148    0.000003   -0.000000    0.000002
   59.870232    0.000107    0.000107    0.000107    0.000002   -0.000000    0.000001
   60.558396    0.000082    0.000082    0.000082    0.000002    0.000000    0.000001
   61.246559    0.000066    0.000066    0.000066    0.000002    0.000000    0.000001
   61.934723    0.000054    0.000054    0.000054    0.000001    0.000000    0.000001
   62.622886    0.000045    0.000045    0.000045    0.000001    0.000000    0.000001
   63.311050    0.000039    0.000039    0.000039    0.000001    0.000000    0.000001
   63.999213    0.000033    0.000033    0.000033    0.000001    0.000000    0.000001
   64.687377    0.000029    0.000029    0.000029    0.000001    0.000000    0.000001
   65.375541    0.000026    0.000026    0.000026    0.000001    0.000000    0.000001
   66.063704    0.000023    0.000023    0.000023    0.000001    0.000000    0.000001
   66.751868    0.000020    0.000020    0.000020    0.000001    0.000000    0.000001
   67.440031    0.000018    0.000018    0.000018    0.000001    0.000000    0.000001
   68.128195    0.000016    0.000016    0.000016    0.000001    0.000000    0.000001

  frequency dependent      REAL DIELECTRIC FUNCTION (independent particle, no local field effects) current-current (2nd set in vasprun.xml)
     E(ev)        X           Y           Z          XY          YZ          ZX
    0.000000    2.502974    2.502605    2.503044    0.000212   -0.000163    0.000199
    0.688164    2.513314    2.512945    2.513387    0.000212   -0.000165    0.000199
    1.376327    2.545823    2.545455    2.545906    0.000208   -0.000170    0.000200
    2.064491    2.604412    2.604045    2.604512    0.000197   -0.000183    0.000198
    2.752654    2.697933    2.697573    2.698062    0.000162   -0.000214    0.000180
    3.440818    2.847380    2.847038    2.847557    0.000012   -0.000332    0.000067
    4.128982    3.142467    3.142189    3.142736   -0.003125   -0.002659   -0.002785
    4.817145    3.303353    3.303286    3.303791   -0.000343   -0.000686   -0.000090
    5.505309    3.191234    3.190456    3.189725    0.056827    0.041402    0.055753
    6.193472    4.176334    4.175708    4.177070   -0.006128   -0.008322   -0.005106
    6.881636    4.685081    4.691151    4.696808   -0.047990   -0.045363   -0.041077
    7.569799    2.103503    2.035695    2.025033    0.161531    0.148172    0.146344
    8.257963    2.982096    2.972687    2.988344    0.035883    0.028086    0.031992
    8.946127    0.904192    0.914556    0.912788   -0.092920   -0.049351   -0.088804
    9.634290    0.550233    0.579201    0.581612   -0.001602   -0.003930   -0.015320
   10.322454    0.836663    0.844688    0.844236    0.023732    0.016243    0.023270
   11.010617   -0.925253   -0.963257   -0.936323   -0.039044   -0.055763   -0.045320
   11.698781   -0.461391   -0.448601   -0.460904    0.002767    0.006671    0.001752
   12.386945    0.565357    0.560616    0.556383   -0.023629   -0.012862   -0.021105
   13.075108   -0.785317   -0.784615   -0.788902   -0.004343    0.001772   -0.002624
   13.763272    0.018741    0.018308    0.016157   -0.038356   -0.018429   -0.035329
   14.451435   -0.321775   -0.321490   -0.324668    0.004112    0.003894    0.003377
   15.139599   -0.383034   -0.383510   -0.388193    0.005200    0.002794    0.005100
   15.827762   -0.030177   -0.028896   -0.025338   -0.002024   -0.001815   -0.001079
   16.515926    0.088475    0.089994    0.089946    0.005199    0.003967    0.005069
   17.204090    0.065077    0.065489    0.066076    0.001653    0.001496    0.001614
   17.892253    0.264789    0.265137    0.265357   -0.000192    0.000037   -0.000072
   18.580417    0.373984    0.374291    0.374397   -0.000304   -0.000062   -0.000184
   19.268580    0.454320    0.454588    0.454639   -0.000093    0.000096    0.000000
   19.956744    0.516026    0.516265    0.516285   -0.000085    0.000089   -0.000004
   20.644908    0.566553    0.566768    0.566770   -0.000077    0.000083   -0.000006
   21.333071    0.610131    0.610327    0.610319   -0.000048    0.000095    0.000013
   22.021235    0.645967    0.646146    0.646132    0.000284    0.000337    0.000321
   22.709398    0.680221    0.680382    0.680373    0.000903    0.000789    0.000899
   23.397562    0.696050    0.696150    0.696225    0.000642    0.000571    0.000660
   24.085725    0.723487    0.723810    0.723722    0.000144    0.000308    0.000238
   24.773889    0.728082    0.728196    0.728143    0.000125    0.000101    0.000114
   25.462053    0.763432    0.763532    0.763495    0.000550    0.000482    0.000551
   26.150216    0.758075    0.758194    0.758161   -0.000302   -0.000153   -0.000208
   26.838380    0.772402    0.772443    0.772418   -0.000158   -0.000077   -0.000127
   27.526543    0.785899    0.785994    0.785962   -0.000348   -0.000185   -0.000307
   28.214707    0.798284    0.798292    0.798350   -0.000108   -0.000074   -0.000095
   28.902871    0.811134    0.811219    0.811191   -0.000122   -0.000021   -0.000091
   29.591034    0.820963    0.821042    0.821015   -0.000075    0.000016   -0.000057
   30.279198    0.830319    0.830421    0.830353   -0.000274   -0.000180   -0.000244
   30.967361    0.841015    0.841084    0.841062   -0.000034    0.000026   -0.000012
   31.655525    0.849856    0.849922    0.849901   -0.000030    0.000026   -0.000010
   32.343689    0.857786    0.857850    0.857829   -0.000029    0.000025   -0.000010
   33.031852    0.865045    0.865105    0.865084   -0.000027    0.000024   -0.000009
   33.720016    0.871748    0.871806    0.871786   -0.000026    0.000023   -0.000009
   34.408179    0.877977    0.878032    0.878013   -0.000025    0.000022   -0.000009
   35.096343    0.883791    0.883844    0.883825   -0.000024    0.000021   -0.000008
   35.784506    0.889241    0.889292    0.889274   -0.000023    0.000021   -0.000008
   36.472670    0.894371    0.894419    0.894402   -0.000022    0.000020   -0.000008
   37.160834    0.899218    0.899264    0.899248   -0.000021    0.000019   -0.000007
   37.848997    0.903818    0.903863    0.903847   -0.000020    0.000018   -0.000007
   38.537161    0.908205    0.908248    0.908232   -0.000020    0.000018   -0.000007
   39.225324    0.912412    0.912454    0.912439   -0.000019    0.000017   -0.000007
   39.913488    0.916476    0.916516    0.916501   -0.000018    0.000017   -0.000007
   40.601652    0.920438    0.920476    0.920462   -0.000018    0.000016   -0.000006
[...]
   58.493905    0.948802    0.948822    0.948817   -0.000010    0.000008   -0.000004
   59.182068    0.951234    0.951254    0.951247   -0.000009    0.000008   -0.000004
   59.870232    0.953199    0.953218    0.953211   -0.000009    0.000007   -0.000004
   60.558396    0.954892    0.954910    0.954903   -0.000008    0.000007   -0.000004
   61.246559    0.956399    0.956416    0.956410   -0.000008    0.000007   -0.000004
   61.934723    0.957768    0.957785    0.957779   -0.000008    0.000006   -0.000003
   62.622886    0.959029    0.959045    0.959039   -0.000008    0.000006   -0.000003
   63.311050    0.960200    0.960216    0.960210   -0.000007    0.000006   -0.000003
   63.999213    0.961297    0.961312    0.961306   -0.000007    0.000006   -0.000003
   64.687377    0.962329    0.962344    0.962338   -0.000007    0.000006   -0.000003
   65.375541    0.963304    0.963319    0.963313   -0.000007    0.000006   -0.000003
   66.063704    0.964229    0.964243    0.964238   -0.000007    0.000005   -0.000003
   66.751868    0.965109    0.965123    0.965117   -0.000006    0.000005   -0.000003
   67.440031    0.965948    0.965962    0.965957   -0.000006    0.000005   -0.000003
   68.128195    0.966750    0.966764    0.966758   -0.000006    0.000005   -0.000003

 The outermost node in the dielectric function lies at epsilon=  16.8

 Spin-Orbit-Coupling matrix elements

 Ion:    1  E_soc:     -3.6547450
 l=   1
     0.0000000    -0.4884199    -0.4884161
    -0.4884199     0.0000000    -0.4884175
    -0.4884161    -0.4884175     0.0000000
 l=   2
     0.0000000    -0.0241410     0.0000000    -0.0241413    -0.0965645
    -0.0241410     0.0000000    -0.0724242    -0.0241407    -0.0241409
     0.0000000    -0.0724242     0.0000000    -0.0724232     0.0000000
    -0.0241413    -0.0241407    -0.0724232     0.0000000    -0.0241412
    -0.0965645    -0.0241409     0.0000000    -0.0241412     0.0000000
 l=   3
     0.0000000    -0.0000000     0.0000000     0.0000000     0.0000000    -0.0000000    -0.0000005
    -0.0000000     0.0000000    -0.0000001     0.0000000    -0.0000001    -0.0000001    -0.0000001
     0.0000000    -0.0000001     0.0000000    -0.0000002    -0.0000001    -0.0000001     0.0000000
     0.0000000     0.0000000    -0.0000002     0.0000000    -0.0000002     0.0000000     0.0000000
     0.0000000    -0.0000001    -0.0000001    -0.0000002     0.0000000    -0.0000001     0.0000000
    -0.0000000    -0.0000001    -0.0000001     0.0000000    -0.0000001     0.0000000    -0.0000001
    -0.0000005    -0.0000001     0.0000000     0.0000000     0.0000000    -0.0000001     0.0000000