 vasp.5.4.4.18Apr17-6-g9f103f2a35 (build Nov 03 2018 10:20:46) complex

 executed on             LinuxIFC date 2018.12.20  14:47:18

 INCAR:
 POTCAR:    PAW_PBE Ne_GW 22Sep2014

 POTCAR:    PAW_PBE Ne_GW 22Sep2014
   VRHFIN =Ne: s2p6

   TITEL  = PAW_PBE Ne_GW 22Sep2014
   POMASS =   20.180; ZVAL   =    8.000    mass and valenz
   ENMAX  =  432.275; ENMIN  =  324.206 eV

  PAW_PBE Ne_GW 22Sep2014               :

 POSCAR: Ne_FCC
  positions in direct lattice
  velocities in cartesian coordinates

 METAGGA = SCAN     LMAXTAU =  0    LMIXTAU =  F

 ion  position               nearest neighbor table
   1  0.000  0.000  0.000-

IMPORTANT INFORMATION: All symmetrisations will be switched off!
NOSYMM: (Re-)initialisation of all symmetry stuff for point group C_1.

 KPOINTS: k-points

Automatic generation of k-mesh.
Space group operators:
 irot       det(A)        alpha          n_x          n_y          n_z        tau_x        tau_y        tau_z
    1     1.000000     0.000000     1.000000     0.000000     0.000000     0.000000     0.000000     0.000000

 Subroutine IBZKPT returns following result:

 Found    216 irreducible k-points:

 Following reciprocal coordinates:
            Coordinates               Weight
  0.000000  0.000000  0.000000      1.000000
  0.166667 -0.000000 -0.000000      1.000000
  0.333333  0.000000 -0.000000      1.000000
  0.500000  0.000000 -0.000000      1.000000
 -0.333333  0.000000  0.000000      1.000000
 -0.166667  0.000000  0.000000      1.000000
  0.000000  0.166667  0.000000      1.000000
  0.166667  0.166667 -0.000000      1.000000
  0.333333  0.166667 -0.000000      1.000000
  0.500000  0.166667  0.000000      1.000000
 -0.333333  0.166667  0.000000      1.000000
 -0.166667  0.166667  0.000000      1.000000
  0.000000  0.333333 -0.000000      1.000000
  0.166667  0.333333  0.000000      1.000000
  0.333333  0.333333  0.000000      1.000000
  0.500000  0.333333  0.000000      1.000000
 -0.333333  0.333333  0.000000      1.000000
 -0.166667  0.333333 -0.000000      1.000000
  0.000000  0.500000 -0.000000      1.000000
  0.166667  0.500000 -0.000000      1.000000
  0.333333  0.500000 -0.000000      1.000000
  0.500000  0.500000 -0.000000      1.000000
 -0.333333  0.500000 -0.000000      1.000000
 -0.166667  0.500000  0.000000      1.000000
  0.000000 -0.333333  0.000000      1.000000
  0.166667 -0.333333  0.000000      1.000000
  0.333333 -0.333333 -0.000000      1.000000
  0.500000 -0.333333 -0.000000      1.000000
 -0.333333 -0.333333  0.000000      1.000000
 -0.166667 -0.333333 -0.000000      1.000000
  0.000000 -0.166667 -0.000000      1.000000
  0.166667 -0.166667 -0.000000      1.000000
  0.333333 -0.166667 -0.000000      1.000000
  0.500000 -0.166667  0.000000      1.000000
 -0.333333 -0.166667  0.000000      1.000000
 -0.166667 -0.166667  0.000000      1.000000
  0.000000  0.000000  0.166667      1.000000
  0.166667 -0.000000  0.166667      1.000000
  0.333333  0.000000  0.166667      1.000000
  0.500000  0.000000  0.166667      1.000000
 -0.333333  0.000000  0.166667      1.000000
 -0.166667  0.000000  0.166667      1.000000
  0.000000  0.166667  0.166667      1.000000
  0.166667  0.166667  0.166667      1.000000
  0.333333  0.166667  0.166667      1.000000
  0.500000  0.166667  0.166667      1.000000
 -0.333333  0.166667  0.166667      1.000000
 -0.166667  0.166667  0.166667      1.000000
  0.000000  0.333333  0.166667      1.000000
  0.166667  0.333333  0.166667      1.000000
  0.333333  0.333333  0.166667      1.000000
  0.500000  0.333333  0.166667      1.000000
 -0.333333  0.333333  0.166667      1.000000
 -0.166667  0.333333  0.166667      1.000000
  0.000000  0.500000  0.166667      1.000000
  0.166667  0.500000  0.166667      1.000000
  0.333333  0.500000  0.166667      1.000000
  0.500000  0.500000  0.166667      1.000000
 -0.333333  0.500000  0.166667      1.000000
 -0.166667  0.500000  0.166667      1.000000
[...]
  0.500000  0.500000 -0.166667      1.000000
 -0.333333  0.500000 -0.166667      1.000000
 -0.166667  0.500000 -0.166667      1.000000
  0.000000 -0.333333 -0.166667      1.000000
  0.166667 -0.333333 -0.166667      1.000000
  0.333333 -0.333333 -0.166667      1.000000
  0.500000 -0.333333 -0.166667      1.000000
 -0.333333 -0.333333 -0.166667      1.000000
 -0.166667 -0.333333 -0.166667      1.000000
  0.000000 -0.166667 -0.166667      1.000000
  0.166667 -0.166667 -0.166667      1.000000
  0.333333 -0.166667 -0.166667      1.000000
  0.500000 -0.166667 -0.166667      1.000000
 -0.333333 -0.166667 -0.166667      1.000000
 -0.166667 -0.166667 -0.166667      1.000000

 Following cartesian coordinates:
            Coordinates               Weight
  0.000000  0.000000  0.000000      1.000000
  0.056037 -0.032353 -0.022877      1.000000
  0.112074 -0.064706 -0.045754      1.000000
  0.168111 -0.097059 -0.068631      1.000000
 -0.112074  0.064706  0.045754      1.000000
 -0.056037  0.032353  0.022877      1.000000
  0.000000  0.064706 -0.022877      1.000000
  0.056037  0.032353 -0.045754      1.000000
  0.112074  0.000000 -0.068631      1.000000
  0.168111 -0.032353 -0.091508      1.000000
 -0.112074  0.129412  0.022877      1.000000
 -0.056037  0.097059  0.000000      1.000000
  0.000000  0.129412 -0.045754      1.000000
  0.056037  0.097059 -0.068631      1.000000
  0.112074  0.064706 -0.091508      1.000000
  0.168111  0.032353 -0.114385      1.000000
 -0.112074  0.194118  0.000000      1.000000
 -0.056037  0.161765 -0.022877      1.000000
  0.000000  0.194118 -0.068631      1.000000
  0.056037  0.161765 -0.091508      1.000000
  0.112074  0.129412 -0.114385      1.000000
  0.168111  0.097059 -0.137262      1.000000
 -0.112074  0.258824 -0.022877      1.000000
 -0.056037  0.226471 -0.045754      1.000000
  0.000000 -0.129412  0.045754      1.000000
  0.056037 -0.161765  0.022877      1.000000
  0.112074 -0.194118 -0.000000      1.000000
  0.168111 -0.226471 -0.022877      1.000000
 -0.112074 -0.064706  0.091508      1.000000
 -0.056037 -0.097059  0.068631      1.000000
  0.000000 -0.064706  0.022877      1.000000
  0.056037 -0.097059 -0.000000      1.000000
  0.112074 -0.129412 -0.022877      1.000000
  0.168111 -0.161765 -0.045754      1.000000
 -0.112074 -0.000000  0.068631      1.000000
 -0.056037 -0.032353  0.045754      1.000000
  0.000000  0.000000  0.068631      1.000000
  0.056037 -0.032353  0.045754      1.000000
  0.112074 -0.064706  0.022877      1.000000
  0.168111 -0.097059 -0.000000      1.000000
 -0.112074  0.064706  0.114385      1.000000
 -0.056037  0.032353  0.091508      1.000000
  0.000000  0.064706  0.045754      1.000000
  0.056037  0.032353  0.022877      1.000000
  0.112074  0.000000  0.000000      1.000000
  0.168111 -0.032353 -0.022877      1.000000
 -0.112074  0.129412  0.091508      1.000000
 -0.056037  0.097059  0.068631      1.000000
  0.000000  0.129412  0.022877      1.000000
  0.056037  0.097059  0.000000      1.000000
  0.112074  0.064706 -0.022877      1.000000
  0.168111  0.032353 -0.045754      1.000000
 -0.112074  0.194118  0.068631      1.000000
 -0.056037  0.161765  0.045754      1.000000
  0.000000  0.194118  0.000000      1.000000
  0.056037  0.161765 -0.022877      1.000000
  0.112074  0.129412 -0.045754      1.000000
  0.168111  0.097059 -0.068631      1.000000
 -0.112074  0.258824  0.045754      1.000000
 -0.056037  0.226471  0.022877      1.000000
[...]
  0.168111  0.097059 -0.205893      1.000000
 -0.112074  0.258824 -0.091508      1.000000
 -0.056037  0.226471 -0.114385      1.000000
  0.000000 -0.129412 -0.022877      1.000000
  0.056037 -0.161765 -0.045754      1.000000
  0.112074 -0.194118 -0.068631      1.000000
  0.168111 -0.226471 -0.091508      1.000000
 -0.112074 -0.064706  0.022877      1.000000
 -0.056037 -0.097059 -0.000000      1.000000
  0.000000 -0.064706 -0.045754      1.000000
  0.056037 -0.097059 -0.068631      1.000000
  0.112074 -0.129412 -0.091508      1.000000
  0.168111 -0.161765 -0.114385      1.000000
 -0.112074 -0.000000  0.000000      1.000000
 -0.056037 -0.032353 -0.022877      1.000000

 SYSTEM =  Og_FCC
 POSCAR =  Ne_FCC

 Startparameter for this run:
   NWRITE =      2    write-flag & timer
   PREC   = accura    normal or accurate (medium, high low for compatibility)
   ISTART =      0    job   : 0-new  1-cont  2-samecut
   ICHARG =      2    charge: 1-file 2-atom 10-const
   ISPIN  =      1    spin polarized calculation?
   LNONCOLLINEAR =      T non collinear calculations
   LSORBIT =      T    spin-orbit coupling
   INIWAV =      1    electr: 0-lowe 1-rand  2-diag
   LASPH  =      F    aspherical Exc in radial PAW
   METAGGA=      F    non-selfconsistent MetaGGA calc.

 Electronic Relaxation 1
   ENCUT  =  300.0 eV  22.05 Ry    4.70 a.u.   4.46  4.46  4.46*2*pi/ulx,y,z
   ENINI  =  300.0     initial cutoff
   ENAUG  =  755.8 eV  augmentation charge cutoff
   NELM   =     50;   NELMIN=  2; NELMDL= -5     # of ELM steps
   EDIFF  = 0.1E-07   stopping-criterion for ELM
   LREAL  =      F    real-space projection
   NLSPLINE    = F    spline interpolate recip. space projectors
   LCOMPAT=      F    compatible to vasp.4.4
   GGA_COMPAT  = F    GGA compatible to vasp.4.4-vasp.4.6
   LMAXPAW     = -100 max onsite density
   LMAXMIX     =    2 max onsite mixed and CHGCAR
   VOSKOWN=      0    Vosko Wilk Nusair interpolation
   ROPT   =    0.00000
 Ionic relaxation
   EDIFFG = 0.1E-04   stopping-criterion for IOM
   NSW    =      1    number of steps for IOM
   NBLOCK =      1;   KBLOCK =      1    inner block; outer block
   IBRION =     -1    ionic relax: 0-MD 1-quasi-New 2-CG
   NFREE  =      5    steps in history (QN), initial steepest desc. (CG)
   ISIF   =      3    stress and relaxation
   IWAVPR =     10    prediction:  0-non 1-charg 2-wave 3-comb
   ISYM   =      0    0-nonsym 1-usesym 2-fastsym
   LCORR  =      T    Harris-Foulkes like correction to forces

   POTIM  = 0.1000    time-step for ionic-motion
   TEIN   =    0.0    initial temperature
   TEBEG  =    0.0;   TEEND  =   0.0 temperature during run
   SMASS  =  -3.00    Nose mass-parameter (am)
   estimated Nose-frequenzy (Omega)   =  0.10E-29 period in steps =****** mass=  -0.228E-27a.u.
   SCALEE = 1.0000    scale energy and forces
   NPACO  =    256;   APACO  = 16.0  distance and # of slots for P.C.
   PSTRESS=    0.0 pullay stress

  Mass of Ions in am
   POMASS =  20.18
  Ionic Valenz
   ZVAL   =   8.00
  Atomic Wigner-Seitz radii
  virtual crystal weights
   VCA    =   1.00
   NELECT =       8.0000    total number of electrons
   NUPDOWN=      -1.0000    fix difference up-down

 DOS related values:
   EMIN   =  10.00;   EMAX   =-10.00  energy-range for DOS
   EFERMI =   0.00
   ISMEAR =     0;   SIGMA  =   0.00  broadening in eV -4-tet -1-fermi 0-gaus

 Electronic relaxation 2 (details)
   IALGO  =     38    algorithm
   LDIAG  =      T    sub-space diagonalisation (order eigenvalues)
   LSUBROT=      F    optimize rotation matrix (better conditioning)
   TURBO    =      0    0=normal 1=particle mesh
   IRESTART =      0    0=no restart 2=restart with 2 vectors
   NREBOOT  =      0    no. of reboots
   NMIN     =      0    reboot dimension
[...]
   35.081042    0.791411    0.791410    0.791406    0.000001    0.000001    0.000001
   35.796982    0.831545    0.831544    0.831542    0.000001    0.000000    0.000000
   36.512921    0.854795    0.854794    0.854792    0.000000    0.000000    0.000000
   37.228861    0.871342    0.871341    0.871340    0.000000    0.000000    0.000000
   37.944801    0.884171    0.884171    0.884170    0.000000    0.000000    0.000000
   38.660740    0.894630    0.894629    0.894628    0.000000    0.000000    0.000000
   39.376680    0.903439    0.903438    0.903438    0.000000    0.000000    0.000000
   40.092619    0.910989    0.910988    0.910988    0.000000    0.000000    0.000000
   40.808559    0.917541    0.917541    0.917540    0.000000    0.000000    0.000000
   41.524499    0.922401    0.922401    0.922400    0.000000    0.000000    0.000000
   42.240438    0.928914    0.928914    0.928913    0.000000    0.000000    0.000000
[...]
   60.854869    0.970851    0.970851    0.970851    0.000000    0.000000    0.000000
   61.570808    0.971965    0.971965    0.971965    0.000000    0.000000    0.000000
   62.286748    0.972946    0.972946    0.972946    0.000000    0.000000    0.000000
   63.002688    0.973836    0.973836    0.973836    0.000000    0.000000    0.000000
   63.718627    0.974657    0.974657    0.974657    0.000000    0.000000    0.000000
   64.434567    0.975423    0.975422    0.975423    0.000000    0.000000    0.000000
   65.150507    0.976141    0.976141    0.976141    0.000000    0.000000    0.000000
   65.866446    0.976818    0.976818    0.976818    0.000000    0.000000    0.000000
   66.582386    0.977459    0.977459    0.977459    0.000000    0.000000    0.000000
   67.298325    0.978068    0.978068    0.978068    0.000000    0.000000    0.000000
   68.014265    0.978648    0.978648    0.978648    0.000000    0.000000    0.000000
   68.730205    0.979200    0.979200    0.979200    0.000000    0.000000    0.000000
   69.446144    0.979728    0.979728    0.979728    0.000000    0.000000    0.000000
   70.162084    0.980234    0.980234    0.980234    0.000000    0.000000    0.000000
   70.878024    0.980718    0.980718    0.980718    0.000000    0.000000    0.000000

  frequency dependent IMAGINARY DIELECTRIC FUNCTION (independent particle, no local field effects) current-current (2nd set in vasprun.xml)
     E(ev)      X         Y         Z        XY        YZ        ZX
    0.000000    0.419643    0.419644    0.419634    0.000002   -0.000002   -0.000001
    0.715940    0.042067    0.042067    0.042066    0.000000   -0.000000   -0.000000
    1.431879    0.021191    0.021191    0.021190    0.000000   -0.000000   -0.000000
    2.147819    0.014305    0.014305    0.014305    0.000000   -0.000000   -0.000000
    2.863759    0.010921    0.010921    0.010921    0.000000   -0.000000   -0.000000
    3.579698    0.008943    0.008943    0.008942    0.000000   -0.000000   -0.000000
    4.295638    0.007673    0.007673    0.007672    0.000000   -0.000000   -0.000000
    5.011577    0.006814    0.006815    0.006814    0.000000   -0.000000   -0.000000
    5.727517    0.006222    0.006222    0.006222    0.000000   -0.000000   -0.000000
    6.443457    0.005818    0.005818    0.005818    0.000000   -0.000000   -0.000000
    7.159396    0.005559    0.005559    0.005558    0.000000   -0.000000   -0.000000
    7.875336    0.005424    0.005424    0.005424    0.000000   -0.000000   -0.000000
    8.591276    0.005410    0.005410    0.005409    0.000000   -0.000000   -0.000000
    9.307215    0.005529    0.005529    0.005529    0.000000    0.000000    0.000000
   10.023155    0.005825    0.005825    0.005825    0.000000    0.000000    0.000000
   10.739094    0.006400    0.006400    0.006399    0.000000    0.000000    0.000000
   11.455034    0.007545    0.007545    0.007545    0.000000    0.000000    0.000000
   12.170974    0.010686    0.010686    0.010685    0.000000    0.000000    0.000000
   12.886913    0.063024    0.063024    0.063021    0.000000   -0.000000    0.000000
   13.602853    0.067836    0.067833    0.067815    0.000004    0.000002    0.000003
   14.318793    0.134329    0.134347    0.134434   -0.000020   -0.000008   -0.000016
   15.034732    0.204617    0.204613    0.204446    0.000025    0.000034    0.000041
   15.750672    0.470872    0.470655    0.469799    0.000240    0.000096    0.000176
   16.466612    0.052366    0.052370    0.052382   -0.000002   -0.000000   -0.000003
   17.182551    0.122516    0.122513    0.122494    0.000002    0.000001    0.000001
   17.898491    0.240826    0.240854    0.240993   -0.000032   -0.000017   -0.000027
   18.614430    0.246898    0.246920    0.247018   -0.000025   -0.000013   -0.000020
   19.330370    0.225964    0.225961    0.225946    0.000001   -0.000002   -0.000001
   20.046310    0.316625    0.316599    0.316616   -0.000003   -0.000021   -0.000001
   20.762249    0.537800    0.537770    0.537603    0.000033    0.000013    0.000025
   21.478189    0.129079    0.129076    0.129062    0.000002    0.000001    0.000002
   22.194129    0.238771    0.238767    0.238733    0.000005    0.000004    0.000005
   22.910068    0.333828    0.333808    0.333719    0.000021    0.000006    0.000014
   23.626008    0.513902    0.513819    0.513791    0.000038   -0.000006    0.000033
   24.341948    0.413084    0.413075    0.413046    0.000008   -0.000000    0.000004
   25.057887    0.125660    0.125659    0.125651   -0.000001   -0.000001   -0.000001
   25.773827    0.228848    0.228877    0.228969   -0.000025   -0.000006   -0.000015
   26.489766    0.447820    0.447847    0.447944   -0.000022   -0.000003   -0.000011
   27.205706    0.340775    0.340773    0.340743    0.000002    0.000002    0.000007
   27.921646    0.276068    0.276076    0.276088   -0.000005    0.000000   -0.000004
   28.637585    0.066416    0.066417    0.066418   -0.000000   -0.000000   -0.000000
   29.353525    0.415623    0.415625    0.415610    0.000000    0.000002    0.000003
   30.069465    0.447493    0.447461    0.447397   -0.000059    0.000048   -0.000020
   30.785404    0.141829    0.141821    0.141788    0.000009    0.000002    0.000006
   31.501344    0.193369    0.193376    0.193405   -0.000006   -0.000001   -0.000004
   32.217283    0.220132    0.220133    0.220148   -0.000003   -0.000003   -0.000003
   32.933223    0.066560    0.066561    0.066566   -0.000001    0.000000   -0.000000
   33.649163    0.036292    0.036294    0.036301   -0.000001   -0.000000   -0.000001
   34.365102    0.182161    0.182170    0.182193   -0.000013   -0.000006   -0.000011
   35.081042    0.007231    0.007231    0.007231   -0.000000    0.000000   -0.000000
   35.796982    0.003072    0.003072    0.003072   -0.000000    0.000000   -0.000000
   36.512921    0.001883    0.001883    0.001883   -0.000000    0.000000   -0.000000
   37.228861    0.001319    0.001319    0.001320   -0.000000    0.000000   -0.000000
   37.944801    0.000994    0.000994    0.000994   -0.000000    0.000000   -0.000000
   38.660740    0.000791    0.000791    0.000791   -0.000000    0.000000   -0.000000
   39.376680    0.000899    0.000899    0.000899   -0.000000    0.000000    0.000000
   40.092619    0.000605    0.000605    0.000605   -0.000000    0.000000   -0.000000
   40.808559    0.000763    0.000763    0.000763    0.000000    0.000000    0.000000
   41.524499    0.001433    0.001433    0.001433    0.000000    0.000000    0.000000
   42.240438    0.001092    0.001092    0.001091    0.000000    0.000000    0.000000
[...]
   60.854869    0.000073    0.000073    0.000073   -0.000000   -0.000000   -0.000000
   61.570808    0.000054    0.000054    0.000054   -0.000000    0.000000   -0.000000
   62.286748    0.000043    0.000043    0.000043   -0.000000    0.000000   -0.000000
   63.002688    0.000036    0.000036    0.000036   -0.000000    0.000000   -0.000000
   63.718627    0.000031    0.000031    0.000031   -0.000000    0.000000   -0.000000
   64.434567    0.000027    0.000027    0.000027   -0.000000    0.000000   -0.000000
   65.150507    0.000024    0.000024    0.000024   -0.000000    0.000000   -0.000000
   65.866446    0.000022    0.000022    0.000022   -0.000000    0.000000   -0.000000
   66.582386    0.000020    0.000020    0.000020   -0.000000    0.000000   -0.000000
   67.298325    0.000018    0.000018    0.000018   -0.000000    0.000000   -0.000000
   68.014265    0.000016    0.000016    0.000016   -0.000000    0.000000   -0.000000
   68.730205    0.000015    0.000015    0.000015   -0.000000    0.000000   -0.000000
   69.446144    0.000014    0.000014    0.000014   -0.000000    0.000000   -0.000000
   70.162084    0.000013    0.000013    0.000013   -0.000000    0.000000   -0.000000
   70.878024    0.000012    0.000012    0.000012   -0.000000    0.000000   -0.000000

  frequency dependent      REAL DIELECTRIC FUNCTION (independent particle, no local field effects) current-current (2nd set in vasprun.xml)
     E(ev)        X           Y           Z          XY          YZ          ZX
    0.000000    1.150203    1.150203    1.150200    0.000000    0.000000    0.000000
    0.715940    1.150387    1.150387    1.150384    0.000000    0.000000    0.000000
    1.431879    1.150947    1.150947    1.150943    0.000000    0.000000    0.000000
    2.147819    1.151892    1.151892    1.151888    0.000000    0.000000    0.000000
    2.863759    1.153240    1.153240    1.153237    0.000000    0.000000    0.000000
    3.579698    1.155020    1.155020    1.155017    0.000000    0.000000    0.000000
    4.295638    1.157271    1.157271    1.157267    0.000000    0.000000    0.000000
    5.011577    1.160043    1.160043    1.160039    0.000000    0.000000    0.000000
    5.727517    1.163407    1.163407    1.163403    0.000000    0.000000    0.000000
    6.443457    1.167457    1.167457    1.167453    0.000000    0.000000    0.000000
    7.159396    1.172321    1.172321    1.172317    0.000000    0.000000    0.000000
    7.875336    1.178177    1.178177    1.178172    0.000000    0.000000    0.000000
    8.591276    1.185279    1.185279    1.185274    0.000000    0.000000    0.000000
    9.307215    1.194012    1.194012    1.194006    0.000000    0.000000    0.000000
   10.023155    1.204988    1.204988    1.204981    0.000001    0.000000    0.000001
   10.739094    1.219290    1.219290    1.219282    0.000001    0.000000    0.000001
   11.455034    1.239145    1.239145    1.239135    0.000001    0.000001    0.000001
   12.170974    1.271019    1.271018    1.271004    0.000002    0.000001    0.000002
   12.886913    1.294438    1.294448    1.294495   -0.000012   -0.000006   -0.000009
   13.602853    1.447191    1.447185    1.447132    0.000009    0.000005    0.000008
   14.318793    1.102997    1.102985    1.102910    0.000016    0.000010    0.000014
   15.034732    1.463502    1.463499    1.463394    0.000006    0.000017    0.000024
   15.750672    1.595810    1.595801    1.595710   -0.000011   -0.000014    0.000014
   16.466612    1.125442    1.125427    1.125355    0.000018    0.000009    0.000014
   17.182551    1.345257    1.345242    1.345155    0.000017    0.000009    0.000014
   17.898491    0.931177    0.931164    0.931109    0.000014    0.000005    0.000011
   18.614430    1.124976    1.124984    1.125034   -0.000008   -0.000004   -0.000007
   19.330370    1.065604    1.065610    1.065620   -0.000001    0.000003    0.000001
   20.046310    1.261396    1.261381    1.261325   -0.000012   -0.000031   -0.000012
   20.762249    1.321694    1.321740    1.321976   -0.000049   -0.000024   -0.000040
   21.478189    1.048488    1.048488    1.048499    0.000001    0.000000    0.000001
   22.194129    1.118147    1.118157    1.118199   -0.000007   -0.000002   -0.000005
   22.910068    0.938987    0.938996    0.939014   -0.000004    0.000001   -0.000003
   23.626008    1.366859    1.366796    1.366951   -0.000056   -0.000099   -0.000011
   24.341948    0.874219    0.874171    0.874007    0.000040    0.000006    0.000020
   25.057887    0.873576    0.873561    0.873521    0.000015    0.000004    0.000010
   25.773827    0.950871    0.950869    0.950871    0.000001   -0.000001    0.000001
   26.489766    0.952076    0.952051    0.951954    0.000018    0.000001    0.000009
   27.205706    1.095851    1.095859    1.095889   -0.000009   -0.000007   -0.000007
   27.921646    0.747971    0.747993    0.748068   -0.000020   -0.000002   -0.000011
   28.637585    0.950878    0.950878    0.950877   -0.000000    0.000002    0.000000
   29.353525    1.220016    1.220038    1.220135   -0.000025   -0.000008   -0.000017
   30.069465    1.138836    1.138897    1.138971    0.000111   -0.000000    0.000054
   30.785404    0.814507    0.814502    0.814473    0.000001    0.000003    0.000002
   31.501344    0.648317    0.648306    0.648259    0.000010    0.000004    0.000007
   32.217283    0.638520    0.638514    0.638493    0.000006    0.000003    0.000004
   32.933223    0.789204    0.789199    0.789180    0.000005    0.000002    0.000004
   33.649163    0.749035    0.749030    0.749010    0.000004    0.000002    0.000003
   34.365102    0.714068    0.714077    0.714129   -0.000009   -0.000003   -0.000009
   35.081042    0.791395    0.791393    0.791389    0.000001    0.000001    0.000001
   35.796982    0.831535    0.831534    0.831531    0.000001    0.000000    0.000001
   36.512921    0.854785    0.854784    0.854782    0.000001    0.000000    0.000000
   37.228861    0.871333    0.871332    0.871330    0.000001    0.000000    0.000000
   37.944801    0.884163    0.884162    0.884161    0.000000    0.000000    0.000000
   38.660740    0.894622    0.894621    0.894620    0.000000    0.000000    0.000000
   39.376680    0.903430    0.903430    0.903429    0.000000    0.000000    0.000000
   40.092619    0.910982    0.910981    0.910980    0.000000    0.000000    0.000000
   40.808559    0.917533    0.917533    0.917532    0.000000    0.000000    0.000000
   41.524499    0.922389    0.922389    0.922388    0.000000    0.000000    0.000000
   42.240438    0.928904    0.928904    0.928903    0.000000    0.000000    0.000000
[...]
   60.854869    0.970849    0.970849    0.970849    0.000000    0.000000    0.000000
   61.570808    0.971963    0.971962    0.971962    0.000000    0.000000    0.000000
   62.286748    0.972944    0.972943    0.972943    0.000000    0.000000    0.000000
   63.002688    0.973834    0.973834    0.973834    0.000000    0.000000    0.000000
   63.718627    0.974655    0.974655    0.974655    0.000000    0.000000    0.000000
   64.434567    0.975421    0.975421    0.975420    0.000000    0.000000    0.000000
   65.150507    0.976139    0.976139    0.976139    0.000000    0.000000    0.000000
   65.866446    0.976816    0.976816    0.976816    0.000000    0.000000    0.000000
   66.582386    0.977458    0.977457    0.977457    0.000000    0.000000    0.000000
   67.298325    0.978066    0.978066    0.978066    0.000000    0.000000    0.000000
   68.014265    0.978646    0.978646    0.978646    0.000000    0.000000    0.000000
   68.730205    0.979199    0.979199    0.979199    0.000000    0.000000    0.000000
   69.446144    0.979727    0.979727    0.979727    0.000000    0.000000    0.000000
   70.162084    0.980232    0.980232    0.980232    0.000000    0.000000    0.000000
   70.878024    0.980716    0.980716    0.980716    0.000000    0.000000    0.000000

 The outermost node in the dielectric function lies at epsilon=  -1.0

 Spin-Orbit-Coupling matrix elements

 Ion:    1  E_soc:     -0.0005501
 l=   1
     0.0000000    -0.0000917    -0.0000917
    -0.0000917     0.0000000    -0.0000917
    -0.0000917    -0.0000917     0.0000000
 l=   2
     0.0000000    -0.0000000     0.0000000    -0.0000000    -0.0000000
    -0.0000000     0.0000000    -0.0000000    -0.0000000    -0.0000000
     0.0000000    -0.0000000     0.0000000    -0.0000000     0.0000000
    -0.0000000    -0.0000000    -0.0000000     0.0000000    -0.0000000
    -0.0000000    -0.0000000     0.0000000    -0.0000000     0.0000000
 l=   3
     0.0000000     0.0000000     0.0000000     0.0000000     0.0000000     0.0000000     0.0000000
     0.0000000     0.0000000     0.0000000     0.0000000     0.0000000     0.0000000     0.0000000
     0.0000000     0.0000000     0.0000000     0.0000000     0.0000000     0.0000000     0.0000000
     0.0000000     0.0000000     0.0000000     0.0000000     0.0000000     0.0000000     0.0000000
     0.0000000     0.0000000     0.0000000     0.0000000     0.0000000     0.0000000     0.0000000
     0.0000000     0.0000000     0.0000000     0.0000000     0.0000000     0.0000000     0.0000000
     0.0000000     0.0000000     0.0000000     0.0000000     0.0000000     0.0000000     0.0000000