 vasp.5.4.4.18Apr17-6-g9f103f2a35 (build Nov 03 2018 10:20:43) complex

 executed on             LinuxIFC date 2018.12.03  15:13:30

 INCAR:
 POTCAR:    PAW_PBE Ar_GW 21Aug2013

 POTCAR:    PAW_PBE Ar_GW 21Aug2013
   VRHFIN =Ar: s2p6

   TITEL  = PAW_PBE Ar_GW 21Aug2013
   POMASS =   39.949; ZVAL   =    8.000    mass and valenz
   ENMAX  =  290.599; ENMIN  =  217.949 eV

  PAW_PBE Ar_GW 21Aug2013               :

 POSCAR: Ar_FCC
  positions in direct lattice
  velocities in cartesian coordinates

 METAGGA = SCAN     LMAXTAU =  0    LMIXTAU =  F

 ion  position               nearest neighbor table
   1  0.000  0.000  0.000-

  LATTYP: Found a face centered cubic cell.
 ALAT       =     5.2632652393

  Lattice vectors:

 A1 = (   3.7216905418,   0.0000000000,   0.0000000000)
 A2 = (   1.8608452709,   3.2230785542,  -0.0000000000)
 A3 = (   1.8608452709,   1.0743595181,   3.0387476027)

Analysis of symmetry for initial positions (statically):
 Subroutine PRICEL returns:
 Original cell was already a primitive cell.

 Routine SETGRP: Setting up the symmetry group for a
 face centered cubic supercell.

 Subroutine GETGRP returns: Found 48 space group operations
 (whereof 48 operations were pure point group operations)
 out of a pool of 48 trial point group operations.

The static configuration has the point symmetry O_h .

Analysis of symmetry for dynamics (positions and initial velocities):
 Subroutine PRICEL returns:
 Original cell was already a primitive cell.

 Routine SETGRP: Setting up the symmetry group for a
 face centered cubic supercell.

 Subroutine GETGRP returns: Found 48 space group operations
 (whereof 48 operations were pure point group operations)
 out of a pool of 48 trial point group operations.

The dynamic configuration has the point symmetry O_h .

 Subroutine INISYM returns: Found 48 space group operations
 (whereof 48 operations are pure point group operations),
 and found     1 'primitive' translations

Automatic generation of k-mesh.
 generate k-points for:   11   11   11
Space group operators:
 irot       det(A)        alpha          n_x          n_y          n_z        tau_x        tau_y        tau_z
    1     1.000000     0.000000     1.000000     0.000000     0.000000     0.000000     0.000000     0.000000
    2    -1.000000     0.000000     1.000000     0.000000     0.000000     0.000000     0.000000     0.000000
    3     1.000000   120.000000    -0.816497    -0.471405    -0.333333     0.000000     0.000000     0.000000
    4    -1.000000   120.000000    -0.816497    -0.471405    -0.333333     0.000000     0.000000     0.000000
    5     1.000000   120.000000     0.816497     0.471405     0.333333     0.000000     0.000000     0.000000
    6    -1.000000   120.000000     0.816497     0.471405     0.333333     0.000000     0.000000     0.000000
    7     1.000000    90.000000    -0.707107    -0.408248     0.577350     0.000000     0.000000     0.000000
    8    -1.000000    90.000000    -0.707107    -0.408248     0.577350     0.000000     0.000000     0.000000
    9     1.000000   180.000000     1.000000     0.000000     0.000000     0.000000     0.000000     0.000000
   10    -1.000000   180.000000     1.000000     0.000000     0.000000     0.000000     0.000000     0.000000
   11     1.000000    90.000000     0.707107    -0.408248     0.577350     0.000000     0.000000     0.000000
   12    -1.000000    90.000000     0.707107    -0.408248     0.577350     0.000000     0.000000     0.000000
   13     1.000000   180.000000     0.707107     0.408248    -0.577350     0.000000     0.000000     0.000000
   14    -1.000000   180.000000     0.707107     0.408248    -0.577350     0.000000     0.000000     0.000000
   15     1.000000   120.000000     0.816497    -0.471405    -0.333333     0.000000     0.000000     0.000000
   16    -1.000000   120.000000     0.816497    -0.471405    -0.333333     0.000000     0.000000     0.000000
   17     1.000000   120.000000     0.000000    -0.942809     0.333333     0.000000     0.000000     0.000000
   18    -1.000000   120.000000     0.000000    -0.942809     0.333333     0.000000     0.000000     0.000000
   19     1.000000    90.000000     0.707107     0.408248    -0.577350     0.000000     0.000000     0.000000
   20    -1.000000    90.000000     0.707107     0.408248    -0.577350     0.000000     0.000000     0.000000
   21     1.000000    90.000000    -0.000000    -0.816497    -0.577350     0.000000     0.000000     0.000000
   22    -1.000000    90.000000    -0.000000    -0.816497    -0.577350     0.000000     0.000000     0.000000
   23     1.000000   180.000000     0.500000     0.866025     0.000000     0.000000     0.000000     0.000000
   24    -1.000000   180.000000     0.500000     0.866025     0.000000     0.000000     0.000000     0.000000
   25     1.000000   120.000000     0.000000     0.942809    -0.333333     0.000000     0.000000     0.000000
   26    -1.000000   120.000000     0.000000     0.942809    -0.333333     0.000000     0.000000     0.000000
   27     1.000000   120.000000    -0.000000     0.000000    -1.000000     0.000000     0.000000     0.000000
   28    -1.000000   120.000000    -0.000000     0.000000    -1.000000     0.000000     0.000000     0.000000
   29     1.000000   180.000000    -0.000000     0.816497     0.577350     0.000000     0.000000     0.000000
   30    -1.000000   180.000000    -0.000000     0.816497     0.577350     0.000000     0.000000     0.000000
   31     1.000000    90.000000    -0.707107     0.408248    -0.577350     0.000000     0.000000     0.000000
   32    -1.000000    90.000000    -0.707107     0.408248    -0.577350     0.000000     0.000000     0.000000
   33     1.000000   179.999999     0.500000     0.288675     0.816497     0.000000     0.000000     0.000000
   34    -1.000000   179.999999     0.500000     0.288675     0.816497     0.000000     0.000000     0.000000
   35     1.000000    90.000000    -0.000000     0.816497     0.577350     0.000000     0.000000     0.000000
   36    -1.000000    90.000000    -0.000000     0.816497     0.577350     0.000000     0.000000     0.000000
   37     1.000000   120.000000    -0.816497     0.471405     0.333333     0.000000     0.000000     0.000000
   38    -1.000000   120.000000    -0.816497     0.471405     0.333333     0.000000     0.000000     0.000000
   39     1.000000   180.000000    -0.707107     0.408248    -0.577350     0.000000     0.000000     0.000000
   40    -1.000000   180.000000    -0.707107     0.408248    -0.577350     0.000000     0.000000     0.000000
   41     1.000000   120.000000    -0.000000    -0.000000     1.000000     0.000000     0.000000     0.000000
   42    -1.000000   120.000000    -0.000000    -0.000000     1.000000     0.000000     0.000000     0.000000
   43     1.000000   180.000000     0.000000     0.577350    -0.816497     0.000000     0.000000     0.000000
   44    -1.000000   180.000000     0.000000     0.577350    -0.816497     0.000000     0.000000     0.000000
   45     1.000000   180.000000    -0.500000     0.866025     0.000000     0.000000     0.000000     0.000000
   46    -1.000000   180.000000    -0.500000     0.866025     0.000000     0.000000     0.000000     0.000000
   47     1.000000   180.000000    -0.500000     0.288675     0.816497     0.000000     0.000000     0.000000
   48    -1.000000   180.000000    -0.500000     0.288675     0.816497     0.000000     0.000000     0.000000

 Subroutine IBZKPT returns following result:

 Found     56 irreducible k-points:

 Following reciprocal coordinates:
            Coordinates               Weight
  0.000000  0.000000  0.000000      1.000000
  0.090909 -0.000000 -0.000000      8.000000
  0.181818 -0.000000 -0.000000      8.000000
  0.272727 -0.000000 -0.000000      8.000000
  0.363636 -0.000000 -0.000000      8.000000
  0.454545  0.000000 -0.000000      8.000000
  0.090909  0.090909  0.000000      6.000000
  0.181818  0.090909  0.000000     24.000000
  0.272727  0.090909 -0.000000     24.000000
  0.363636  0.090909 -0.000000     24.000000
  0.454545  0.090909 -0.000000     24.000000
 -0.454545  0.090909  0.000000     24.000000
 -0.363636  0.090909  0.000000     24.000000
 -0.272727  0.090909  0.000000     24.000000
 -0.181818  0.090909  0.000000     24.000000
 -0.090909  0.090909  0.000000     12.000000
  0.181818  0.181818  0.000000      6.000000
  0.272727  0.181818 -0.000000     24.000000
  0.363636  0.181818  0.000000     24.000000
  0.454545  0.181818  0.000000     24.000000
 -0.454545  0.181818  0.000000     24.000000
 -0.363636  0.181818  0.000000     24.000000
 -0.272727  0.181818  0.000000     24.000000
 -0.181818  0.181818  0.000000     12.000000
  0.272727  0.272727  0.000000      6.000000
  0.363636  0.272727  0.000000     24.000000
  0.454545  0.272727 -0.000000     24.000000
 -0.454545  0.272727  0.000000     24.000000
 -0.363636  0.272727  0.000000     24.000000
 -0.272727  0.272727  0.000000     12.000000
  0.363636  0.363636  0.000000      6.000000
  0.454545  0.363636 -0.000000     24.000000
 -0.454545  0.363636  0.000000     24.000000
 -0.363636  0.363636  0.000000     12.000000
  0.454545  0.454545 -0.000000      6.000000
 -0.454545  0.454545  0.000000     12.000000
  0.272727  0.181818  0.090909     24.000000
  0.363636  0.181818  0.090909     48.000000
  0.454545  0.181818  0.090909     48.000000
 -0.454545  0.181818  0.090909     48.000000
  0.363636  0.272727  0.090909     24.000000
  0.454545  0.272727  0.090909     48.000000
 -0.454545  0.272727  0.090909     48.000000
 -0.363636  0.272727  0.090909     48.000000
 -0.272727  0.272727  0.090909     48.000000
 -0.181818  0.272727  0.090909     24.000000
  0.454545  0.363636  0.090909     24.000000
 -0.454545  0.363636  0.090909     48.000000
 -0.363636  0.363636  0.090909     48.000000
 -0.272727  0.363636  0.090909     24.000000
 -0.454545  0.454545  0.090909     24.000000
 -0.363636  0.454545  0.090909     24.000000
 -0.454545  0.363636  0.181818     24.000000
 -0.363636  0.363636  0.181818     48.000000
 -0.363636  0.454545  0.181818     24.000000
 -0.272727  0.454545  0.181818     24.000000

 Following cartesian coordinates:
            Coordinates               Weight
  0.000000  0.000000  0.000000      1.000000
  0.024427 -0.014103 -0.009972      8.000000
  0.048854 -0.028206 -0.019944      8.000000
  0.073280 -0.042309 -0.029917      8.000000
  0.097707 -0.056411 -0.039889      8.000000
  0.122134 -0.070514 -0.049861      8.000000
  0.024427  0.014103 -0.019944      6.000000
  0.048854  0.000000 -0.029917     24.000000
  0.073280 -0.014103 -0.039889     24.000000
  0.097707 -0.028206 -0.049861     24.000000
  0.122134 -0.042309 -0.059833     24.000000
 -0.122134  0.098720  0.039889     24.000000
 -0.097707  0.084617  0.029917     24.000000
 -0.073280  0.070514  0.019944     24.000000
 -0.048854  0.056411  0.009972     24.000000
 -0.024427  0.042309  0.000000     12.000000
  0.048854  0.028206 -0.039889      6.000000
  0.073280  0.014103 -0.049861     24.000000
  0.097707  0.000000 -0.059833     24.000000
  0.122134 -0.014103 -0.069805     24.000000
 -0.122134  0.126926  0.029917     24.000000
 -0.097707  0.112823  0.019944     24.000000
[...]
   0.45454545  0.09090909 -0.00000000       0.018
  -0.45454545  0.09090909  0.00000000       0.018
  -0.36363636  0.09090909  0.00000000       0.018
  -0.27272727  0.09090909  0.00000000       0.018
  -0.18181818  0.09090909  0.00000000       0.018
  -0.09090909  0.09090909  0.00000000       0.009
   0.18181818  0.18181818  0.00000000       0.005
   0.27272727  0.18181818 -0.00000000       0.018
   0.36363636  0.18181818  0.00000000       0.018
   0.45454545  0.18181818  0.00000000       0.018
  -0.45454545  0.18181818  0.00000000       0.018
  -0.36363636  0.18181818  0.00000000       0.018
  -0.27272727  0.18181818  0.00000000       0.018
  -0.18181818  0.18181818  0.00000000       0.009
   0.27272727  0.27272727  0.00000000       0.005
   0.36363636  0.27272727  0.00000000       0.018
   0.45454545  0.27272727 -0.00000000       0.018
  -0.45454545  0.27272727  0.00000000       0.018
  -0.36363636  0.27272727  0.00000000       0.018
  -0.27272727  0.27272727  0.00000000       0.009
   0.36363636  0.36363636  0.00000000       0.005
   0.45454545  0.36363636 -0.00000000       0.018
  -0.45454545  0.36363636  0.00000000       0.018
  -0.36363636  0.36363636  0.00000000       0.009
   0.45454545  0.45454545 -0.00000000       0.005
  -0.45454545  0.45454545  0.00000000       0.009
   0.27272727  0.18181818  0.09090909       0.018
   0.36363636  0.18181818  0.09090909       0.036
   0.45454545  0.18181818  0.09090909       0.036
  -0.45454545  0.18181818  0.09090909       0.036
   0.36363636  0.27272727  0.09090909       0.018
   0.45454545  0.27272727  0.09090909       0.036
  -0.45454545  0.27272727  0.09090909       0.036
  -0.36363636  0.27272727  0.09090909       0.036
  -0.27272727  0.27272727  0.09090909       0.036
  -0.18181818  0.27272727  0.09090909       0.018
   0.45454545  0.36363636  0.09090909       0.018
  -0.45454545  0.36363636  0.09090909       0.036
  -0.36363636  0.36363636  0.09090909       0.036
  -0.27272727  0.36363636  0.09090909       0.018
  -0.45454545  0.45454545  0.09090909       0.018
  -0.36363636  0.45454545  0.09090909       0.018
  -0.45454545  0.36363636  0.18181818       0.018
  -0.36363636  0.36363636  0.18181818       0.036
  -0.36363636  0.45454545  0.18181818       0.018
  -0.27272727  0.45454545  0.18181818       0.018

 position of ions in fractional coordinates (direct lattice)
   0.00000000  0.00000000  0.00000000

 position of ions in cartesian coordinates  (Angst):
   0.00000000  0.00000000  0.00000000

 k-point  1 :   0.0000 0.0000 0.0000  plane waves:    1243
 k-point  2 :   0.0909-0.0000-0.0000  plane waves:    1239
 k-point  3 :   0.1818-0.0000-0.0000  plane waves:    1227
 k-point  4 :   0.2727-0.0000-0.0000  plane waves:    1215
 k-point  5 :   0.3636-0.0000-0.0000  plane waves:    1221
 k-point  6 :   0.4545 0.0000-0.0000  plane waves:    1209
 k-point  7 :   0.0909 0.0909 0.0000  plane waves:    1239
 k-point  8 :   0.1818 0.0909 0.0000  plane waves:    1225
 k-point  9 :   0.2727 0.0909-0.0000  plane waves:    1221
 k-point 10 :   0.3636 0.0909-0.0000  plane waves:    1226
 k-point 11 :   0.4545 0.0909-0.0000  plane waves:    1210
 k-point 12 :  -0.4545 0.0909 0.0000  plane waves:    1205
 k-point 13 :  -0.3636 0.0909 0.0000  plane waves:    1214
 k-point 14 :  -0.2727 0.0909 0.0000  plane waves:    1222
 k-point 15 :  -0.1818 0.0909 0.0000  plane waves:    1222
 k-point 16 :  -0.0909 0.0909 0.0000  plane waves:    1223
 k-point 17 :   0.1818 0.1818 0.0000  plane waves:    1227
 k-point 18 :   0.2727 0.1818-0.0000  plane waves:    1226
 k-point 19 :   0.3636 0.1818 0.0000  plane waves:    1219
 k-point 20 :   0.4545 0.1818 0.0000  plane waves:    1218
 k-point 21 :  -0.4545 0.1818 0.0000  plane waves:    1208
 k-point 22 :  -0.3636 0.1818 0.0000  plane waves:    1215
 k-point 23 :  -0.2727 0.1818 0.0000  plane waves:    1215
 k-point 24 :  -0.1818 0.1818 0.0000  plane waves:    1229
 k-point 25 :   0.2727 0.2727 0.0000  plane waves:    1230
 k-point 26 :   0.3636 0.2727 0.0000  plane waves:    1228
 k-point 27 :   0.4545 0.2727-0.0000  plane waves:    1215
 k-point 28 :  -0.4545 0.2727 0.0000  plane waves:    1211
 k-point 29 :  -0.3636 0.2727 0.0000  plane waves:    1206
 k-point 30 :  -0.2727 0.2727 0.0000  plane waves:    1203
 k-point 31 :   0.3636 0.3636 0.0000  plane waves:    1218
 k-point 32 :   0.4545 0.3636-0.0000  plane waves:    1219
 k-point 33 :  -0.4545 0.3636 0.0000  plane waves:    1218
 k-point 34 :  -0.3636 0.3636 0.0000  plane waves:    1214
 k-point 35 :   0.4545 0.4545-0.0000  plane waves:    1218
 k-point 36 :  -0.4545 0.4545 0.0000  plane waves:    1210
 k-point 37 :   0.2727 0.1818 0.0909  plane waves:    1232
 k-point 38 :   0.3636 0.1818 0.0909  plane waves:    1223
 k-point 39 :   0.4545 0.1818 0.0909  plane waves:    1223
 k-point 40 :  -0.4545 0.1818 0.0909  plane waves:    1212
 k-point 41 :   0.3636 0.2727 0.0909  plane waves:    1230
 k-point 42 :   0.4545 0.2727 0.0909  plane waves:    1225
 k-point 43 :  -0.4545 0.2727 0.0909  plane waves:    1215
 k-point 44 :  -0.3636 0.2727 0.0909  plane waves:    1208
 k-point 45 :  -0.2727 0.2727 0.0909  plane waves:    1214
 k-point 46 :  -0.1818 0.2727 0.0909  plane waves:    1212
 k-point 47 :   0.4545 0.3636 0.0909  plane waves:    1220
 k-point 48 :  -0.4545 0.3636 0.0909  plane waves:    1210
 k-point 49 :  -0.3636 0.3636 0.0909  plane waves:    1213
 k-point 50 :  -0.2727 0.3636 0.0909  plane waves:    1209
 k-point 51 :  -0.4545 0.4545 0.0909  plane waves:    1209
 k-point 52 :  -0.3636 0.4545 0.0909  plane waves:    1213
 k-point 53 :  -0.4545 0.3636 0.1818  plane waves:    1210
 k-point 54 :  -0.3636 0.3636 0.1818  plane waves:    1208
 k-point 55 :  -0.3636 0.4545 0.1818  plane waves:    1210
 k-point 56 :  -0.2727 0.4545 0.1818  plane waves:    1215

 maximum and minimum number of plane-waves per node :       320      291

 maximum number of plane-waves:      1243
 maximum index in each direction:
   IXMAX=    7   IYMAX=    7   IZMAX=    7
   IXMIN=   -7   IYMIN=   -7   IZMIN=   -7

 parallel 3D FFT for wavefunctions:
    minimum data exchange during FFTs selected (reduces bandwidth)
 parallel 3D FFT for charge:
    minimum data exchange during FFTs selected (reduces bandwidth)

 Broyden mixing: mesh for mixing (old mesh)
   NGX = 15   NGY = 15   NGZ = 15
  (NGX  = 60   NGY  = 60   NGZ  = 60)
  gives a total of   3375 points

 initial charge density was supplied:
 charge density of overlapping atoms calculated
 number of electron       8.0000000 magnetization
 keeping initial charge density in first step

 Maximum index for augmentation-charges         7685 (set IRDMAX)

 First call to EWALD:  gamma=   0.535
 Maximum number of real-space cells 3x 3x 3
 Maximum number of reciprocal cells 3x 3x 3

--------------------------------------- Iteration      1(   1)  ---------------------------------------

 eigenvalue-minimisations  :   896
 total energy-change (2. order) : 0.3508333E+02  (-0.3924740E+03)
 number of electron       8.0000000 magnetization
 augmentation part        8.0000000 magnetization

 Free energy of the ion-electron system (eV)
  alpha Z        PSCENC =         8.24390778
  Ewald energy   TEWEN  =      -401.39972460
  -Hartree energ DENC   =      -137.96420581
  -exchange      EXHF   =         0.00000000
  -V(xc)+E(xc)   XCENC  =        33.54959883
  PAW double counting   =       459.42379500     -469.89655844
  entropy T*S    EENTRO =        -0.00013217
  eigenvalues    EBANDS =       -35.91888826
  atomic energy  EATOM  =       579.04554086
  Solvation  Ediel_sol  =         0.00000000
  free energy    TOTEN  =        35.08333319 eV

  energy without entropy =       35.08346535  energy(sigma->0) =       35.08337724

[...]

 eigenvalue-minimisations  :  1288
 total energy-change (2. order) :-0.4297151E+02  (-0.4085995E+02)
 number of electron       8.0000000 magnetization
 augmentation part        8.0000000 magnetization

[...]

 Broyden mixing:
  rms(total) = 0.29819E-01    rms(broyden)= 0.29700E-01
  rms(prec ) = 0.97810E-01
  weight for this iteration     100.00

[...]

 eigenvalues of (default mixing * dielectric matrix)
  average eigenvalue GAMMA=   0.6280
  0.6280

[...]

 average (electrostatic) potential at core
  the test charge radii are     0.8078
  (the norm of the test charge is              1.0000)
       1-119.0855

 E-fermi :  -5.5630     XC(G=0):  -7.0959     alpha+bet : -4.6652

 k-point     1 :       0.0000    0.0000    0.0000
  band No.  band energies     occupation
      1     -21.0487      2.00000
      2      -5.5802      1.28656
      3      -5.5802      1.28652
      4      -5.5802      1.28652
      5       3.9556      0.00000
      6      11.2516      0.00000
      7      11.2516      0.00000
      8      11.2516      0.00000

[...]

 soft charge-density along one line, spin component           1
         0         1         2         3         4         5         6         7         8         9
 total charge-density along one line

------------------------ aborting loop because EDIFF is reached ----------------------------------------

  FORCE on cell =-STRESS in cart. coord.  units (eV):
  Direction    XX          YY          ZZ          XY          YZ          ZX
  Alpha Z     8.24391     8.24391     8.24391
  Ewald    -133.79991  -133.79991  -133.79991    -0.00000    -0.00000     0.00000
  Hartree    46.03943    46.03943    46.03943     0.00000    -0.00000     0.00000
  E(xc)     -32.07232   -31.99466   -31.95489     0.03056    -0.00794     0.07340
  Local    -117.87030  -117.87030  -117.87030    -0.00000    -0.00000    -0.00000
  n-local    93.29447    94.08685    94.49685     0.29111    -0.11622     0.75757
  augment    -9.81657    -9.81657    -9.81657    -0.00000    -0.00000     0.00000
  Kinetic   143.19502   145.66834   146.92954     0.95763    -0.26480     2.32378
  Fock        0.00000     0.00000     0.00000     0.00000     0.00000     0.00000
  Total       0.01296     0.01296     0.01296     0.00000     0.00000     0.00000
  in kB       0.56946     0.56946     0.56946     0.00000     0.00000     0.00000

 VOLUME and BASIS-vectors are now :
  energy-cutoff  :      600.00
  volume of cell :       36.45
      direct lattice vectors                 reciprocal lattice vectors
     3.721690542  0.000000000  0.000000000     0.268695097 -0.155131186 -0.109694314
     1.860845271  3.223078554 -0.000000000     0.000000000  0.310262373 -0.109694314
     1.860845271  1.074359518  3.038747603    -0.000000000  0.000000000  0.329082942

[...]

 FORCES acting on ions
    electron-ion (+dipol)            ewald-force                    non-local-force                 convergence-correction
   0.511E-14 0.985E-15 0.403E-14   0.145E-16 -.215E-15 0.557E-15   -.662E-23 0.165E-23 0.000E+00   -.278E-13 -.224E-14 -.236E-13
   0.489E-14 0.856E-15 0.395E-14   0.145E-16 -.215E-15 0.557E-15   -.662E-23 0.165E-23 0.000E+00   -.278E-13 -.224E-14 -.236E-13

 POSITION                                       TOTAL-FORCE (eV/Angst)
      0.00000      0.00000      0.00000         0.000000     -0.000000      0.000000
    total drift:                               -0.000000     -0.000000     -0.000000

  FREE ENERGIE OF THE ION-ELECTRON SYSTEM (eV)
  free  energy   TOTEN  =        -6.92325317 eV

  energy  without entropy=       -6.92660625  energy(sigma->0) =       -6.92437086

 Quasi-Newton relaxation of ions (Broydens 2nd method)
  g(Force)  = 0.000E+00   g(Stress)= 0.486E-05

 Reset! Starting new Quasi-Newton update for ions

[...]

 eigenvalue-minimisations  :   896
 total energy-change (2. order) :-0.2237722E-05  (-0.3780461E-05)
 number of electron       8.0000000 magnetization
 augmentation part       -0.5130191 magnetization

[...]

 Broyden mixing:
  rms(total) = 0.25456E-04    rms(broyden)= 0.25065E-04
  rms(prec ) = 0.88379E-04
  weight for this iteration     100.00

 eigenvalues of (default mixing * dielectric matrix)
  average eigenvalue GAMMA=   1.8011
  3.9144  3.1466  3.1466  2.5201  2.4979  1.5668  0.5517  1.2273  1.0590  1.0264
  0.9630  0.9197  0.8745

[...]

--------------------------------------- Iteration      2(   6)  ---------------------------------------

 eigenvalue-minimisations  :   487
 total energy-change (2. order) : 0.9336782E-07  (-0.6268852E-09)
 number of electron       8.0000000 magnetization
 augmentation part       -0.5130105 magnetization

 Free energy of the ion-electron system (eV)
  alpha Z        PSCENC =         8.24081705
  Ewald energy   TEWEN  =      -401.34955523
  -Hartree energ DENC   =      -138.15202673
  -exchange      EXHF   =         0.00000000
  -V(xc)+E(xc)   XCENC  =        34.24978621
  PAW double counting   =       463.75925496     -474.27095766
  entropy T*S    EENTRO =         0.00335792
  eigenvalues    EBANDS =       -78.44947547
  atomic energy  EATOM  =       579.04554086
  Solvation  Ediel_sol  =         0.00000000
  free energy    TOTEN  =        -6.92325809 eV

  energy without entropy =       -6.92661601  energy(sigma->0) =       -6.92437740

 average (electrostatic) potential at core
  the test charge radii are     0.8078
  (the norm of the test charge is              1.0000)
       1-119.0872

 E-fermi :  -5.5652     XC(G=0):  -7.0942     alpha+bet : -4.6634

[...]

 k-point    56 :      -0.2727    0.4545    0.1818
  band No.  band energies     occupation
      1     -20.7740      2.00000
      2      -6.4628      2.00000
      3      -6.3963      2.00000
      4      -6.0281      2.00000
      5       7.5528      0.00000
      6       9.0133      0.00000
      7       9.4909      0.00000
      8      11.7533      0.00000

 soft charge-density along one line, spin component           1
         0         1         2         3         4         5         6         7         8         9
 total charge-density along one line

------------------------ aborting loop because EDIFF is reached ----------------------------------------

  FORCE on cell =-STRESS in cart. coord.  units (eV):
  Direction    XX          YY          ZZ          XY          YZ          ZX
  Alpha Z     8.24082     8.24082     8.24082
  Ewald    -133.78319  -133.78319  -133.78319     0.00000    -0.00000     0.00000
  Hartree    46.05038    46.05038    46.05038     0.00000    -0.00000     0.00000
  E(xc)     -32.07222   -31.99459   -31.95484     0.03054    -0.00794     0.07336
  Local    -117.89485  -117.89485  -117.89485    -0.00000    -0.00000    -0.00000
  n-local    93.29479    94.08662    94.49633     0.29089    -0.11614     0.75703
  augment    -9.81657    -9.81657    -9.81657    -0.00000    -0.00000    -0.00000
  Kinetic   143.19564   145.66774   146.92832     0.95708    -0.26482     2.32261
  Fock        0.00000     0.00000     0.00000     0.00000     0.00000     0.00000
  Total       0.01253     0.01253     0.01253     0.00000    -0.00000     0.00000
  in kB       0.55033     0.55033     0.55033     0.00000    -0.00000     0.00000

 VOLUME and BASIS-vectors are now :
  energy-cutoff  :      600.00
  volume of cell :       36.46
      direct lattice vectors                 reciprocal lattice vectors
     3.722155759  0.000000000  0.000000000     0.268661514 -0.155111797 -0.109680604
     1.861077880  3.223481444 -0.000000000     0.000000000  0.310223594 -0.109680604
     1.861077880  1.074493815  3.039127451    -0.000000000  0.000000000  0.329041811

  length of vectors
     3.722155759  3.722155759  3.722155759     0.329041811  0.329041811  0.329041811

 FORCES acting on ions
    electron-ion (+dipol)            ewald-force                    non-local-force                 convergence-correction
   0.473E-14 0.600E-15 0.350E-14   0.829E-16 -.207E-16 -.614E-15   0.207E-24 0.000E+00 0.000E+00   -.267E-13 -.333E-14 -.254E-13
   0.451E-14 0.603E-15 0.354E-14   0.829E-16 -.207E-16 -.614E-15   0.207E-24 0.000E+00 0.000E+00   -.267E-13 -.333E-14 -.254E-13

 POSITION                                       TOTAL-FORCE (eV/Angst)
      0.00000      0.00000      0.00000        -0.000000      0.000000      0.000000
    total drift:                               -0.000000     -0.000000     -0.000000

  FREE ENERGIE OF THE ION-ELECTRON SYSTEM (eV)
  free  energy   TOTEN  =        -6.92325809 eV

  energy  without entropy=       -6.92661601  energy(sigma->0) =       -6.92437740

 d Force = 0.0000000E+00[ 0.000E+00, 0.000E+00]  d Energy = 0.4923627E-05-0.492E-05
 d Force = 0.0000000E+00[ 0.000E+00, 0.000E+00]  d Ewald  =-0.5016937E-01 0.502E-01

 Quasi-Newton relaxation of ions (Broydens 2nd method)
  g(Force)  = 0.000E+00   g(Stress)= 0.454E-05

 retain information from N=  1 steps
 eigenvalues of (default step * inverse Hessian matrix)
  average eigenvalue of G=  30.2180
 eigenvalue spectrum of G is 30.2180

 reached required accuracy - stopping structural energy minimisation