 vasp.5.4.4.18Apr17-6-g9f103f2a35 (build Jul 09 2018 16:43:14) complex

 executed on             LinuxIFC date 2018.11.22  05:06:44

 INCAR:
 POTCAR:    PAW_PBE Ar_GW 21Aug2013

 POTCAR:    PAW_PBE Ar_GW 21Aug2013
   VRHFIN =Ar: s2p6

   TITEL  = PAW_PBE Ar_GW 21Aug2013
   POMASS =   39.949; ZVAL   =    8.000    mass and valenz
   ENMAX  =  290.599; ENMIN  =  217.949 eV

  PAW_PBE Ar_GW 21Aug2013               :

 POSCAR: Ar_FCC
  positions in direct lattice
  velocities in cartesian coordinates
 exchange correlation table for  LEXCH =        8
   RHO(1)=    0.500       N(1)  =     2000
   RHO(2)=  100.500       N(2)  =     4000

 ion  position               nearest neighbor table
   1  0.000  0.000  0.000-

IMPORTANT INFORMATION: All symmetrisations will be switched off!
NOSYMM: (Re-)initialisation of all symmetry stuff for point group C_1.

 KPOINTS: k-points

Automatic generation of k-mesh.
Space group operators:
 irot       det(A)        alpha          n_x          n_y          n_z        tau_x        tau_y        tau_z
    1     1.000000     0.000000     1.000000     0.000000     0.000000     0.000000     0.000000     0.000000

 Subroutine IBZKPT returns following result:

 Found    112 irreducible k-points:

 Following reciprocal coordinates:
            Coordinates               Weight
  0.000000  0.000000  0.000000      1.000000
  0.166667  0.000000 -0.000000      2.000000
  0.333333  0.000000 -0.000000      2.000000
  0.500000  0.000000 -0.000000      1.000000
  0.000000  0.166667 -0.000000      2.000000
  0.166667  0.166667 -0.000000      2.000000
  0.333333  0.166667 -0.000000      2.000000
  0.500000  0.166667 -0.000000      2.000000
 -0.333333  0.166667 -0.000000      2.000000
 -0.166667  0.166667  0.000000      2.000000
  0.000000  0.333333  0.000000      2.000000
  0.166667  0.333333 -0.000000      2.000000
  0.333333  0.333333 -0.000000      2.000000
  0.500000  0.333333 -0.000000      2.000000
 -0.333333  0.333333  0.000000      2.000000
 -0.166667  0.333333  0.000000      2.000000
  0.000000  0.500000 -0.000000      1.000000
  0.166667  0.500000  0.000000      2.000000
  0.333333  0.500000  0.000000      2.000000
  0.500000  0.500000 -0.000000      1.000000
 -0.000000  0.000000  0.166667      2.000000
  0.166667  0.000000  0.166667      2.000000
  0.333333 -0.000000  0.166667      2.000000
  0.500000  0.000000  0.166667      2.000000
 -0.333333 -0.000000  0.166667      2.000000
 -0.166667 -0.000000  0.166667      2.000000
  0.000000  0.166667  0.166667      2.000000
  0.166667  0.166667  0.166667      2.000000
  0.333333  0.166667  0.166667      2.000000
  0.500000  0.166667  0.166667      2.000000
 -0.333333  0.166667  0.166667      2.000000
 -0.166667  0.166667  0.166667      2.000000
  0.000000  0.333333  0.166667      2.000000
  0.166667  0.333333  0.166667      2.000000
  0.333333  0.333333  0.166667      2.000000
  0.500000  0.333333  0.166667      2.000000
 -0.333333  0.333333  0.166667      2.000000
 -0.166667  0.333333  0.166667      2.000000
  0.000000  0.500000  0.166667      2.000000
  0.166667  0.500000  0.166667      2.000000
  0.333333  0.500000  0.166667      2.000000
  0.500000  0.500000  0.166667      2.000000
 -0.333333  0.500000  0.166667      2.000000
 -0.166667  0.500000  0.166667      2.000000
  0.000000 -0.333333  0.166667      2.000000
  0.166667 -0.333333  0.166667      2.000000
  0.333333 -0.333333  0.166667      2.000000
  0.500000 -0.333333  0.166667      2.000000
 -0.333333 -0.333333  0.166667      2.000000
 -0.166667 -0.333333  0.166667      2.000000
  0.000000 -0.166667  0.166667      2.000000
  0.166667 -0.166667  0.166667      2.000000
  0.333333 -0.166667  0.166667      2.000000
  0.500000 -0.166667  0.166667      2.000000
 -0.333333 -0.166667  0.166667      2.000000
 -0.166667 -0.166667  0.166667      2.000000
  0.000000  0.000000  0.333333      2.000000
  0.166667  0.000000  0.333333      2.000000
  0.333333  0.000000  0.333333      2.000000
  0.500000 -0.000000  0.333333      2.000000
[...]
  0.166667  0.166667  0.500000      2.000000
  0.333333  0.166667  0.500000      2.000000
  0.500000  0.166667  0.500000      2.000000
 -0.333333  0.166667  0.500000      2.000000
 -0.166667  0.166667  0.500000      2.000000
 -0.000000  0.333333  0.500000      2.000000
  0.166667  0.333333  0.500000      2.000000
  0.333333  0.333333  0.500000      2.000000
  0.500000  0.333333  0.500000      2.000000
 -0.333333  0.333333  0.500000      2.000000
 -0.166667  0.333333  0.500000      2.000000
  0.000000  0.500000  0.500000      1.000000
  0.166667  0.500000  0.500000      2.000000
  0.333333  0.500000  0.500000      2.000000
  0.500000  0.500000  0.500000      1.000000

 Following cartesian coordinates:
            Coordinates               Weight
  0.000000  0.000000  0.000000      1.000000
  0.046300 -0.026731 -0.018902      2.000000
  0.092600 -0.053463 -0.037804      2.000000
  0.138901 -0.080194 -0.056706      1.000000
  0.000000  0.053463 -0.018902      2.000000
  0.046300  0.026731 -0.037804      2.000000
  0.092600  0.000000 -0.056706      2.000000
  0.138901 -0.026731 -0.075608      2.000000
 -0.092600  0.106926  0.018902      2.000000
 -0.046300  0.080194  0.000000      2.000000
  0.000000  0.106926 -0.037804      2.000000
  0.046300  0.080194 -0.056706      2.000000
  0.092600  0.053463 -0.075608      2.000000
  0.138901  0.026731 -0.094510      2.000000
 -0.092600  0.160389  0.000000      2.000000
 -0.046300  0.133657 -0.018902      2.000000
  0.000000  0.160389 -0.056706      1.000000
  0.046300  0.133657 -0.075608      2.000000
  0.092600  0.106926 -0.094510      2.000000
  0.138901  0.080194 -0.113412      1.000000
 -0.000000  0.000000  0.056706      2.000000
  0.046300 -0.026731  0.037804      2.000000
  0.092600 -0.053463  0.018902      2.000000
  0.138901 -0.080194 -0.000000      2.000000
 -0.092600  0.053463  0.094510      2.000000
 -0.046300  0.026731  0.075608      2.000000
 -0.000000  0.053463  0.037804      2.000000
  0.046300  0.026731  0.018902      2.000000
  0.092600  0.000000  0.000000      2.000000
  0.138901 -0.026731 -0.018902      2.000000
 -0.092600  0.106926  0.075608      2.000000
 -0.046300  0.080194  0.056706      2.000000
 -0.000000  0.106926  0.018902      2.000000
  0.046300  0.080194  0.000000      2.000000
  0.092600  0.053463 -0.018902      2.000000
  0.138901  0.026731 -0.037804      2.000000
 -0.092600  0.160389  0.056706      2.000000
 -0.046300  0.133657  0.037804      2.000000
 -0.000000  0.160389  0.000000      2.000000
  0.046300  0.133657 -0.018902      2.000000
  0.092600  0.106926 -0.037804      2.000000
  0.138901  0.080194 -0.056706      2.000000
 -0.092600  0.213851  0.037804      2.000000
 -0.046300  0.187120  0.018902      2.000000
 -0.000000 -0.106926  0.094510      2.000000
  0.046300 -0.133657  0.075608      2.000000
  0.092600 -0.160389  0.056706      2.000000
  0.138901 -0.187120  0.037804      2.000000
 -0.092600 -0.053463  0.132314      2.000000
 -0.046300 -0.080194  0.113412      2.000000
 -0.000000 -0.053463  0.075608      2.000000
  0.046300 -0.080194  0.056706      2.000000
  0.092600 -0.106926  0.037804      2.000000
  0.138901 -0.133657  0.018902      2.000000
 -0.092600 -0.000000  0.113412      2.000000
 -0.046300 -0.026731  0.094510      2.000000
 -0.000000  0.000000  0.113412      2.000000
  0.046300 -0.026731  0.094510      2.000000
  0.092600 -0.053463  0.075608      2.000000
  0.138901 -0.080194  0.056706      2.000000
[...]
  0.046300  0.026731  0.132314      2.000000
  0.092600  0.000000  0.113412      2.000000
  0.138901 -0.026731  0.094510      2.000000
 -0.092600  0.106926  0.189020      2.000000
 -0.046300  0.080194  0.170118      2.000000
 -0.000000  0.106926  0.132314      2.000000
  0.046300  0.080194  0.113412      2.000000
  0.092600  0.053463  0.094510      2.000000
  0.138901  0.026731  0.075608      2.000000
 -0.092600  0.160389  0.170118      2.000000
 -0.046300  0.133657  0.151216      2.000000
 -0.000000  0.160389  0.113412      1.000000
  0.046300  0.133657  0.094510      2.000000
  0.092600  0.106926  0.075608      2.000000
  0.138901  0.080194  0.056706      1.000000

 SYSTEM =  Og_FCC
 POSCAR =  Ar_FCC

 Startparameter for this run:
   NWRITE =      2    write-flag & timer
   PREC   = accura    normal or accurate (medium, high low for compatibility)
   ISTART =      1    job   : 0-new  1-cont  2-samecut
   ICHARG =      0    charge: 1-file 2-atom 10-const
   ISPIN  =      1    spin polarized calculation?
   LNONCOLLINEAR =      F non collinear calculations
   LSORBIT =      F    spin-orbit coupling
   INIWAV =      1    electr: 0-lowe 1-rand  2-diag
   LASPH  =      F    aspherical Exc in radial PAW
   METAGGA=      F    non-selfconsistent MetaGGA calc.

 Electronic Relaxation 1
   ENCUT  =  300.0 eV  22.05 Ry    4.70 a.u.   5.08  5.08  5.08*2*pi/ulx,y,z
   ENINI  =  300.0     initial cutoff
   ENAUG  =  799.9 eV  augmentation charge cutoff
   NELM   =     50;   NELMIN=  2; NELMDL= -5     # of ELM steps
   EDIFF  = 0.1E-07   stopping-criterion for ELM
   LREAL  =      F    real-space projection
   NLSPLINE    = F    spline interpolate recip. space projectors
   LCOMPAT=      F    compatible to vasp.4.4
   GGA_COMPAT  = F    GGA compatible to vasp.4.4-vasp.4.6
   LMAXPAW     = -100 max onsite density
   LMAXMIX     =    2 max onsite mixed and CHGCAR
   VOSKOWN=      0    Vosko Wilk Nusair interpolation
   ROPT   =    0.00000
 Ionic relaxation
   EDIFFG = 0.1E-04   stopping-criterion for IOM
   NSW    =      1    number of steps for IOM
   NBLOCK =      1;   KBLOCK =      1    inner block; outer block
   IBRION =     -1    ionic relax: 0-MD 1-quasi-New 2-CG
   NFREE  =      5    steps in history (QN), initial steepest desc. (CG)
   ISIF   =      3    stress and relaxation
   IWAVPR =     10    prediction:  0-non 1-charg 2-wave 3-comb
   ISYM   =      0    0-nonsym 1-usesym 2-fastsym
   LCORR  =      T    Harris-Foulkes like correction to forces

   POTIM  = 0.1000    time-step for ionic-motion
   TEIN   =    0.0    initial temperature
   TEBEG  =    0.0;   TEEND  =   0.0 temperature during run
   SMASS  =  -3.00    Nose mass-parameter (am)
   estimated Nose-frequenzy (Omega)   =  0.10E-29 period in steps =****** mass=  -0.296E-27a.u.
   SCALEE = 1.0000    scale energy and forces
   NPACO  =    256;   APACO  = 16.0  distance and # of slots for P.C.
   PSTRESS=    0.0 pullay stress

  Mass of Ions in am
   POMASS =  39.95
  Ionic Valenz
   ZVAL   =   8.00
  Atomic Wigner-Seitz radii
  virtual crystal weights
   VCA    =   1.00
   NELECT =       8.0000    total number of electrons
   NUPDOWN=      -1.0000    fix difference up-down

 DOS related values:
   EMIN   =  10.00;   EMAX   =-10.00  energy-range for DOS
   EFERMI =   0.00
   ISMEAR =     0;   SIGMA  =   0.00  broadening in eV -4-tet -1-fermi 0-gaus

 Electronic relaxation 2 (details)
   IALGO  =     38    algorithm
   LDIAG  =      T    sub-space diagonalisation (order eigenvalues)
   LSUBROT=      F    optimize rotation matrix (better conditioning)
   TURBO    =      0    0=normal 1=particle mesh
   IRESTART =      0    0=no restart 2=restart with 2 vectors
   NREBOOT  =      0    no. of reboots
[...]
   14.319744    0.577428    0.578003    0.577853   -0.000588    0.000581   -0.001016
   14.740913    1.467045    1.467534    1.467387   -0.000662    0.000674   -0.001130
   15.162082    1.681223    1.681542    1.681407   -0.000769    0.000811   -0.001286
   15.583251   -0.834720   -0.834761   -0.834862   -0.000930    0.001037   -0.001514
   16.004420   -0.342977   -0.343879   -0.343895   -0.001212    0.001492   -0.001900
   16.425589   -0.654118   -0.657924   -0.657658   -0.001749    0.002948   -0.002671
   16.846757   -0.550077   -0.545906   -0.545906    0.011197    0.010860    0.003647
   17.267926   -0.847692   -0.837089   -0.839435    0.001839   -0.001177   -0.000015
   17.689095   -1.038311   -1.030156   -1.031108    0.000882   -0.000338   -0.000684
   18.110264   -0.584340   -0.575538   -0.576743    0.000189    0.000286   -0.001598
   18.531433   -0.691915   -0.680185   -0.681972   -0.000024    0.000966   -0.003050
   18.952602   -0.545752   -0.523735   -0.527240    0.001357    0.003400   -0.006755
   19.373771   -0.276806   -0.310068   -0.304572    0.039709    0.010883    0.015888
   19.794940   -0.077151   -0.091429   -0.089044    0.004396   -0.000958    0.005963
   20.216109    0.069264    0.061739    0.063013    0.001981   -0.000824    0.003305
   20.637278    0.143506    0.138536    0.139387    0.001271   -0.000660    0.002285
   21.058447    0.197552    0.193900    0.194530    0.000935   -0.000546    0.001747
   21.479616    0.276386    0.273530    0.274026    0.000740   -0.000464    0.001412
   21.900785    0.336921    0.334594    0.335001    0.000613   -0.000404    0.001182
   22.321954    0.387397    0.385445    0.385788    0.000523   -0.000357    0.001016
   22.743123    0.430756    0.429083    0.429379    0.000455   -0.000319    0.000888
   23.164291    0.468633    0.467175    0.467434    0.000403   -0.000288    0.000788
   23.585460    0.502110    0.500823    0.501052    0.000361   -0.000263    0.000707
   24.006629    0.531969    0.530819    0.531025    0.000326   -0.000241    0.000641
   24.427798    0.558804    0.557768    0.557954    0.000297   -0.000222    0.000585
   24.848967    0.583080    0.582140    0.582309    0.000273   -0.000206    0.000537
[...]
   35.799360    0.845468    0.845220    0.845266    0.000078   -0.000064    0.000155
   36.220529    0.849804    0.849566    0.849609    0.000076   -0.000062    0.000149
   36.641697    0.853946    0.853717    0.853759    0.000073   -0.000060    0.000145
   37.062866    0.857908    0.857686    0.857727    0.000071   -0.000058    0.000140
   37.484035    0.861700    0.861486    0.861525    0.000068   -0.000056    0.000135
   37.905204    0.865333    0.865125    0.865164    0.000066   -0.000055    0.000131
   38.326373    0.868816    0.868615    0.868652    0.000064   -0.000053    0.000127
   38.747542    0.872157    0.871963    0.871999    0.000063   -0.000052    0.000124
   39.168711    0.875366    0.875178    0.875212    0.000061   -0.000050    0.000120
   39.589880    0.878449    0.878266    0.878300    0.000059   -0.000049    0.000117
   40.011049    0.881413    0.881235    0.881268    0.000057   -0.000048    0.000114
   40.432218    0.884264    0.884092    0.884124    0.000056   -0.000046    0.000110
   40.853387    0.887009    0.886841    0.886872    0.000054   -0.000045    0.000108
   41.274556    0.889653    0.889490    0.889520    0.000053   -0.000044    0.000105
   41.695725    0.892201    0.892042    0.892071    0.000052   -0.000043    0.000102

  frequency dependent IMAGINARY DIELECTRIC FUNCTION (independent particle, no local field effects) current-current (2nd set in vasprun.xml)
     E(ev)      X         Y         Z        XY        YZ        ZX
    0.000000    3.872305    3.874553    3.874106   -0.297506   -0.151595   -0.047552
    0.421169    0.387978    0.388202    0.388158   -0.029765   -0.015167   -0.004758
    0.842338    0.195128    0.195241    0.195218   -0.014905   -0.007596   -0.002383
    1.263507    0.131368    0.131443    0.131428   -0.009962   -0.005077   -0.001593
    1.684676    0.099899    0.099956    0.099945   -0.007498   -0.003822   -0.001200
    2.105845    0.081370    0.081416    0.081407   -0.006026   -0.003072   -0.000965
    2.527014    0.069337    0.069375    0.069368   -0.005050   -0.002575   -0.000809
    2.948183    0.061045    0.061078    0.061072   -0.004358   -0.002222   -0.000699
    3.369351    0.055126    0.055155    0.055149   -0.003843   -0.001960   -0.000617
    3.790520    0.050828    0.050854    0.050849   -0.003446   -0.001759   -0.000554
    4.211689    0.047711    0.047735    0.047730   -0.003133   -0.001599   -0.000504
    4.632858    0.045509    0.045532    0.045527   -0.002880   -0.001471   -0.000465
    5.054027    0.044062    0.044083    0.044079   -0.002674   -0.001366   -0.000432
    5.475196    0.043284    0.043303    0.043299   -0.002502   -0.001279   -0.000405
    5.896365    0.043144    0.043163    0.043159   -0.002359   -0.001206   -0.000383
    6.317534    0.043675    0.043692    0.043689   -0.002238   -0.001145   -0.000364
    6.738703    0.044982    0.044999    0.044996   -0.002136   -0.001094   -0.000348
    7.159872    0.047305    0.047321    0.047318   -0.002049   -0.001050   -0.000335
    7.581041    0.051177    0.051193    0.051190   -0.001977   -0.001014   -0.000325
    8.002210    0.058088    0.058103    0.058100   -0.001916   -0.000983   -0.000316
    8.423379    0.075817    0.075832    0.075828   -0.001865   -0.000959   -0.000309
    8.844548    0.289999    0.290015    0.290012   -0.001825   -0.000939   -0.000304
    9.265717    0.149001    0.149016    0.149013   -0.001792   -0.000923   -0.000300
    9.686886    1.117411    1.117426    1.117423   -0.001768   -0.000912   -0.000298
   10.108054    0.738972    0.738986    0.738983   -0.001752   -0.000905   -0.000297
   10.529223    0.306598    0.306612    0.306609   -0.001744   -0.000903   -0.000298
   10.950392    0.798010    0.798023    0.798020   -0.001744   -0.000905   -0.000300
   11.371561    2.457276    2.457289    2.457286   -0.001752   -0.000911   -0.000305
   11.792730    1.580075    1.580088    1.580085   -0.001770   -0.000923   -0.000311
   12.213899    3.068319    3.068331    3.068327   -0.001797   -0.000940   -0.000320
   12.635068    2.379038    2.379049    2.379047   -0.001839   -0.000966   -0.000333
   13.056237    2.011221    2.011230    2.011227   -0.001892   -0.000998   -0.000348
   13.477406    2.770235    2.770242    2.770239   -0.001963   -0.001041   -0.000370
   13.898575    3.029075    3.029077    3.029074   -0.002057   -0.001099   -0.000398
   14.319744    3.103447    3.103441    3.103439   -0.002182   -0.001175   -0.000437
   14.740913    2.294937    2.294915    2.294915   -0.002352   -0.001279   -0.000492
   15.162082    2.858376    2.858320    2.858322   -0.002589   -0.001427   -0.000574
   15.583251    2.771307    2.771181    2.771192   -0.002963   -0.001655   -0.000720
   16.004420    2.173698    2.173354    2.173386   -0.003639   -0.002057   -0.001023
   16.425589    2.319654    2.318008    2.318126   -0.005502   -0.002893   -0.002061
   16.846757    2.320316    2.291717    2.295050   -0.011504    0.007397   -0.009263
   17.267926    0.898156    0.896923    0.897342   -0.000881    0.001712    0.000614
   17.689095    1.194860    1.195296    1.194207   -0.002607   -0.000584   -0.000925
   18.110264    0.448151    0.448635    0.448509   -0.003917   -0.001151   -0.000391
   18.531433    0.669222    0.670540    0.670312   -0.006449   -0.002209   -0.000906
   18.952602    0.113862    0.119894    0.118904   -0.014041   -0.004747   -0.003255
   19.373771    0.098603    0.151859    0.143166    0.015350    0.015318   -0.017153
   19.794940    0.029079    0.032054    0.031567    0.009463    0.004658   -0.000102
   20.216109    0.024116    0.024951    0.024813    0.005261    0.002503    0.000258
   20.637278    0.129168    0.129543    0.129482    0.003580    0.001694    0.000258
   21.058447    0.015817    0.016020    0.015986    0.002684    0.001271    0.000230
   21.479616    0.009304    0.009429    0.009408    0.002125    0.001009    0.000200
   21.900785    0.006978    0.007062    0.007048    0.001744    0.000831    0.000175
   22.321954    0.005578    0.005637    0.005627    0.001468    0.000701    0.000155
   22.743123    0.004592    0.004635    0.004628    0.001259    0.000603    0.000137
   23.164291    0.003851    0.003883    0.003878    0.001095    0.000526    0.000123
   23.585460    0.003273    0.003298    0.003294    0.000964    0.000464    0.000111
   24.006629    0.002812    0.002832    0.002829    0.000857    0.000414    0.000100
   24.427798    0.002441    0.002458    0.002455    0.000768    0.000371    0.000091
   24.848967    0.002143    0.002156    0.002154    0.000692    0.000335    0.000083
[...]
   35.799360    0.000190    0.000191    0.000191    0.000141    0.000069    0.000019
   36.220529    0.000177    0.000178    0.000177    0.000135    0.000066    0.000018
   36.641697    0.000164    0.000165    0.000165    0.000128    0.000063    0.000017
   37.062866    0.000153    0.000154    0.000154    0.000123    0.000060    0.000016
   37.484035    0.000143    0.000144    0.000144    0.000117    0.000057    0.000016
   37.905204    0.000134    0.000134    0.000134    0.000112    0.000055    0.000015
   38.326373    0.000125    0.000126    0.000126    0.000108    0.000053    0.000014
   38.747542    0.000117    0.000118    0.000118    0.000103    0.000051    0.000014
   39.168711    0.000110    0.000111    0.000111    0.000099    0.000049    0.000013
   39.589880    0.000104    0.000104    0.000104    0.000095    0.000047    0.000013
   40.011049    0.000097    0.000098    0.000098    0.000092    0.000045    0.000012
   40.432218    0.000092    0.000092    0.000092    0.000088    0.000043    0.000012
   40.853387    0.000086    0.000087    0.000087    0.000085    0.000042    0.000011
   41.274556    0.000081    0.000082    0.000082    0.000082    0.000040    0.000011
   41.695725    0.000077    0.000077    0.000077    0.000079    0.000039    0.000011

  frequency dependent      REAL DIELECTRIC FUNCTION (independent particle, no local field effects) current-current (2nd set in vasprun.xml)
     E(ev)        X           Y           Z          XY          YZ          ZX
    0.000000    1.815260    1.815734    1.815640   -0.000204    0.000193   -0.000397
    0.421169    1.816046    1.816520    1.816425   -0.000204    0.000193   -0.000397
    0.842338    1.818437    1.818911    1.818817   -0.000205    0.000193   -0.000398
    1.263507    1.822457    1.822932    1.822837   -0.000205    0.000194   -0.000399
    1.684676    1.828159    1.828635    1.828540   -0.000206    0.000194   -0.000400
    2.105845    1.835621    1.836099    1.836004   -0.000207    0.000195   -0.000402
    2.527014    1.844948    1.845428    1.845332   -0.000208    0.000197   -0.000404
    2.948183    1.856277    1.856759    1.856663   -0.000210    0.000198   -0.000407
    3.369351    1.869783    1.870268    1.870171   -0.000211    0.000200   -0.000410
    3.790520    1.885686    1.886173    1.886076   -0.000213    0.000202   -0.000414
    4.211689    1.904265    1.904756    1.904658   -0.000216    0.000204   -0.000418
    4.632858    1.925873    1.926368    1.926269   -0.000218    0.000207   -0.000423
    5.054027    1.950962    1.951461    1.951361   -0.000221    0.000210   -0.000428
    5.475196    1.980119    1.980623    1.980522   -0.000224    0.000213   -0.000434
    5.896365    2.014119    2.014628    2.014526   -0.000228    0.000217   -0.000441
    6.317534    2.054018    2.054533    2.054429   -0.000232    0.000221   -0.000449
    6.738703    2.101308    2.101829    2.101724   -0.000236    0.000225   -0.000457
    7.159872    2.158225    2.158753    2.158646   -0.000241    0.000231   -0.000466
    7.581041    2.228429    2.228963    2.228855   -0.000247    0.000236   -0.000476
    8.002210    2.318965    2.319507    2.319397   -0.000253    0.000243   -0.000487
    8.423379    2.449280    2.449831    2.449719   -0.000260    0.000250   -0.000499
    8.844548    2.540224    2.540786    2.540672   -0.000269    0.000256   -0.000514
    9.265717    2.770125    2.770693    2.770576   -0.000275    0.000266   -0.000528
    9.686886    2.840734    2.841311    2.841192   -0.000285    0.000276   -0.000545
   10.108054    2.388340    2.388928    2.388806   -0.000296    0.000287   -0.000564
   10.529223    3.033825    3.034423    3.034298   -0.000307    0.000300   -0.000585
   10.950392    3.520707    3.521316    3.521188   -0.000321    0.000315   -0.000609
   11.371561    3.015419    3.016038    3.015907   -0.000337    0.000331   -0.000637
   11.792730    2.611638    2.612267    2.612132   -0.000354    0.000351   -0.000667
   12.213899    3.362381    3.363017    3.362878   -0.000374    0.000374   -0.000703
   12.635068    1.325282    1.325924    1.325782   -0.000399    0.000401   -0.000744
   13.056237    2.436405    2.437049    2.436902   -0.000427    0.000435   -0.000794
   13.477406    3.772199    3.772837    3.772688   -0.000463    0.000475   -0.000851
   13.898575    1.737776    1.738394    1.738243   -0.000507    0.000527   -0.000922
   14.319744    0.534390    0.534966    0.534816   -0.000564    0.000594   -0.001011
   14.740913    1.434530    1.435021    1.434873   -0.000637    0.000688   -0.001125
   15.162082    1.642504    1.642826    1.642690   -0.000741    0.000827   -0.001280
   15.583251   -0.870715   -0.870753   -0.870855   -0.000898    0.001056   -0.001506
   16.004420   -0.368514   -0.369409   -0.369427   -0.001173    0.001516   -0.001888
   16.425589   -0.682240   -0.686023   -0.685761   -0.001689    0.002981   -0.002647
   16.846757   -0.578078   -0.573567   -0.573606    0.011329    0.010770    0.003755
   17.267926   -0.856886   -0.846268   -0.848613    0.001848   -0.001198   -0.000021
   17.689095   -1.050938   -1.042785   -1.043726    0.000907   -0.000334   -0.000677
   18.110264   -0.588833   -0.580032   -0.581236    0.000228    0.000297   -0.001597
   18.531433   -0.698936   -0.687215   -0.689000    0.000042    0.000989   -0.003043
   18.952602   -0.546845   -0.524877   -0.528374    0.001503    0.003451   -0.006727
   19.373771   -0.277727   -0.311570   -0.305979    0.039558    0.010722    0.016076
   19.794940   -0.077333   -0.091649   -0.089258    0.004299   -0.001007    0.005966
   20.216109    0.069131    0.061594    0.062870    0.001927   -0.000850    0.003303
   20.637278    0.142369    0.137393    0.138244    0.001234   -0.000678    0.002283
   21.058447    0.197525    0.193868    0.194499    0.000907   -0.000559    0.001745
   21.479616    0.276413    0.273554    0.274051    0.000718   -0.000475    0.001410
   21.900785    0.336965    0.334636    0.335043    0.000595   -0.000413    0.001181
   22.321954    0.387449    0.385495    0.385839    0.000507   -0.000365    0.001014
   22.743123    0.430813    0.429139    0.429435    0.000442   -0.000326    0.000887
   23.164291    0.468694    0.467234    0.467493    0.000391   -0.000294    0.000787
   23.585460    0.502172    0.500884    0.501113    0.000350   -0.000268    0.000706
   24.006629    0.532032    0.530881    0.531087    0.000317   -0.000246    0.000640
   24.427798    0.558867    0.557830    0.558016    0.000289   -0.000226    0.000584
   24.848967    0.583143    0.582201    0.582370    0.000265   -0.000210    0.000536
[...]
   35.799360    0.845504    0.845256    0.845302    0.000077   -0.000065    0.000155
   36.220529    0.849839    0.849601    0.849645    0.000074   -0.000063    0.000149
   36.641697    0.853981    0.853751    0.853793    0.000071   -0.000061    0.000144
   37.062866    0.857942    0.857720    0.857761    0.000069   -0.000059    0.000140
   37.484035    0.861733    0.861519    0.861558    0.000067   -0.000057    0.000135
   37.905204    0.865365    0.865158    0.865196    0.000065   -0.000055    0.000131
   38.326373    0.868847    0.868646    0.868683    0.000063   -0.000054    0.000127
   38.747542    0.872188    0.871994    0.872030    0.000061   -0.000052    0.000123
   39.168711    0.875396    0.875208    0.875242    0.000059   -0.000051    0.000120
   39.589880    0.878479    0.878296    0.878329    0.000058   -0.000050    0.000117
   40.011049    0.881442    0.881264    0.881297    0.000056   -0.000048    0.000113
   40.432218    0.884293    0.884120    0.884152    0.000055   -0.000047    0.000110
   40.853387    0.887037    0.886869    0.886900    0.000053   -0.000046    0.000107
   41.274556    0.889680    0.889517    0.889547    0.000052   -0.000045    0.000105
   41.695725    0.892227    0.892068    0.892098    0.000051   -0.000043    0.000102

 The outermost node in the dielectric function lies at epsilon=  20.0