 vasp.5.4.4.18Apr17-6-g9f103f2a35 (build Nov 03 2018 10:20:46) complex

 executed on             LinuxIFC date 2018.12.06  15:44:53

 INCAR:
 POTCAR:    PAW_PBE Xe_GW 08Jan2009

 POTCAR:    PAW_PBE Xe_GW 08Jan2009
   VRHFIN =Xe: s2p6

   TITEL  = PAW_PBE Xe_GW 08Jan2009
   POMASS =  131.294; ZVAL   =    8.000    mass and valenz
   ENMAX  =  179.547; ENMIN  =  134.660 eV

  PAW_PBE Xe_GW 08Jan2009               :

 POSCAR: Xe_FCC
  positions in direct lattice
  velocities in cartesian coordinates
 exchange correlation table for  LEXCH =        8
   RHO(1)=    0.500       N(1)  =     2000
   RHO(2)=  100.500       N(2)  =     4000

 ion  position               nearest neighbor table
   1  0.000  0.000  0.000-

IMPORTANT INFORMATION: All symmetrisations will be switched off!
NOSYMM: (Re-)initialisation of all symmetry stuff for point group C_1.

 KPOINTS: k-points

Automatic generation of k-mesh.
Space group operators:
 irot       det(A)        alpha          n_x          n_y          n_z        tau_x        tau_y        tau_z
    1     1.000000     0.000000     1.000000     0.000000     0.000000     0.000000     0.000000     0.000000

 Subroutine IBZKPT returns following result:

 Found    343 irreducible k-points:

 Following reciprocal coordinates:
            Coordinates               Weight
  0.000000  0.000000  0.000000      1.000000
  0.142857 -0.000000 -0.000000      1.000000
  0.285714 -0.000000 -0.000000      1.000000
  0.428571  0.000000 -0.000000      1.000000
 -0.428571 -0.000000  0.000000      1.000000
 -0.285714  0.000000  0.000000      1.000000
 -0.142857 -0.000000  0.000000      1.000000
  0.000000  0.142857  0.000000      1.000000
  0.142857  0.142857 -0.000000      1.000000
  0.285714  0.142857 -0.000000      1.000000
  0.428571  0.142857 -0.000000      1.000000
 -0.428571  0.142857  0.000000      1.000000
 -0.285714  0.142857  0.000000      1.000000
 -0.142857  0.142857 -0.000000      1.000000
  0.000000  0.285714  0.000000      1.000000
  0.142857  0.285714 -0.000000      1.000000
  0.285714  0.285714 -0.000000      1.000000
  0.428571  0.285714 -0.000000      1.000000
 -0.428571  0.285714  0.000000      1.000000
 -0.285714  0.285714  0.000000      1.000000
 -0.142857  0.285714 -0.000000      1.000000
 -0.000000  0.428571  0.000000      1.000000
  0.142857  0.428571 -0.000000      1.000000
  0.285714  0.428571 -0.000000      1.000000
  0.428571  0.428571  0.000000      1.000000
 -0.428571  0.428571  0.000000      1.000000
 -0.285714  0.428571  0.000000      1.000000
 -0.142857  0.428571 -0.000000      1.000000
  0.000000 -0.428571  0.000000      1.000000
  0.142857 -0.428571  0.000000      1.000000
  0.285714 -0.428571 -0.000000      1.000000
  0.428571 -0.428571 -0.000000      1.000000
 -0.428571 -0.428571  0.000000      1.000000
 -0.285714 -0.428571  0.000000      1.000000
 -0.142857 -0.428571  0.000000      1.000000
 -0.000000 -0.285714  0.000000      1.000000
  0.142857 -0.285714 -0.000000      1.000000
  0.285714 -0.285714 -0.000000      1.000000
  0.428571 -0.285714 -0.000000      1.000000
 -0.428571 -0.285714  0.000000      1.000000
 -0.285714 -0.285714  0.000000      1.000000
 -0.142857 -0.285714  0.000000      1.000000
  0.000000 -0.142857 -0.000000      1.000000
  0.142857 -0.142857 -0.000000      1.000000
  0.285714 -0.142857 -0.000000      1.000000
  0.428571 -0.142857 -0.000000      1.000000
 -0.428571 -0.142857  0.000000      1.000000
 -0.285714 -0.142857  0.000000      1.000000
 -0.142857 -0.142857 -0.000000      1.000000
  0.000000  0.000000  0.142857      1.000000
  0.142857 -0.000000  0.142857      1.000000
  0.285714 -0.000000  0.142857      1.000000
  0.428571  0.000000  0.142857      1.000000
 -0.428571 -0.000000  0.142857      1.000000
 -0.285714  0.000000  0.142857      1.000000
 -0.142857 -0.000000  0.142857      1.000000
  0.000000  0.142857  0.142857      1.000000
  0.142857  0.142857  0.142857      1.000000
  0.285714  0.142857  0.142857      1.000000
  0.428571  0.142857  0.142857      1.000000
[...]
 -0.142857 -0.428571 -0.142857      1.000000
 -0.000000 -0.285714 -0.142857      1.000000
  0.142857 -0.285714 -0.142857      1.000000
  0.285714 -0.285714 -0.142857      1.000000
  0.428571 -0.285714 -0.142857      1.000000
 -0.428571 -0.285714 -0.142857      1.000000
 -0.285714 -0.285714 -0.142857      1.000000
 -0.142857 -0.285714 -0.142857      1.000000
  0.000000 -0.142857 -0.142857      1.000000
  0.142857 -0.142857 -0.142857      1.000000
  0.285714 -0.142857 -0.142857      1.000000
  0.428571 -0.142857 -0.142857      1.000000
 -0.428571 -0.142857 -0.142857      1.000000
 -0.285714 -0.142857 -0.142857      1.000000
 -0.142857 -0.142857 -0.142857      1.000000

 Following cartesian coordinates:
            Coordinates               Weight
  0.000000  0.000000  0.000000      1.000000
  0.032232 -0.018609 -0.013159      1.000000
  0.064463 -0.037218 -0.026317      1.000000
  0.096695 -0.055827 -0.039476      1.000000
 -0.096695  0.055827  0.039476      1.000000
 -0.064463  0.037218  0.026317      1.000000
 -0.032232  0.018609  0.013159      1.000000
  0.000000  0.037218 -0.013159      1.000000
  0.032232  0.018609 -0.026317      1.000000
  0.064463  0.000000 -0.039476      1.000000
  0.096695 -0.018609 -0.052634      1.000000
 -0.096695  0.093045  0.026317      1.000000
 -0.064463  0.074436  0.013159      1.000000
 -0.032232  0.055827  0.000000      1.000000
  0.000000  0.074436 -0.026317      1.000000
  0.032232  0.055827 -0.039476      1.000000
  0.064463  0.037218 -0.052634      1.000000
  0.096695  0.018609 -0.065793      1.000000
 -0.096695  0.130263  0.013159      1.000000
 -0.064463  0.111654  0.000000      1.000000
 -0.032232  0.093045 -0.013159      1.000000
  0.000000  0.111654 -0.039476      1.000000
  0.032232  0.093045 -0.052634      1.000000
  0.064463  0.074436 -0.065793      1.000000
  0.096695  0.055827 -0.078951      1.000000
 -0.096695  0.167481  0.000000      1.000000
 -0.064463  0.148872 -0.013159      1.000000
 -0.032232  0.130263 -0.026317      1.000000
 -0.000000 -0.111654  0.039476      1.000000
  0.032232 -0.130263  0.026317      1.000000
  0.064463 -0.148872  0.013159      1.000000
  0.096695 -0.167481 -0.000000      1.000000
 -0.096695 -0.055827  0.078951      1.000000
 -0.064463 -0.074436  0.065793      1.000000
 -0.032232 -0.093045  0.052634      1.000000
 -0.000000 -0.074436  0.026317      1.000000
  0.032232 -0.093045  0.013159      1.000000
  0.064463 -0.111654 -0.000000      1.000000
  0.096695 -0.130263 -0.013159      1.000000
 -0.096695 -0.018609  0.065793      1.000000
 -0.064463 -0.037218  0.052634      1.000000
 -0.032232 -0.055827  0.039476      1.000000
 -0.000000 -0.037218  0.013159      1.000000
  0.032232 -0.055827 -0.000000      1.000000
  0.064463 -0.074436 -0.013159      1.000000
  0.096695 -0.093045 -0.026317      1.000000
 -0.096695  0.018609  0.052634      1.000000
 -0.064463  0.000000  0.039476      1.000000
 -0.032232 -0.018609  0.026317      1.000000
 -0.000000  0.000000  0.039476      1.000000
  0.032232 -0.018609  0.026317      1.000000
  0.064463 -0.037218  0.013159      1.000000
  0.096695 -0.055827 -0.000000      1.000000
 -0.096695  0.055827  0.078951      1.000000
 -0.064463  0.037218  0.065793      1.000000
 -0.032232  0.018609  0.052634      1.000000
 -0.000000  0.037218  0.026317      1.000000
  0.032232  0.018609  0.013159      1.000000
  0.064463  0.000000  0.000000      1.000000
  0.096695 -0.018609 -0.013159      1.000000
[...]
 -0.032232 -0.093045  0.013159      1.000000
  0.000000 -0.074436 -0.013159      1.000000
  0.032232 -0.093045 -0.026317      1.000000
  0.064463 -0.111654 -0.039476      1.000000
  0.096695 -0.130263 -0.052634      1.000000
 -0.096695 -0.018609  0.026317      1.000000
 -0.064463 -0.037218  0.013159      1.000000
 -0.032232 -0.055827 -0.000000      1.000000
  0.000000 -0.037218 -0.026317      1.000000
  0.032232 -0.055827 -0.039476      1.000000
  0.064463 -0.074436 -0.052634      1.000000
  0.096695 -0.093045 -0.065793      1.000000
 -0.096695  0.018609  0.013159      1.000000
 -0.064463  0.000000  0.000000      1.000000
 -0.032232 -0.018609 -0.013159      1.000000

 SYSTEM =  Og_FCC
 POSCAR =  Xe_FCC

 Startparameter for this run:
   NWRITE =      2    write-flag & timer
   PREC   = accura    normal or accurate (medium, high low for compatibility)
   ISTART =      1    job   : 0-new  1-cont  2-samecut
   ICHARG =      0    charge: 1-file 2-atom 10-const
   ISPIN  =      1    spin polarized calculation?
   LNONCOLLINEAR =      T non collinear calculations
   LSORBIT =      T    spin-orbit coupling
   INIWAV =      1    electr: 0-lowe 1-rand  2-diag
   LASPH  =      F    aspherical Exc in radial PAW
   METAGGA=      F    non-selfconsistent MetaGGA calc.

 Electronic Relaxation 1
   ENCUT  =  300.0 eV  22.05 Ry    4.70 a.u.   6.12  6.12  6.12*2*pi/ulx,y,z
   ENINI  =  300.0     initial cutoff
   ENAUG  =  605.9 eV  augmentation charge cutoff
   NELM   =     50;   NELMIN=  2; NELMDL= -5     # of ELM steps
   EDIFF  = 0.1E-07   stopping-criterion for ELM
   LREAL  =      F    real-space projection
   NLSPLINE    = F    spline interpolate recip. space projectors
   LCOMPAT=      F    compatible to vasp.4.4
   GGA_COMPAT  = F    GGA compatible to vasp.4.4-vasp.4.6
   LMAXPAW     = -100 max onsite density
   LMAXMIX     =    2 max onsite mixed and CHGCAR
   VOSKOWN=      0    Vosko Wilk Nusair interpolation
   ROPT   =    0.00000
 Ionic relaxation
   EDIFFG = 0.1E-04   stopping-criterion for IOM
   NSW    =      1    number of steps for IOM
   NBLOCK =      1;   KBLOCK =      1    inner block; outer block
   IBRION =     -1    ionic relax: 0-MD 1-quasi-New 2-CG
   NFREE  =      5    steps in history (QN), initial steepest desc. (CG)
   ISIF   =      3    stress and relaxation
   IWAVPR =     10    prediction:  0-non 1-charg 2-wave 3-comb
   ISYM   =      0    0-nonsym 1-usesym 2-fastsym
   LCORR  =      T    Harris-Foulkes like correction to forces

   POTIM  = 0.1000    time-step for ionic-motion
   TEIN   =    0.0    initial temperature
   TEBEG  =    0.0;   TEEND  =   0.0 temperature during run
   SMASS  =  -3.00    Nose mass-parameter (am)
   estimated Nose-frequenzy (Omega)   =  0.10E-29 period in steps =****** mass=  -0.430E-27a.u.
   SCALEE = 1.0000    scale energy and forces
   NPACO  =    256;   APACO  = 16.0  distance and # of slots for P.C.
   PSTRESS=    0.0 pullay stress

  Mass of Ions in am
   POMASS = 131.29
  Ionic Valenz
   ZVAL   =   8.00
  Atomic Wigner-Seitz radii
  virtual crystal weights
   VCA    =   1.00
   NELECT =       8.0000    total number of electrons
   NUPDOWN=      -1.0000    fix difference up-down

 DOS related values:
   EMIN   =  10.00;   EMAX   =-10.00  energy-range for DOS
   EFERMI =   0.00
   ISMEAR =     0;   SIGMA  =   0.00  broadening in eV -4-tet -1-fermi 0-gaus

 Electronic relaxation 2 (details)
   IALGO  =     38    algorithm
   LDIAG  =      T    sub-space diagonalisation (order eigenvalues)
   LSUBROT=      F    optimize rotation matrix (better conditioning)
   TURBO    =      0    0=normal 1=particle mesh
   IRESTART =      0    0=no restart 2=restart with 2 vectors
   NREBOOT  =      0    no. of reboots
[...]
   16.378211   -0.288406   -0.288362   -0.288919    0.000330   -0.000341    0.000213
   16.712461   -0.433444   -0.433350   -0.433666    0.000063   -0.000205    0.000003
   17.046710   -0.201965   -0.201885   -0.202100    0.000020   -0.000123   -0.000009
   17.380959   -0.123199   -0.123129   -0.123295    0.000007   -0.000086   -0.000009
   17.715208    0.015040    0.015104    0.014967    0.000002   -0.000065   -0.000008
   18.049457    0.106844    0.106901    0.106784   -0.000001   -0.000052   -0.000006
   18.383707    0.178169    0.178221    0.178119   -0.000002   -0.000043   -0.000005
   18.717956    0.237212    0.237259    0.237169   -0.000003   -0.000036   -0.000005
   19.052205    0.287954    0.287998    0.287917   -0.000003   -0.000031   -0.000004
   19.386454    0.331281    0.331321    0.331248   -0.000003   -0.000027   -0.000003
   19.720703    0.371381    0.371418    0.371351   -0.000003   -0.000024   -0.000003
[...]
   28.411183    0.766778    0.766789    0.766771   -0.000001   -0.000005   -0.000001
   28.745432    0.773249    0.773260    0.773243   -0.000001   -0.000005   -0.000001
   29.079681    0.779434    0.779445    0.779428   -0.000001   -0.000005   -0.000001
   29.413931    0.785351    0.785361    0.785345   -0.000001   -0.000005   -0.000000
   29.748180    0.791018    0.791028    0.791012   -0.000001   -0.000005   -0.000000
   30.082429    0.796449    0.796458    0.796443   -0.000001   -0.000004   -0.000000
   30.416678    0.801658    0.801667    0.801652   -0.000001   -0.000004   -0.000000
   30.750927    0.806658    0.806667    0.806653   -0.000001   -0.000004   -0.000000
   31.085177    0.811462    0.811470    0.811456   -0.000001   -0.000004   -0.000000
   31.419426    0.816079    0.816087    0.816073   -0.000001   -0.000004   -0.000000
   31.753675    0.820519    0.820527    0.820514   -0.000001   -0.000004   -0.000000
   32.087924    0.824793    0.824801    0.824788   -0.000001   -0.000004   -0.000000
   32.422173    0.828908    0.828916    0.828904   -0.000001   -0.000004   -0.000000
   32.756423    0.832874    0.832881    0.832869   -0.000001   -0.000003   -0.000000
   33.090672    0.836696    0.836704    0.836692   -0.000001   -0.000003   -0.000000

  frequency dependent IMAGINARY DIELECTRIC FUNCTION (independent particle, no local field effects) current-current (2nd set in vasprun.xml)
     E(ev)      X         Y         Z        XY        YZ        ZX
    0.000000    8.940811    8.940623    8.940896    0.000838    0.000105    0.000219
    0.334249    0.896274    0.896255    0.896283    0.000084    0.000011    0.000022
    0.668498    0.451489    0.451479    0.451493    0.000042    0.000005    0.000011
    1.002748    0.304781    0.304775    0.304784    0.000028    0.000004    0.000008
    1.336997    0.232669    0.232664    0.232671    0.000021    0.000003    0.000006
    1.671246    0.190486    0.190482    0.190488    0.000017    0.000002    0.000005
    2.005495    0.163375    0.163372    0.163376    0.000015    0.000002    0.000004
    2.339744    0.145001    0.144998    0.145002    0.000013    0.000002    0.000004
    2.673994    0.132237    0.132234    0.132238    0.000011    0.000002    0.000003
    3.008243    0.123394    0.123392    0.123395    0.000010    0.000002    0.000003
    3.342492    0.117522    0.117520    0.117523    0.000010    0.000001    0.000003
    3.676741    0.114104    0.114102    0.114105    0.000009    0.000001    0.000003
    4.010991    0.112926    0.112924    0.112927    0.000009    0.000001    0.000003
    4.345240    0.114049    0.114047    0.114049    0.000008    0.000001    0.000003
    4.679489    0.117909    0.117908    0.117910    0.000008    0.000001    0.000003
    5.013738    0.125747    0.125745    0.125747    0.000008    0.000001    0.000003
    5.347987    0.141953    0.141951    0.141953    0.000007    0.000001    0.000003
    5.682237    0.215296    0.215295    0.215297    0.000007    0.000001    0.000003
    6.016486    0.235521    0.235519    0.235521    0.000007    0.000001    0.000003
    6.350735    0.706880    0.706879    0.706881    0.000007    0.000002    0.000003
    6.684984    0.930976    0.930974    0.930976    0.000007    0.000002    0.000003
    7.019233    0.611476    0.611474    0.611477    0.000008    0.000002    0.000003
    7.353483    1.375510    1.375509    1.375511    0.000008    0.000002    0.000003
    7.687732    1.993262    1.993260    1.993263    0.000008    0.000002    0.000003
    8.021981    5.150771    5.150769    5.150773    0.000008    0.000002    0.000003
    8.356230    3.952324    3.952322    3.952326    0.000008    0.000002    0.000004
    8.690479    4.444451    4.444448    4.444454    0.000008    0.000003    0.000002
    9.024729    3.655027    3.655027    3.655022    0.000013   -0.000000    0.000010
    9.358978    4.227766    4.227764    4.227766    0.000010    0.000002    0.000006
    9.693227    3.990353    3.990351    3.990354    0.000011    0.000003    0.000006
   10.027476    3.681951    3.681949    3.681952    0.000012    0.000003    0.000007
   10.361726    3.989670    3.989668    3.989669    0.000014    0.000003    0.000008
   10.695975    3.970061    3.970059    3.970062    0.000015    0.000004    0.000009
   11.030224    3.700346    3.700343    3.700347    0.000016    0.000005    0.000010
   11.364473    3.085327    3.085324    3.085326    0.000019    0.000005    0.000013
   11.698722    2.610031    2.610027    2.610032    0.000022    0.000007    0.000014
   12.032972    2.248907    2.248901    2.248906    0.000026    0.000007    0.000017
   12.367221    2.563441    2.563434    2.563445    0.000030    0.000011    0.000018
   12.701470    1.722868    1.722859    1.722869    0.000040    0.000012    0.000026
   13.035719    1.068586    1.068572    1.068587    0.000053    0.000017    0.000034
   13.369968    1.267418    1.267395    1.267419    0.000077    0.000025    0.000047
   13.704218    1.200480    1.200424    1.200480    0.000130    0.000046    0.000078
   14.038467    1.019177    1.018710    1.019144    0.000381    0.000253    0.000276
   14.372716    0.860176    0.859975    0.860197    0.000232    0.000079    0.000162
   14.706965    0.750147    0.749023    0.750177    0.000012   -0.000885   -0.000254
   15.041214    0.794565    0.794220    0.794624   -0.000427   -0.000200   -0.000391
   15.375464    0.793952    0.793873    0.793995   -0.000217   -0.000043   -0.000321
   15.709713    0.368152    0.368138    0.368202   -0.000312   -0.000063   -0.000325
   16.043962    0.661350    0.661425    0.661654   -0.000601    0.000115   -0.000465
   16.378211    0.312925    0.312805    0.313258    0.000278    0.000564    0.000401
   16.712461    0.433789    0.433784    0.433832    0.000145    0.000119    0.000172
   17.046710    0.114130    0.114128    0.114145    0.000079    0.000053    0.000088
   17.380959    0.051650    0.051648    0.051658    0.000050    0.000031    0.000054
   17.715208    0.021477    0.021476    0.021482    0.000035    0.000020    0.000037
   18.049457    0.014011    0.014010    0.014014    0.000025    0.000015    0.000027
   18.383707    0.010350    0.010350    0.010352    0.000019    0.000011    0.000021
   18.717956    0.008148    0.008147    0.008150    0.000015    0.000009    0.000016
   19.052205    0.006921    0.006921    0.006922    0.000012    0.000007    0.000013
   19.386454    0.006354    0.006354    0.006355    0.000010    0.000006    0.000011
   19.720703    0.005801    0.005801    0.005802    0.000008    0.000005    0.000009
[...]
   28.411183    0.000340    0.000340    0.000340    0.000001    0.000000    0.000001
   28.745432    0.000315    0.000315    0.000315    0.000001    0.000000    0.000001
   29.079681    0.000293    0.000293    0.000293    0.000001    0.000000    0.000001
   29.413931    0.000273    0.000273    0.000273    0.000001    0.000000    0.000001
   29.748180    0.000254    0.000254    0.000254    0.000001    0.000000    0.000001
   30.082429    0.000238    0.000238    0.000238    0.000000    0.000000    0.000001
   30.416678    0.000223    0.000223    0.000223    0.000000    0.000000    0.000001
   30.750927    0.000209    0.000209    0.000209    0.000000    0.000000    0.000001
   31.085177    0.000196    0.000196    0.000196    0.000000    0.000000    0.000001
   31.419426    0.000184    0.000184    0.000184    0.000000    0.000000    0.000001
   31.753675    0.000173    0.000173    0.000173    0.000000    0.000000    0.000000
   32.087924    0.000163    0.000163    0.000163    0.000000    0.000000    0.000000
   32.422173    0.000153    0.000153    0.000153    0.000000    0.000000    0.000000
   32.756423    0.000144    0.000144    0.000144    0.000000    0.000000    0.000000
   33.090672    0.000136    0.000136    0.000136    0.000000    0.000000    0.000000

  frequency dependent      REAL DIELECTRIC FUNCTION (independent particle, no local field effects) current-current (2nd set in vasprun.xml)
     E(ev)        X           Y           Z          XY          YZ          ZX
    0.000000    2.493549    2.493518    2.493564    0.000005    0.000009    0.000000
    0.334249    2.495378    2.495347    2.495393    0.000005    0.000009    0.000000
    0.668498    2.500953    2.500921    2.500967    0.000005    0.000009    0.000000
    1.002748    2.510350    2.510318    2.510364    0.000005    0.000009    0.000000
    1.336997    2.523736    2.523704    2.523750    0.000005    0.000009    0.000000
    1.671246    2.541355    2.541324    2.541370    0.000005    0.000009    0.000000
    2.005495    2.563544    2.563512    2.563558    0.000005    0.000009    0.000000
    2.339744    2.590747    2.590715    2.590761    0.000005    0.000009    0.000000
    2.673994    2.623552    2.623519    2.623566    0.000005    0.000010    0.000000
    3.008243    2.662726    2.662693    2.662741    0.000005    0.000010    0.000000
    3.342492    2.709283    2.709250    2.709298    0.000005    0.000010    0.000000
    3.676741    2.764579    2.764546    2.764594    0.000005    0.000010    0.000000
    4.010991    2.830476    2.830442    2.830491    0.000005    0.000010    0.000000
    4.345240    2.909621    2.909586    2.909636    0.000005    0.000010    0.000000
    4.679489    3.006005    3.005970    3.006021    0.000005    0.000010    0.000000
    5.013738    3.126268    3.126232    3.126284    0.000005    0.000010    0.000000
    5.347987    3.283917    3.283881    3.283933    0.000005    0.000010    0.000000
    5.682237    3.515953    3.515916    3.515969    0.000006    0.000011    0.000000
    6.016486    3.682314    3.682277    3.682331    0.000005    0.000010    0.000000
    6.350735    4.089928    4.089889    4.089945    0.000006    0.000011    0.000000
    6.684984    3.978955    3.978915    3.978972    0.000006    0.000011    0.000000
    7.019233    4.558399    4.558358    4.558417    0.000006    0.000011    0.000000
    7.353483    4.831948    4.831906    4.831967    0.000006    0.000011    0.000000
    7.687732    4.901074    4.901030    4.901093    0.000006    0.000012    0.000000
    8.021981    5.942617    5.942572    5.942636    0.000007    0.000012   -0.000000
    8.356230    3.700672    3.700625    3.700691    0.000007    0.000012    0.000000
    8.690479    4.055292    4.055244    4.055313    0.000007    0.000013   -0.000001
    9.024729    1.872937    1.872886    1.872957    0.000008    0.000013   -0.000000
    9.358978    1.527943    1.527889    1.527964    0.000008    0.000013    0.000000
    9.693227    1.961738    1.961681    1.961760    0.000009    0.000013   -0.000000
   10.027476    1.249646    1.249586    1.249669    0.000009    0.000014    0.000000
   10.361726    0.362546    0.362482    0.362570    0.000011    0.000014   -0.000000
   10.695975    0.972181    0.972112    0.972206    0.000011    0.000015   -0.000000
   11.030224   -1.475362   -1.475437   -1.475336    0.000011    0.000015    0.000000
   11.364473   -0.524039   -0.524119   -0.524013    0.000014    0.000015    0.000001
   11.698722   -0.560449   -0.560539   -0.560420    0.000014    0.000016   -0.000001
   12.032972   -0.771325   -0.771425   -0.771295    0.000015    0.000018    0.000000
   12.367221   -1.092053   -1.092167   -1.092021    0.000019    0.000017   -0.000001
   12.701470   -1.110010   -1.110144   -1.109974    0.000021    0.000018   -0.000002
   13.035719   -1.182697   -1.182860   -1.182659    0.000026    0.000019   -0.000002
   13.369968   -0.542084   -0.542296   -0.542044    0.000034    0.000022   -0.000001
   13.704218   -0.796427   -0.796739   -0.796386    0.000047    0.000033    0.000007
   14.038467   -0.323196   -0.323715   -0.323156   -0.000037    0.000048    0.000004
   14.372716   -0.508394   -0.508616   -0.508286   -0.000217   -0.000378   -0.000303
   14.706965   -0.364810   -0.365291   -0.364970   -0.000791   -0.000368   -0.000962
   15.041214   -0.343971   -0.343577   -0.343669    0.000013    0.000494    0.000033
   15.375464   -0.530929   -0.530514   -0.530827   -0.000122    0.000201    0.000062
   15.709713   -0.449244   -0.448960   -0.449031   -0.000062    0.000294    0.000130
   16.043962   -0.156184   -0.155899   -0.155687    0.000177    0.000671    0.000471
   16.378211   -0.292028   -0.291983   -0.292546    0.000327   -0.000348    0.000208
   16.712461   -0.438851   -0.438758   -0.439074    0.000062   -0.000206    0.000001
   17.046710   -0.203398   -0.203318   -0.203534    0.000019   -0.000124   -0.000010
   17.380959   -0.123935   -0.123864   -0.124031    0.000007   -0.000086   -0.000009
   17.715208    0.014712    0.014776    0.014638    0.000002   -0.000065   -0.000008
   18.049457    0.106627    0.106684    0.106567   -0.000001   -0.000052   -0.000007
   18.383707    0.178011    0.178062    0.177960   -0.000002   -0.000043   -0.000006
   18.717956    0.237089    0.237136    0.237046   -0.000003   -0.000036   -0.000005
   19.052205    0.287853    0.287897    0.287816   -0.000003   -0.000031   -0.000004
   19.386454    0.331192    0.331232    0.331158   -0.000003   -0.000027   -0.000004
   19.720703    0.371303    0.371340    0.371273   -0.000003   -0.000024   -0.000003
[...]
   28.411183    0.766782    0.766793    0.766775   -0.000001   -0.000005   -0.000001
   28.745432    0.773254    0.773265    0.773247   -0.000001   -0.000005   -0.000001
   29.079681    0.779439    0.779450    0.779433   -0.000001   -0.000005   -0.000001
   29.413931    0.785356    0.785367    0.785350   -0.000001   -0.000005   -0.000000
   29.748180    0.791023    0.791033    0.791017   -0.000001   -0.000004   -0.000000
   30.082429    0.796454    0.796464    0.796448   -0.000001   -0.000004   -0.000000
   30.416678    0.801664    0.801673    0.801658   -0.000001   -0.000004   -0.000000
   30.750927    0.806664    0.806673    0.806659   -0.000001   -0.000004   -0.000000
   31.085177    0.811467    0.811476    0.811462   -0.000001   -0.000004   -0.000000
   31.419426    0.816084    0.816093    0.816079   -0.000001   -0.000004   -0.000000
   31.753675    0.820525    0.820533    0.820520   -0.000001   -0.000004   -0.000000
   32.087924    0.824799    0.824807    0.824794   -0.000001   -0.000004   -0.000000
   32.422173    0.828914    0.828922    0.828910   -0.000001   -0.000004   -0.000000
   32.756423    0.832880    0.832887    0.832875   -0.000001   -0.000003   -0.000000
   33.090672    0.836702    0.836710    0.836698   -0.000001   -0.000003   -0.000000

 The outermost node in the dielectric function lies at epsilon=  17.7

 Spin-Orbit-Coupling matrix elements

 Ion:    1  E_soc:     -0.2997963
 l=   1
     0.0000000    -0.0499596    -0.0499596
    -0.0499596     0.0000000    -0.0499596
    -0.0499596    -0.0499596     0.0000000
 l=   2
     0.0000000    -0.0000012     0.0000000    -0.0000012    -0.0000053
    -0.0000012     0.0000000    -0.0000040    -0.0000012    -0.0000012
     0.0000000    -0.0000040     0.0000000    -0.0000040     0.0000000
    -0.0000012    -0.0000012    -0.0000040     0.0000000    -0.0000012
    -0.0000053    -0.0000012     0.0000000    -0.0000012     0.0000000
 l=   3
     0.0000000     0.0000000     0.0000000     0.0000000     0.0000000     0.0000000    -0.0000000
     0.0000000     0.0000000    -0.0000000     0.0000000    -0.0000000    -0.0000000    -0.0000000
     0.0000000    -0.0000000     0.0000000    -0.0000000    -0.0000000    -0.0000000     0.0000000
     0.0000000     0.0000000    -0.0000000     0.0000000    -0.0000000     0.0000000     0.0000000
     0.0000000    -0.0000000    -0.0000000    -0.0000000     0.0000000    -0.0000000     0.0000000
     0.0000000    -0.0000000    -0.0000000     0.0000000    -0.0000000     0.0000000    -0.0000000
    -0.0000000    -0.0000000     0.0000000     0.0000000     0.0000000    -0.0000000     0.0000000