 vasp.5.4.4.18Apr17-6-g9f103f2a35 (build Nov 03 2018 10:20:46) complex

 executed on             LinuxIFC date 2018.12.04  12:04:44

 INCAR:
 POTCAR:    PAW_PBE Ne_GW 22Sep2014

 POTCAR:    PAW_PBE Ne_GW 22Sep2014
   VRHFIN =Ne: s2p6

   TITEL  = PAW_PBE Ne_GW 22Sep2014
   POMASS =   20.180; ZVAL   =    8.000    mass and valenz
   ENMAX  =  432.275; ENMIN  =  324.206 eV

  PAW_PBE Ne_GW 22Sep2014               :

 POSCAR: Ne_FCC
  positions in direct lattice
  velocities in cartesian coordinates
 exchange correlation table for  LEXCH =        8
   RHO(1)=    0.500       N(1)  =     2000
   RHO(2)=  100.500       N(2)  =     4000

 ion  position               nearest neighbor table
   1  0.000  0.000  0.000-

IMPORTANT INFORMATION: All symmetrisations will be switched off!
NOSYMM: (Re-)initialisation of all symmetry stuff for point group C_1.

 KPOINTS: k-points

Automatic generation of k-mesh.
Space group operators:
 irot       det(A)        alpha          n_x          n_y          n_z        tau_x        tau_y        tau_z
    1     1.000000     0.000000     1.000000     0.000000     0.000000     0.000000     0.000000     0.000000

 Subroutine IBZKPT returns following result:

 Found    216 irreducible k-points:

 Following reciprocal coordinates:
            Coordinates               Weight
  0.000000  0.000000  0.000000      1.000000
  0.166667 -0.000000 -0.000000      1.000000
  0.333333  0.000000 -0.000000      1.000000
  0.500000  0.000000 -0.000000      1.000000
 -0.333333  0.000000  0.000000      1.000000
 -0.166667  0.000000  0.000000      1.000000
  0.000000  0.166667  0.000000      1.000000
  0.166667  0.166667 -0.000000      1.000000
  0.333333  0.166667 -0.000000      1.000000
  0.500000  0.166667  0.000000      1.000000
 -0.333333  0.166667  0.000000      1.000000
 -0.166667  0.166667  0.000000      1.000000
  0.000000  0.333333 -0.000000      1.000000
  0.166667  0.333333  0.000000      1.000000
  0.333333  0.333333  0.000000      1.000000
  0.500000  0.333333  0.000000      1.000000
 -0.333333  0.333333  0.000000      1.000000
 -0.166667  0.333333 -0.000000      1.000000
  0.000000  0.500000 -0.000000      1.000000
  0.166667  0.500000 -0.000000      1.000000
  0.333333  0.500000 -0.000000      1.000000
  0.500000  0.500000 -0.000000      1.000000
 -0.333333  0.500000 -0.000000      1.000000
 -0.166667  0.500000  0.000000      1.000000
  0.000000 -0.333333  0.000000      1.000000
  0.166667 -0.333333  0.000000      1.000000
  0.333333 -0.333333 -0.000000      1.000000
  0.500000 -0.333333 -0.000000      1.000000
 -0.333333 -0.333333  0.000000      1.000000
 -0.166667 -0.333333 -0.000000      1.000000
  0.000000 -0.166667 -0.000000      1.000000
  0.166667 -0.166667 -0.000000      1.000000
  0.333333 -0.166667 -0.000000      1.000000
  0.500000 -0.166667  0.000000      1.000000
 -0.333333 -0.166667  0.000000      1.000000
 -0.166667 -0.166667  0.000000      1.000000
  0.000000  0.000000  0.166667      1.000000
  0.166667 -0.000000  0.166667      1.000000
  0.333333  0.000000  0.166667      1.000000
  0.500000  0.000000  0.166667      1.000000
 -0.333333  0.000000  0.166667      1.000000
 -0.166667  0.000000  0.166667      1.000000
  0.000000  0.166667  0.166667      1.000000
  0.166667  0.166667  0.166667      1.000000
  0.333333  0.166667  0.166667      1.000000
  0.500000  0.166667  0.166667      1.000000
 -0.333333  0.166667  0.166667      1.000000
 -0.166667  0.166667  0.166667      1.000000
  0.000000  0.333333  0.166667      1.000000
  0.166667  0.333333  0.166667      1.000000
  0.333333  0.333333  0.166667      1.000000
  0.500000  0.333333  0.166667      1.000000
 -0.333333  0.333333  0.166667      1.000000
 -0.166667  0.333333  0.166667      1.000000
  0.000000  0.500000  0.166667      1.000000
  0.166667  0.500000  0.166667      1.000000
  0.333333  0.500000  0.166667      1.000000
  0.500000  0.500000  0.166667      1.000000
 -0.333333  0.500000  0.166667      1.000000
 -0.166667  0.500000  0.166667      1.000000
[...]
  0.500000  0.500000 -0.166667      1.000000
 -0.333333  0.500000 -0.166667      1.000000
 -0.166667  0.500000 -0.166667      1.000000
  0.000000 -0.333333 -0.166667      1.000000
  0.166667 -0.333333 -0.166667      1.000000
  0.333333 -0.333333 -0.166667      1.000000
  0.500000 -0.333333 -0.166667      1.000000
 -0.333333 -0.333333 -0.166667      1.000000
 -0.166667 -0.333333 -0.166667      1.000000
  0.000000 -0.166667 -0.166667      1.000000
  0.166667 -0.166667 -0.166667      1.000000
  0.333333 -0.166667 -0.166667      1.000000
  0.500000 -0.166667 -0.166667      1.000000
 -0.333333 -0.166667 -0.166667      1.000000
 -0.166667 -0.166667 -0.166667      1.000000

 Following cartesian coordinates:
            Coordinates               Weight
  0.000000  0.000000  0.000000      1.000000
  0.056037 -0.032353 -0.022877      1.000000
  0.112074 -0.064706 -0.045754      1.000000
  0.168111 -0.097059 -0.068631      1.000000
 -0.112074  0.064706  0.045754      1.000000
 -0.056037  0.032353  0.022877      1.000000
  0.000000  0.064706 -0.022877      1.000000
  0.056037  0.032353 -0.045754      1.000000
  0.112074  0.000000 -0.068631      1.000000
  0.168111 -0.032353 -0.091508      1.000000
 -0.112074  0.129412  0.022877      1.000000
 -0.056037  0.097059  0.000000      1.000000
  0.000000  0.129412 -0.045754      1.000000
  0.056037  0.097059 -0.068631      1.000000
  0.112074  0.064706 -0.091508      1.000000
  0.168111  0.032353 -0.114385      1.000000
 -0.112074  0.194118  0.000000      1.000000
 -0.056037  0.161765 -0.022877      1.000000
  0.000000  0.194118 -0.068631      1.000000
  0.056037  0.161765 -0.091508      1.000000
  0.112074  0.129412 -0.114385      1.000000
  0.168111  0.097059 -0.137262      1.000000
 -0.112074  0.258824 -0.022877      1.000000
 -0.056037  0.226471 -0.045754      1.000000
  0.000000 -0.129412  0.045754      1.000000
  0.056037 -0.161765  0.022877      1.000000
  0.112074 -0.194118 -0.000000      1.000000
  0.168111 -0.226471 -0.022877      1.000000
 -0.112074 -0.064706  0.091508      1.000000
 -0.056037 -0.097059  0.068631      1.000000
  0.000000 -0.064706  0.022877      1.000000
  0.056037 -0.097059 -0.000000      1.000000
  0.112074 -0.129412 -0.022877      1.000000
  0.168111 -0.161765 -0.045754      1.000000
 -0.112074 -0.000000  0.068631      1.000000
 -0.056037 -0.032353  0.045754      1.000000
  0.000000  0.000000  0.068631      1.000000
  0.056037 -0.032353  0.045754      1.000000
  0.112074 -0.064706  0.022877      1.000000
  0.168111 -0.097059 -0.000000      1.000000
 -0.112074  0.064706  0.114385      1.000000
 -0.056037  0.032353  0.091508      1.000000
  0.000000  0.064706  0.045754      1.000000
  0.056037  0.032353  0.022877      1.000000
  0.112074  0.000000  0.000000      1.000000
  0.168111 -0.032353 -0.022877      1.000000
 -0.112074  0.129412  0.091508      1.000000
 -0.056037  0.097059  0.068631      1.000000
  0.000000  0.129412  0.022877      1.000000
  0.056037  0.097059  0.000000      1.000000
  0.112074  0.064706 -0.022877      1.000000
  0.168111  0.032353 -0.045754      1.000000
 -0.112074  0.194118  0.068631      1.000000
 -0.056037  0.161765  0.045754      1.000000
  0.000000  0.194118  0.000000      1.000000
  0.056037  0.161765 -0.022877      1.000000
  0.112074  0.129412 -0.045754      1.000000
  0.168111  0.097059 -0.068631      1.000000
 -0.112074  0.258824  0.045754      1.000000
 -0.056037  0.226471  0.022877      1.000000
[...]
  0.168111  0.097059 -0.205893      1.000000
 -0.112074  0.258824 -0.091508      1.000000
 -0.056037  0.226471 -0.114385      1.000000
  0.000000 -0.129412 -0.022877      1.000000
  0.056037 -0.161765 -0.045754      1.000000
  0.112074 -0.194118 -0.068631      1.000000
  0.168111 -0.226471 -0.091508      1.000000
 -0.112074 -0.064706  0.022877      1.000000
 -0.056037 -0.097059 -0.000000      1.000000
  0.000000 -0.064706 -0.045754      1.000000
  0.056037 -0.097059 -0.068631      1.000000
  0.112074 -0.129412 -0.091508      1.000000
  0.168111 -0.161765 -0.114385      1.000000
 -0.112074 -0.000000  0.000000      1.000000
 -0.056037 -0.032353 -0.022877      1.000000

 SYSTEM =  Og_FCC
 POSCAR =  Ne_FCC

 Startparameter for this run:
   NWRITE =      2    write-flag & timer
   PREC   = accura    normal or accurate (medium, high low for compatibility)
   ISTART =      0    job   : 0-new  1-cont  2-samecut
   ICHARG =      2    charge: 1-file 2-atom 10-const
   ISPIN  =      1    spin polarized calculation?
   LNONCOLLINEAR =      T non collinear calculations
   LSORBIT =      T    spin-orbit coupling
   INIWAV =      1    electr: 0-lowe 1-rand  2-diag
   LASPH  =      F    aspherical Exc in radial PAW
   METAGGA=      F    non-selfconsistent MetaGGA calc.

 Electronic Relaxation 1
   ENCUT  =  300.0 eV  22.05 Ry    4.70 a.u.   4.46  4.46  4.46*2*pi/ulx,y,z
   ENINI  =  300.0     initial cutoff
   ENAUG  =  755.8 eV  augmentation charge cutoff
   NELM   =     50;   NELMIN=  2; NELMDL= -5     # of ELM steps
   EDIFF  = 0.1E-07   stopping-criterion for ELM
   LREAL  =      F    real-space projection
   NLSPLINE    = F    spline interpolate recip. space projectors
   LCOMPAT=      F    compatible to vasp.4.4
   GGA_COMPAT  = F    GGA compatible to vasp.4.4-vasp.4.6
   LMAXPAW     = -100 max onsite density
   LMAXMIX     =    2 max onsite mixed and CHGCAR
   VOSKOWN=      0    Vosko Wilk Nusair interpolation
   ROPT   =    0.00000
 Ionic relaxation
   EDIFFG = 0.1E-04   stopping-criterion for IOM
   NSW    =      1    number of steps for IOM
   NBLOCK =      1;   KBLOCK =      1    inner block; outer block
   IBRION =     -1    ionic relax: 0-MD 1-quasi-New 2-CG
   NFREE  =      5    steps in history (QN), initial steepest desc. (CG)
   ISIF   =      3    stress and relaxation
   IWAVPR =     10    prediction:  0-non 1-charg 2-wave 3-comb
   ISYM   =      0    0-nonsym 1-usesym 2-fastsym
   LCORR  =      T    Harris-Foulkes like correction to forces

   POTIM  = 0.1000    time-step for ionic-motion
   TEIN   =    0.0    initial temperature
   TEBEG  =    0.0;   TEEND  =   0.0 temperature during run
   SMASS  =  -3.00    Nose mass-parameter (am)
   estimated Nose-frequenzy (Omega)   =  0.10E-29 period in steps =****** mass=  -0.228E-27a.u.
   SCALEE = 1.0000    scale energy and forces
   NPACO  =    256;   APACO  = 16.0  distance and # of slots for P.C.
   PSTRESS=    0.0 pullay stress

  Mass of Ions in am
   POMASS =  20.18
  Ionic Valenz
   ZVAL   =   8.00
  Atomic Wigner-Seitz radii
  virtual crystal weights
   VCA    =   1.00
   NELECT =       8.0000    total number of electrons
   NUPDOWN=      -1.0000    fix difference up-down

 DOS related values:
   EMIN   =  10.00;   EMAX   =-10.00  energy-range for DOS
   EFERMI =   0.00
   ISMEAR =     0;   SIGMA  =   0.00  broadening in eV -4-tet -1-fermi 0-gaus

 Electronic relaxation 2 (details)
   IALGO  =     38    algorithm
   LDIAG  =      T    sub-space diagonalisation (order eigenvalues)
   LSUBROT=      F    optimize rotation matrix (better conditioning)
   TURBO    =      0    0=normal 1=particle mesh
   IRESTART =      0    0=no restart 2=restart with 2 vectors
   NREBOOT  =      0    no. of reboots
[...]
   33.235678    0.745096    0.745096    0.745098    0.000000   -0.000000    0.000000
   33.913957    0.797754    0.797754    0.797755    0.000000   -0.000000    0.000000
   34.592236    0.826474    0.826474    0.826475    0.000000   -0.000000    0.000000
   35.270515    0.846558    0.846558    0.846559    0.000000   -0.000000    0.000000
   35.948794    0.862025    0.862025    0.862026    0.000000   -0.000000    0.000000
   36.627074    0.874574    0.874574    0.874575    0.000000   -0.000000    0.000000
   37.305353    0.885041    0.885041    0.885041   -0.000000   -0.000000    0.000000
   37.983632    0.893819    0.893819    0.893820   -0.000000   -0.000000    0.000000
   38.661911    0.900715    0.900715    0.900716   -0.000000   -0.000000    0.000000
   39.340190    0.908766    0.908766    0.908767   -0.000000   -0.000000    0.000000
   40.018469    0.916688    0.916688    0.916688    0.000000   -0.000000    0.000000
[...]
   57.653727    0.965284    0.965284    0.965285   -0.000000   -0.000000   -0.000000
   58.332006    0.966598    0.966598    0.966598   -0.000000   -0.000000   -0.000000
   59.010285    0.967757    0.967757    0.967757   -0.000000   -0.000000   -0.000000
   59.688564    0.968810    0.968810    0.968811   -0.000000   -0.000000   -0.000000
   60.366844    0.969783    0.969783    0.969784   -0.000000   -0.000000   -0.000000
   61.045123    0.970691    0.970691    0.970691   -0.000000   -0.000000   -0.000000
   61.723402    0.971543    0.971543    0.971543   -0.000000   -0.000000   -0.000000
   62.401681    0.972348    0.972348    0.972348   -0.000000   -0.000000   -0.000000
   63.079960    0.973109    0.973109    0.973109   -0.000000   -0.000000   -0.000000
   63.758239    0.973833    0.973833    0.973833   -0.000000   -0.000000   -0.000000
   64.436518    0.974522    0.974522    0.974522   -0.000000   -0.000000   -0.000000
   65.114798    0.975179    0.975179    0.975179   -0.000000   -0.000000   -0.000000
   65.793077    0.975808    0.975808    0.975808   -0.000000   -0.000000   -0.000000
   66.471356    0.976409    0.976409    0.976409   -0.000000   -0.000000   -0.000000
   67.149635    0.976985    0.976985    0.976985   -0.000000   -0.000000   -0.000000

  frequency dependent IMAGINARY DIELECTRIC FUNCTION (independent particle, no local field effects) current-current (2nd set in vasprun.xml)
     E(ev)      X         Y         Z        XY        YZ        ZX
    0.000000    0.549261    0.549262    0.549261    0.000000   -0.000001    0.000001
    0.678279    0.055070    0.055070    0.055070    0.000000   -0.000000    0.000000
    1.356558    0.027755    0.027755    0.027755    0.000000   -0.000000    0.000000
    2.034837    0.018753    0.018753    0.018753    0.000000   -0.000000    0.000000
    2.713117    0.014336    0.014336    0.014336    0.000000   -0.000000    0.000000
    3.391396    0.011760    0.011760    0.011760    0.000000   -0.000000    0.000000
    4.069675    0.010113    0.010113    0.010113    0.000000   -0.000000    0.000000
    4.747954    0.009010    0.009010    0.009010    0.000000   -0.000000    0.000000
    5.426233    0.008259    0.008259    0.008259    0.000000   -0.000000    0.000000
    6.104512    0.007761    0.007761    0.007761    0.000000   -0.000000    0.000000
    6.782791    0.007465    0.007465    0.007465   -0.000000   -0.000000    0.000000
    7.461071    0.007350    0.007350    0.007350   -0.000000   -0.000000    0.000000
    8.139350    0.007424    0.007424    0.007424   -0.000000   -0.000000    0.000000
    8.817629    0.007731    0.007731    0.007731   -0.000000    0.000000    0.000000
    9.495908    0.008393    0.008393    0.008393   -0.000000    0.000000    0.000000
   10.174187    0.009761    0.009761    0.009761   -0.000000    0.000000    0.000000
   10.852466    0.013524    0.013524    0.013524   -0.000000    0.000000    0.000000
   11.530745    0.092146    0.092148    0.092145    0.000011   -0.000002   -0.000011
   12.209025    0.060749    0.060749    0.060749   -0.000000   -0.000000    0.000000
   12.887304    0.282534    0.282535    0.282533    0.000001    0.000000    0.000001
   13.565583    0.100732    0.100732    0.100733    0.000000   -0.000000    0.000000
   14.243862    0.164768    0.164769    0.164770    0.000000   -0.000001    0.000001
   14.922141    0.114432    0.114433    0.114432    0.000000    0.000000    0.000000
   15.600420    0.222108    0.222109    0.222109    0.000002   -0.000001   -0.000001
   16.278699    0.340827    0.340829    0.340829    0.000001   -0.000001    0.000002
   16.956979    0.123048    0.123049    0.123050    0.000001   -0.000001    0.000001
   17.635258    0.332513    0.332514    0.332514    0.000001   -0.000002    0.000002
   18.313537    0.086366    0.086367    0.086367    0.000000   -0.000000    0.000000
   18.991816    0.295187    0.295189    0.295191    0.000000   -0.000000    0.000001
   19.670095    0.454750    0.454753    0.454755    0.000001   -0.000001    0.000002
   20.348374    0.263768    0.263767    0.263767   -0.000001   -0.000000    0.000001
   21.026653    0.217273    0.217273    0.217273   -0.000000   -0.000000    0.000000
   21.704933    0.216793    0.216793    0.216792    0.000000   -0.000000    0.000000
   22.383212    0.912028    0.912028    0.912026    0.000001   -0.000000    0.000001
   23.061491    0.543686    0.543665    0.543659   -0.000008    0.000014   -0.000020
   23.739770    0.138215    0.138216    0.138217    0.000001   -0.000000    0.000000
   24.418049    0.225882    0.225880    0.225879   -0.000000    0.000001   -0.000001
   25.096328    0.460951    0.460949    0.460946    0.000000    0.000000    0.000001
   25.774607    0.350037    0.349975    0.349932   -0.000031    0.000048   -0.000071
   26.452886    0.372438    0.372435    0.372434    0.000000    0.000001   -0.000002
   27.131166    0.086607    0.086606    0.086606   -0.000000   -0.000000    0.000001
   27.809445    0.493954    0.493954    0.493926    0.000010   -0.000010    0.000016
   28.487724    0.544950    0.544949    0.544948    0.000002    0.000000   -0.000001
   29.166003    0.188932    0.188932    0.188930   -0.000001    0.000001   -0.000002
   29.844282    0.271806    0.271805    0.271801    0.000001    0.000001   -0.000001
   30.522561    0.339515    0.339515    0.339513    0.000000    0.000001   -0.000001
   31.200840    0.084942    0.084942    0.084941   -0.000000    0.000000   -0.000000
   31.879120    0.059777    0.059777    0.059776   -0.000000    0.000000   -0.000000
   32.557399    0.174254    0.174255    0.174256   -0.000000   -0.000001    0.000001
   33.235678    0.011031    0.011031    0.011031   -0.000000    0.000000    0.000000
   33.913957    0.004125    0.004125    0.004125   -0.000000    0.000000    0.000000
   34.592236    0.002449    0.002449    0.002449   -0.000000    0.000000    0.000000
   35.270515    0.001695    0.001695    0.001695    0.000000    0.000000    0.000000
   35.948794    0.001273    0.001273    0.001273    0.000000    0.000000    0.000000
   36.627074    0.001244    0.001244    0.001244    0.000000    0.000000    0.000000
   37.305353    0.000869    0.000869    0.000869    0.000000    0.000000    0.000000
   37.983632    0.001069    0.001069    0.001069    0.000000    0.000000    0.000000
   38.661911    0.001741    0.001741    0.001741    0.000000    0.000000    0.000000
   39.340190    0.000837    0.000837    0.000837    0.000000    0.000000    0.000000
   40.018469    0.001617    0.001617    0.001617    0.000000   -0.000000    0.000000
[...]
   57.653727    0.000089    0.000089    0.000089   -0.000000    0.000000    0.000000
   58.332006    0.000066    0.000066    0.000066   -0.000000    0.000000    0.000000
   59.010285    0.000053    0.000053    0.000053   -0.000000    0.000000    0.000000
   59.688564    0.000044    0.000044    0.000044   -0.000000    0.000000    0.000000
   60.366844    0.000038    0.000038    0.000038   -0.000000    0.000000    0.000000
   61.045123    0.000034    0.000034    0.000034   -0.000000    0.000000    0.000000
   61.723402    0.000030    0.000030    0.000030   -0.000000    0.000000    0.000000
   62.401681    0.000027    0.000027    0.000027   -0.000000    0.000000    0.000000
   63.079960    0.000024    0.000024    0.000024   -0.000000    0.000000    0.000000
   63.758239    0.000022    0.000022    0.000022   -0.000000    0.000000    0.000000
   64.436518    0.000020    0.000020    0.000020   -0.000000    0.000000    0.000000
   65.114798    0.000018    0.000018    0.000018   -0.000000    0.000000    0.000000
   65.793077    0.000017    0.000017    0.000017   -0.000000    0.000000    0.000000
   66.471356    0.000016    0.000016    0.000016   -0.000000    0.000000    0.000000
   67.149635    0.000015    0.000015    0.000015   -0.000000    0.000000    0.000000

  frequency dependent      REAL DIELECTRIC FUNCTION (independent particle, no local field effects) current-current (2nd set in vasprun.xml)
     E(ev)        X           Y           Z          XY          YZ          ZX
    0.000000    1.186252    1.186253    1.186252    0.000000   -0.000000    0.000000
    0.678279    1.186496    1.186496    1.186496    0.000000   -0.000000    0.000000
    1.356558    1.187239    1.187239    1.187239    0.000000   -0.000000    0.000000
    2.034837    1.188495    1.188495    1.188495    0.000000   -0.000000    0.000000
    2.713117    1.190291    1.190292    1.190291    0.000000   -0.000000    0.000000
    3.391396    1.192668    1.192669    1.192668    0.000000   -0.000000    0.000000
    4.069675    1.195684    1.195685    1.195684    0.000000   -0.000000    0.000000
    4.747954    1.199417    1.199418    1.199417    0.000000   -0.000000    0.000000
    5.426233    1.203974    1.203975    1.203974    0.000000   -0.000000    0.000000
    6.104512    1.209503    1.209503    1.209503    0.000000   -0.000000    0.000000
    6.782791    1.216208    1.216208    1.216208    0.000000   -0.000000    0.000000
    7.461071    1.224385    1.224385    1.224385    0.000000   -0.000000    0.000000
    8.139350    1.234478    1.234479    1.234478    0.000000   -0.000000    0.000000
    8.817629    1.247197    1.247198    1.247197    0.000000   -0.000000    0.000001
    9.495908    1.263789    1.263790    1.263789    0.000000   -0.000000    0.000001
   10.174187    1.286813    1.286814    1.286814    0.000000   -0.000000    0.000001
   10.852466    1.323607    1.323608    1.323607    0.000001   -0.000001    0.000001
   11.530745    1.363606    1.363608    1.363605   -0.000005    0.000012    0.000006
   12.209025    1.493786    1.493787    1.493787    0.000001   -0.000001    0.000002
   12.887304    1.077405    1.077405    1.077405    0.000000   -0.000000    0.000000
   13.565583    1.455422    1.455424    1.455425    0.000001   -0.000001    0.000001
   14.243862    1.460376    1.460378    1.460380    0.000001   -0.000001    0.000002
   14.922141    0.980572    0.980571    0.980572   -0.000000   -0.000000   -0.000000
   15.600420    1.304520    1.304521    1.304522   -0.000000    0.000000    0.000001
   16.278699    1.231124    1.231124    1.231125    0.000000   -0.000000    0.000000
   16.956979    1.267209    1.267210    1.267211    0.000000   -0.000001    0.000001
   17.635258    1.378305    1.378305    1.378305    0.000000   -0.000000    0.000001
   18.313537    1.212481    1.212480    1.212480   -0.000000    0.000000   -0.000000
   18.991816    1.195820    1.195818    1.195819   -0.000001    0.000000    0.000000
   19.670095    0.889177    0.889176    0.889176   -0.000001    0.000001   -0.000001
   20.348374    1.251819    1.251816    1.251816   -0.000001    0.000001   -0.000000
   21.026653    1.298557    1.298555    1.298554   -0.000001    0.000001   -0.000000
   21.704933    0.930848    0.930848    0.930847    0.000000    0.000000   -0.000000
   22.383212    1.090647    1.090647    1.090649    0.000000   -0.000001    0.000002
   23.061491    0.833041    0.833052    0.833056    0.000004   -0.000008    0.000011
   23.739770    0.932681    0.932679    0.932680   -0.000001    0.000001   -0.000000
   24.418049    1.054833    1.054833    1.054832    0.000001    0.000001   -0.000001
   25.096328    0.980870    0.980875    0.980878    0.000002   -0.000002    0.000003
   25.774607    0.912194    0.912106    0.912043   -0.000043    0.000067   -0.000106
   26.452886    0.888259    0.888259    0.888261    0.000001   -0.000001    0.000002
   27.131166    0.977393    0.977390    0.977389   -0.000001   -0.000001    0.000003
   27.809445    1.130218    1.130211    1.130197   -0.000005   -0.000004    0.000017
   28.487724    1.043508    1.043509    1.043505    0.000003   -0.000002    0.000004
   29.166003    0.768270    0.768270    0.768270    0.000002   -0.000001    0.000001
   29.844282    0.591244    0.591244    0.591247    0.000000   -0.000001    0.000001
   30.522561    0.724870    0.724871    0.724873   -0.000001   -0.000000   -0.000000
   31.200840    0.719275    0.719275    0.719275   -0.000001   -0.000001   -0.000000
   31.879120    0.679620    0.679619    0.679625    0.000000   -0.000000    0.000001
   32.557399    0.755206    0.755207    0.755208    0.000000   -0.000000    0.000001
   33.235678    0.745029    0.745029    0.745031    0.000000   -0.000000    0.000000
   33.913957    0.797725    0.797725    0.797726    0.000000   -0.000000    0.000000
   34.592236    0.826456    0.826456    0.826457    0.000000   -0.000000    0.000000
   35.270515    0.846545    0.846545    0.846546    0.000000   -0.000000    0.000000
   35.948794    0.862015    0.862015    0.862016    0.000000   -0.000000    0.000000
   36.627074    0.874565    0.874565    0.874566    0.000000   -0.000000    0.000000
   37.305353    0.885034    0.885034    0.885035    0.000000   -0.000000    0.000000
   37.983632    0.893812    0.893812    0.893812   -0.000000   -0.000000    0.000000
   38.661911    0.900706    0.900706    0.900706   -0.000000   -0.000000    0.000000
   39.340190    0.908761    0.908761    0.908762   -0.000000   -0.000000    0.000000
   40.018469    0.916677    0.916677    0.916677    0.000000   -0.000000    0.000000
[...]
   57.653727    0.965284    0.965284    0.965284   -0.000000   -0.000000   -0.000000
   58.332006    0.966598    0.966597    0.966598   -0.000000   -0.000000   -0.000000
   59.010285    0.967757    0.967757    0.967757   -0.000000   -0.000000   -0.000000
   59.688564    0.968810    0.968810    0.968811   -0.000000   -0.000000   -0.000000
   60.366844    0.969783    0.969783    0.969784   -0.000000   -0.000000   -0.000000
   61.045123    0.970691    0.970691    0.970691   -0.000000   -0.000000   -0.000000
   61.723402    0.971543    0.971543    0.971544   -0.000000   -0.000000   -0.000000
   62.401681    0.972348    0.972348    0.972348   -0.000000   -0.000000   -0.000000
   63.079960    0.973110    0.973110    0.973110   -0.000000   -0.000000   -0.000000
   63.758239    0.973833    0.973833    0.973833   -0.000000   -0.000000   -0.000000
   64.436518    0.974522    0.974522    0.974522   -0.000000   -0.000000   -0.000000
   65.114798    0.975180    0.975180    0.975180   -0.000000   -0.000000   -0.000000
   65.793077    0.975808    0.975808    0.975808   -0.000000   -0.000000   -0.000000
   66.471356    0.976409    0.976409    0.976409   -0.000000   -0.000000   -0.000000
   67.149635    0.976985    0.976985    0.976985   -0.000000   -0.000000   -0.000000

 The outermost node in the dielectric function lies at epsilon=  -1.0

 Spin-Orbit-Coupling matrix elements

 Ion:    1  E_soc:     -0.0005851
 l=   1
     0.0000000    -0.0000975    -0.0000975
    -0.0000975     0.0000000    -0.0000975
    -0.0000975    -0.0000975     0.0000000
 l=   2
     0.0000000    -0.0000000     0.0000000    -0.0000000    -0.0000000
    -0.0000000     0.0000000    -0.0000000    -0.0000000    -0.0000000
     0.0000000    -0.0000000     0.0000000    -0.0000000     0.0000000
    -0.0000000    -0.0000000    -0.0000000     0.0000000    -0.0000000
    -0.0000000    -0.0000000     0.0000000    -0.0000000     0.0000000
 l=   3
     0.0000000     0.0000000     0.0000000     0.0000000     0.0000000     0.0000000     0.0000000
     0.0000000     0.0000000     0.0000000     0.0000000     0.0000000     0.0000000     0.0000000
     0.0000000     0.0000000     0.0000000     0.0000000     0.0000000     0.0000000     0.0000000
     0.0000000     0.0000000     0.0000000     0.0000000     0.0000000     0.0000000     0.0000000
     0.0000000     0.0000000     0.0000000     0.0000000     0.0000000     0.0000000     0.0000000
     0.0000000     0.0000000     0.0000000     0.0000000     0.0000000     0.0000000     0.0000000
     0.0000000     0.0000000     0.0000000     0.0000000     0.0000000     0.0000000     0.0000000