 vasp.5.4.4.18Apr17-6-g9f103f2a35 (build Nov 03 2018 10:20:43) complex

 executed on             LinuxIFC date 2018.12.03  15:03:29

 INCAR:
 POTCAR:    PAW_PBE Kr_GW 21Aug2013

 POTCAR:    PAW_PBE Kr_GW 21Aug2013
   VRHFIN =Kr: s2p6

   TITEL  = PAW_PBE Kr_GW 21Aug2013
   POMASS =   83.800; ZVAL   =    8.000    mass and valenz
   ENMAX  =  252.232; ENMIN  =  189.174 eV

  PAW_PBE Kr_GW 21Aug2013               :

 POSCAR: Kr_FCC
  positions in direct lattice
  velocities in cartesian coordinates

 METAGGA = SCAN     LMAXTAU =  0    LMIXTAU =  F

 ion  position               nearest neighbor table
   1  0.000  0.000  0.000-

  LATTYP: Found a face centered cubic cell.
 ALAT       =     5.7283074117

  Lattice vectors:

 A1 = (   4.0505250154,   0.0000000000,   0.0000000000)
 A2 = (   2.0252625077,   3.5078575620,  -0.0000000000)
 A3 = (   2.0252625077,   1.1692858540,   3.3072398262)

Analysis of symmetry for initial positions (statically):
 Subroutine PRICEL returns:
 Original cell was already a primitive cell.

 Routine SETGRP: Setting up the symmetry group for a
 face centered cubic supercell.

 Subroutine GETGRP returns: Found 48 space group operations
 (whereof 48 operations were pure point group operations)
 out of a pool of 48 trial point group operations.

The static configuration has the point symmetry O_h .

Analysis of symmetry for dynamics (positions and initial velocities):
 Subroutine PRICEL returns:
 Original cell was already a primitive cell.

 Routine SETGRP: Setting up the symmetry group for a
 face centered cubic supercell.

 Subroutine GETGRP returns: Found 48 space group operations
 (whereof 48 operations were pure point group operations)
 out of a pool of 48 trial point group operations.

The dynamic configuration has the point symmetry O_h .

 Subroutine INISYM returns: Found 48 space group operations
 (whereof 48 operations are pure point group operations),
 and found     1 'primitive' translations

Automatic generation of k-mesh.
 generate k-points for:   10   10   10
Space group operators:
 irot       det(A)        alpha          n_x          n_y          n_z        tau_x        tau_y        tau_z
    1     1.000000     0.000000     1.000000     0.000000     0.000000     0.000000     0.000000     0.000000
    2    -1.000000     0.000000     1.000000     0.000000     0.000000     0.000000     0.000000     0.000000
    3     1.000000   120.000000    -0.816497    -0.471405    -0.333333     0.000000     0.000000     0.000000
    4    -1.000000   120.000000    -0.816497    -0.471405    -0.333333     0.000000     0.000000     0.000000
    5     1.000000   120.000000     0.816497     0.471405     0.333333     0.000000     0.000000     0.000000
    6    -1.000000   120.000000     0.816497     0.471405     0.333333     0.000000     0.000000     0.000000
    7     1.000000    90.000000    -0.707107    -0.408248     0.577350     0.000000     0.000000     0.000000
    8    -1.000000    90.000000    -0.707107    -0.408248     0.577350     0.000000     0.000000     0.000000
    9     1.000000   180.000000     1.000000     0.000000     0.000000     0.000000     0.000000     0.000000
   10    -1.000000   180.000000     1.000000     0.000000     0.000000     0.000000     0.000000     0.000000
   11     1.000000    90.000000     0.707107    -0.408248     0.577350     0.000000     0.000000     0.000000
   12    -1.000000    90.000000     0.707107    -0.408248     0.577350     0.000000     0.000000     0.000000
   13     1.000000   180.000000     0.707107     0.408248    -0.577350     0.000000     0.000000     0.000000
   14    -1.000000   180.000000     0.707107     0.408248    -0.577350     0.000000     0.000000     0.000000
   15     1.000000   120.000000     0.816497    -0.471405    -0.333333     0.000000     0.000000     0.000000
   16    -1.000000   120.000000     0.816497    -0.471405    -0.333333     0.000000     0.000000     0.000000
   17     1.000000   120.000000     0.000000    -0.942809     0.333333     0.000000     0.000000     0.000000
   18    -1.000000   120.000000     0.000000    -0.942809     0.333333     0.000000     0.000000     0.000000
   19     1.000000    90.000000     0.707107     0.408248    -0.577350     0.000000     0.000000     0.000000
   20    -1.000000    90.000000     0.707107     0.408248    -0.577350     0.000000     0.000000     0.000000
   21     1.000000    90.000000    -0.000000    -0.816497    -0.577350     0.000000     0.000000     0.000000
   22    -1.000000    90.000000    -0.000000    -0.816497    -0.577350     0.000000     0.000000     0.000000
   23     1.000000   180.000000     0.500000     0.866025     0.000000     0.000000     0.000000     0.000000
   24    -1.000000   180.000000     0.500000     0.866025     0.000000     0.000000     0.000000     0.000000
   25     1.000000   120.000000     0.000000     0.942809    -0.333333     0.000000     0.000000     0.000000
   26    -1.000000   120.000000     0.000000     0.942809    -0.333333     0.000000     0.000000     0.000000
   27     1.000000   120.000000    -0.000000     0.000000    -1.000000     0.000000     0.000000     0.000000
   28    -1.000000   120.000000    -0.000000     0.000000    -1.000000     0.000000     0.000000     0.000000
   29     1.000000   180.000000    -0.000000     0.816497     0.577350     0.000000     0.000000     0.000000
   30    -1.000000   180.000000    -0.000000     0.816497     0.577350     0.000000     0.000000     0.000000
   31     1.000000    90.000000    -0.707107     0.408248    -0.577350     0.000000     0.000000     0.000000
   32    -1.000000    90.000000    -0.707107     0.408248    -0.577350     0.000000     0.000000     0.000000
   33     1.000000   180.000000     0.500000     0.288675     0.816497     0.000000     0.000000     0.000000
   34    -1.000000   180.000000     0.500000     0.288675     0.816497     0.000000     0.000000     0.000000
   35     1.000000    90.000000    -0.000000     0.816497     0.577350     0.000000     0.000000     0.000000
   36    -1.000000    90.000000    -0.000000     0.816497     0.577350     0.000000     0.000000     0.000000
   37     1.000000   120.000000    -0.816497     0.471405     0.333333     0.000000     0.000000     0.000000
   38    -1.000000   120.000000    -0.816497     0.471405     0.333333     0.000000     0.000000     0.000000
   39     1.000000   179.999999     0.707107    -0.408248     0.577350     0.000000     0.000000     0.000000
   40    -1.000000   179.999999     0.707107    -0.408248     0.577350     0.000000     0.000000     0.000000
   41     1.000000   120.000000    -0.000000    -0.000000     1.000000     0.000000     0.000000     0.000000
   42    -1.000000   120.000000    -0.000000    -0.000000     1.000000     0.000000     0.000000     0.000000
   43     1.000000   180.000000    -0.000000    -0.577350     0.816497     0.000000     0.000000     0.000000
   44    -1.000000   180.000000    -0.000000    -0.577350     0.816497     0.000000     0.000000     0.000000
   45     1.000000   180.000000    -0.500000     0.866025     0.000000     0.000000     0.000000     0.000000
   46    -1.000000   180.000000    -0.500000     0.866025     0.000000     0.000000     0.000000     0.000000
   47     1.000000   180.000000    -0.500000     0.288675     0.816497     0.000000     0.000000     0.000000
   48    -1.000000   180.000000    -0.500000     0.288675     0.816497     0.000000     0.000000     0.000000

 Subroutine IBZKPT returns following result:

 Found     47 irreducible k-points:

 Following reciprocal coordinates:
            Coordinates               Weight
  0.000000  0.000000  0.000000      1.000000
  0.100000  0.000000  0.000000      8.000000
  0.200000  0.000000  0.000000      8.000000
  0.300000  0.000000  0.000000      8.000000
  0.400000  0.000000  0.000000      8.000000
  0.500000  0.000000  0.000000      4.000000
  0.100000  0.100000  0.000000      6.000000
  0.200000  0.100000  0.000000     24.000000
  0.300000  0.100000  0.000000     24.000000
  0.400000  0.100000  0.000000     24.000000
  0.500000  0.100000  0.000000     24.000000
 -0.400000  0.100000 -0.000000     24.000000
 -0.300000  0.100000  0.000000     24.000000
 -0.200000  0.100000  0.000000     24.000000
 -0.100000  0.100000 -0.000000     12.000000
  0.200000  0.200000  0.000000      6.000000
  0.300000  0.200000  0.000000     24.000000
  0.400000  0.200000  0.000000     24.000000
  0.500000  0.200000  0.000000     24.000000
 -0.400000  0.200000 -0.000000     24.000000
 -0.300000  0.200000 -0.000000     24.000000
 -0.200000  0.200000 -0.000000     12.000000
  0.300000  0.300000  0.000000      6.000000
  0.400000  0.300000  0.000000     24.000000
  0.500000  0.300000  0.000000     24.000000
 -0.400000  0.300000 -0.000000     24.000000
 -0.300000  0.300000 -0.000000     12.000000
  0.400000  0.400000  0.000000      6.000000
  0.500000  0.400000  0.000000     24.000000
 -0.400000  0.400000 -0.000000     12.000000
  0.500000  0.500000  0.000000      3.000000
  0.300000  0.200000  0.100000     24.000000
  0.400000  0.200000  0.100000     48.000000
  0.500000  0.200000  0.100000     48.000000
 -0.400000  0.200000  0.100000     24.000000
  0.400000  0.300000  0.100000     24.000000
  0.500000  0.300000  0.100000     48.000000
 -0.400000  0.300000  0.100000     48.000000
 -0.300000  0.300000  0.100000     48.000000
 -0.200000  0.300000  0.100000     24.000000
  0.500000  0.400000  0.100000     24.000000
 -0.400000  0.400000  0.100000     48.000000
 -0.300000  0.400000  0.100000     24.000000
 -0.400000  0.500000  0.100000     12.000000
 -0.400000  0.400000  0.200000     24.000000
 -0.300000  0.400000  0.200000     24.000000
 -0.300000  0.500000  0.200000     12.000000

 Following cartesian coordinates:
            Coordinates               Weight
  0.000000  0.000000  0.000000      1.000000
  0.024688 -0.014254 -0.010079      8.000000
  0.049376 -0.028507 -0.020158      8.000000
  0.074064 -0.042761 -0.030237      8.000000
  0.098753 -0.057015 -0.040316      8.000000
  0.123441 -0.071269 -0.050394      4.000000
  0.024688  0.014254 -0.020158      6.000000
  0.049376 -0.000000 -0.030237     24.000000
  0.074064 -0.014254 -0.040316     24.000000
  0.098753 -0.028507 -0.050394     24.000000
  0.123441 -0.042761 -0.060473     24.000000
 -0.098753  0.085522  0.030237     24.000000
 -0.074064  0.071269  0.020158     24.000000
 -0.049376  0.057015  0.010079     24.000000
 -0.024688  0.042761  0.000000     12.000000
  0.049376  0.028507 -0.040316      6.000000
  0.074064  0.014254 -0.050394     24.000000
  0.098753  0.000000 -0.060473     24.000000
  0.123441 -0.014254 -0.070552     24.000000
 -0.098753  0.114030  0.020158     24.000000
 -0.074064  0.099776  0.010079     24.000000
 -0.049376  0.085522  0.000000     12.000000
  0.074064  0.042761 -0.060473      6.000000
  0.098753  0.028507 -0.070552     24.000000
  0.123441  0.014254 -0.080631     24.000000
 -0.098753  0.142537  0.010079     24.000000
 -0.074064  0.128283  0.000000     12.000000
  0.098753  0.057015 -0.080631      6.000000
  0.123441  0.042761 -0.090710     24.000000
 -0.098753  0.171045  0.000000     12.000000
  0.123441  0.071269 -0.100789      3.000000
[...]

 quasi-Newton-method for relaxation of ions
 charge density and potential will be updated during run
 non-spin polarized calculation
 RMM-DIIS sequential band-by-band and
  variant of blocked Davidson during initial phase
 perform sub-space diagonalisation
    before iterative eigenvector-optimisation
 modified Broyden-mixing scheme, WC =      100.0
 initial mixing is a Kerker type mixing with AMIX =  0.4000 and BMIX =      1.0000
 Hartree-type preconditioning will be used
 using additional bands            4
 reciprocal scheme for non local part
 use partial core corrections
 calculate Harris-corrections to forces
   (improved forces if not selfconsistent)
 use gradient corrections
 use of overlap-Matrix (Vanderbilt PP)
 Methfessel and Paxton  Order N= 1 SIGMA  =   0.10

  energy-cutoff  :      600.00
  volume of cell :       46.99
      direct lattice vectors                 reciprocal lattice vectors
     4.050525015  0.000000000  0.000000000     0.246881576 -0.142537144 -0.100788981
     2.025262508  3.507857562 -0.000000000     0.000000000  0.285074289 -0.100788981
     2.025262508  1.169285854  3.307239826    -0.000000000  0.000000000  0.302366944

  length of vectors
     4.050525015  4.050525015  4.050525016     0.302366944  0.302366944  0.302366944

 k-points in units of 2pi/SCALE and weight: read from INCAR
   0.00000000  0.00000000  0.00000000       0.001
   0.02468816 -0.01425371 -0.01007890       0.008
   0.04937632 -0.02850743 -0.02015780       0.008
   0.07406447 -0.04276114 -0.03023669       0.008
   0.09875263 -0.05701486 -0.04031559       0.008
   0.12344079 -0.07126857 -0.05039449       0.004
   0.02468816  0.01425371 -0.02015780       0.006
   0.04937632 -0.00000000 -0.03023669       0.024
   0.07406447 -0.01425371 -0.04031559       0.024
   0.09875263 -0.02850743 -0.05039449       0.024
   0.12344079 -0.04276114 -0.06047339       0.024
  -0.09875263  0.08552229  0.03023669       0.024
  -0.07406447  0.07126857  0.02015780       0.024
  -0.04937632  0.05701486  0.01007890       0.024
  -0.02468816  0.04276114  0.00000000       0.012
   0.04937632  0.02850743 -0.04031559       0.006
   0.07406447  0.01425371 -0.05039449       0.024
   0.09875263  0.00000000 -0.06047339       0.024
   0.12344079 -0.01425371 -0.07055229       0.024
  -0.09875263  0.11402972  0.02015780       0.024
  -0.07406447  0.09977600  0.01007890       0.024
  -0.04937632  0.08552229  0.00000000       0.012
   0.07406447  0.04276114 -0.06047339       0.006
   0.09875263  0.02850743 -0.07055229       0.024
   0.12344079  0.01425371 -0.08063119       0.024
  -0.09875263  0.14253714  0.01007890       0.024
  -0.07406447  0.12828343  0.00000000       0.012
   0.09875263  0.05701486 -0.08063119       0.006
   0.12344079  0.04276114 -0.09071008       0.024
  -0.09875263  0.17104457  0.00000000       0.012
   0.12344079  0.07126857 -0.10078898       0.003
   0.07406447  0.01425371 -0.02015780       0.024
   0.09875263  0.00000000 -0.03023669       0.048
   0.12344079 -0.01425371 -0.04031559       0.048
  -0.09875263  0.11402972  0.05039449       0.024
   0.09875263  0.02850743 -0.04031559       0.024
   0.12344079  0.01425371 -0.05039449       0.048
  -0.09875263  0.14253714  0.04031559       0.048
  -0.07406447  0.12828343  0.03023669       0.048
  -0.04937632  0.11402972  0.02015780       0.024
   0.12344079  0.04276114 -0.06047339       0.024
  -0.09875263  0.17104457  0.03023669       0.048
  -0.07406447  0.15679086  0.02015780       0.024
  -0.09875263  0.19955200  0.02015780       0.012
  -0.09875263  0.17104457  0.06047339       0.024
  -0.07406447  0.15679086  0.05039449       0.024
  -0.07406447  0.18529829  0.04031559       0.012

 k-points in reciprocal lattice and weights: read from INCAR
   0.00000000  0.00000000  0.00000000       0.001
   0.10000000  0.00000000  0.00000000       0.008
   0.20000000  0.00000000  0.00000000       0.008
   0.30000000  0.00000000  0.00000000       0.008
   0.40000000  0.00000000  0.00000000       0.008
   0.50000000  0.00000000  0.00000000       0.004
   0.10000000  0.10000000  0.00000000       0.006
   0.20000000  0.10000000  0.00000000       0.024
   0.30000000  0.10000000  0.00000000       0.024
   0.40000000  0.10000000  0.00000000       0.024
   0.50000000  0.10000000  0.00000000       0.024
  -0.40000000  0.10000000 -0.00000000       0.024
  -0.30000000  0.10000000  0.00000000       0.024
  -0.20000000  0.10000000  0.00000000       0.024
  -0.10000000  0.10000000 -0.00000000       0.012
   0.20000000  0.20000000  0.00000000       0.006
   0.30000000  0.20000000  0.00000000       0.024
   0.40000000  0.20000000  0.00000000       0.024
   0.50000000  0.20000000  0.00000000       0.024
  -0.40000000  0.20000000 -0.00000000       0.024
  -0.30000000  0.20000000 -0.00000000       0.024
  -0.20000000  0.20000000 -0.00000000       0.012
   0.30000000  0.30000000  0.00000000       0.006
   0.40000000  0.30000000  0.00000000       0.024
   0.50000000  0.30000000  0.00000000       0.024
  -0.40000000  0.30000000 -0.00000000       0.024
  -0.30000000  0.30000000 -0.00000000       0.012
   0.40000000  0.40000000  0.00000000       0.006
   0.50000000  0.40000000  0.00000000       0.024
  -0.40000000  0.40000000 -0.00000000       0.012
   0.50000000  0.50000000  0.00000000       0.003
   0.30000000  0.20000000  0.10000000       0.024
   0.40000000  0.20000000  0.10000000       0.048
   0.50000000  0.20000000  0.10000000       0.048
  -0.40000000  0.20000000  0.10000000       0.024
   0.40000000  0.30000000  0.10000000       0.024
   0.50000000  0.30000000  0.10000000       0.048
  -0.40000000  0.30000000  0.10000000       0.048
  -0.30000000  0.30000000  0.10000000       0.048
  -0.20000000  0.30000000  0.10000000       0.024
   0.50000000  0.40000000  0.10000000       0.024
  -0.40000000  0.40000000  0.10000000       0.048
  -0.30000000  0.40000000  0.10000000       0.024
  -0.40000000  0.50000000  0.10000000       0.012
  -0.40000000  0.40000000  0.20000000       0.024
  -0.30000000  0.40000000  0.20000000       0.024
  -0.30000000  0.50000000  0.20000000       0.012

 position of ions in fractional coordinates (direct lattice)
   0.00000000  0.00000000  0.00000000

 position of ions in cartesian coordinates  (Angst):
   0.00000000  0.00000000  0.00000000

 k-point  1 :   0.0000 0.0000 0.0000  plane waves:    1471
 k-point  2 :   0.1000 0.0000 0.0000  plane waves:    1543
 k-point  3 :   0.2000 0.0000 0.0000  plane waves:    1552
 k-point  4 :   0.3000 0.0000 0.0000  plane waves:    1561
 k-point  5 :   0.4000 0.0000 0.0000  plane waves:    1586
 k-point  6 :   0.5000 0.0000 0.0000  plane waves:    1568
 k-point  7 :   0.1000 0.1000 0.0000  plane waves:    1547
 k-point  8 :   0.2000 0.1000 0.0000  plane waves:    1545
 k-point  9 :   0.3000 0.1000 0.0000  plane waves:    1571
 k-point 10 :   0.4000 0.1000 0.0000  plane waves:    1572
 k-point 11 :   0.5000 0.1000 0.0000  plane waves:    1556
 k-point 12 :  -0.4000 0.1000-0.0000  plane waves:    1560
 k-point 13 :  -0.3000 0.1000 0.0000  plane waves:    1568
 k-point 14 :  -0.2000 0.1000 0.0000  plane waves:    1565
 k-point 15 :  -0.1000 0.1000-0.0000  plane waves:    1550
 k-point 16 :   0.2000 0.2000 0.0000  plane waves:    1559
 k-point 17 :   0.3000 0.2000 0.0000  plane waves:    1568
 k-point 18 :   0.4000 0.2000 0.0000  plane waves:    1573
 k-point 19 :   0.5000 0.2000 0.0000  plane waves:    1571
 k-point 20 :  -0.4000 0.2000-0.0000  plane waves:    1560
 k-point 21 :  -0.3000 0.2000-0.0000  plane waves:    1562
 k-point 22 :  -0.2000 0.2000-0.0000  plane waves:    1558
 k-point 23 :   0.3000 0.3000 0.0000  plane waves:    1572
 k-point 24 :   0.4000 0.3000 0.0000  plane waves:    1571
 k-point 25 :   0.5000 0.3000 0.0000  plane waves:    1570
 k-point 26 :  -0.4000 0.3000-0.0000  plane waves:    1565
 k-point 27 :  -0.3000 0.3000-0.0000  plane waves:    1564
 k-point 28 :   0.4000 0.4000 0.0000  plane waves:    1584
 k-point 29 :   0.5000 0.4000 0.0000  plane waves:    1580
 k-point 30 :  -0.4000 0.4000-0.0000  plane waves:    1596
 k-point 31 :   0.5000 0.5000 0.0000  plane waves:    1588
 k-point 32 :   0.3000 0.2000 0.1000  plane waves:    1562
 k-point 33 :   0.4000 0.2000 0.1000  plane waves:    1569
 k-point 34 :   0.5000 0.2000 0.1000  plane waves:    1570
 k-point 35 :  -0.4000 0.2000 0.1000  plane waves:    1566
 k-point 36 :   0.4000 0.3000 0.1000  plane waves:    1567
 k-point 37 :   0.5000 0.3000 0.1000  plane waves:    1572
 k-point 38 :  -0.4000 0.3000 0.1000  plane waves:    1565
 k-point 39 :  -0.3000 0.3000 0.1000  plane waves:    1567
 k-point 40 :  -0.2000 0.3000 0.1000  plane waves:    1568
 k-point 41 :   0.5000 0.4000 0.1000  plane waves:    1573
 k-point 42 :  -0.4000 0.4000 0.1000  plane waves:    1572
 k-point 43 :  -0.3000 0.4000 0.1000  plane waves:    1569
 k-point 44 :  -0.4000 0.5000 0.1000  plane waves:    1580
 k-point 45 :  -0.4000 0.4000 0.2000  plane waves:    1562
 k-point 46 :  -0.3000 0.4000 0.2000  plane waves:    1578
 k-point 47 :  -0.3000 0.5000 0.2000  plane waves:    1584

 maximum and minimum number of plane-waves per node :       414      354

 maximum number of plane-waves:      1596
 maximum index in each direction:
   IXMAX=    8   IYMAX=    8   IZMAX=    8
   IXMIN=   -8   IYMIN=   -8   IZMIN=   -8

 parallel 3D FFT for wavefunctions:
    minimum data exchange during FFTs selected (reduces bandwidth)
 parallel 3D FFT for charge:
    minimum data exchange during FFTs selected (reduces bandwidth)

 Broyden mixing: mesh for mixing (old mesh)
   NGX = 17   NGY = 17   NGZ = 17
  (NGX  = 64   NGY  = 64   NGZ  = 64)
  gives a total of   4913 points

 initial charge density was supplied:
 charge density of overlapping atoms calculated
 number of electron       8.0000000 magnetization
 keeping initial charge density in first step

 Maximum index for augmentation-charges        10867 (set IRDMAX)

 First call to EWALD:  gamma=   0.491
 Maximum number of real-space cells 3x 3x 3
 Maximum number of reciprocal cells 3x 3x 3

--------------------------------------- Iteration      1(   1)  ---------------------------------------

 eigenvalue-minimisations  :   752
 total energy-change (2. order) : 0.1864745E+02  (-0.3858034E+03)
 number of electron       8.0000000 magnetization
 augmentation part        8.0000000 magnetization

 Free energy of the ion-electron system (eV)
  alpha Z        PSCENC =         8.93231164
  Ewald energy   TEWEN  =      -368.81282126
  -Hartree energ DENC   =      -102.65811273
  -exchange      EXHF   =         0.00000000
  -V(xc)+E(xc)   XCENC  =        22.15598885
  PAW double counting   =       402.34414725     -418.28700347
  entropy T*S    EENTRO =        -0.00090653
  eigenvalues    EBANDS =       -31.75826388
  atomic energy  EATOM  =       506.73211122
  Solvation  Ediel_sol  =         0.00000000
  free energy    TOTEN  =        18.64745110 eV

  energy without entropy =       18.64835763  energy(sigma->0) =       18.64775327

[...]

 eigenvalue-minimisations  :  1016
 total energy-change (2. order) :-0.3797876E+02  (-0.3648251E+02)
 number of electron       8.0000000 magnetization
 augmentation part        8.0000000 magnetization

[...]

 Broyden mixing:
  rms(total) = 0.15244E-01    rms(broyden)= 0.15119E-01
  rms(prec ) = 0.32188E-01
  weight for this iteration     100.00

[...]

 eigenvalues of (default mixing * dielectric matrix)
  average eigenvalue GAMMA=   0.4647
  0.4647

[...]

 eigenvalue-minimisations  :   752
 total energy-change (2. order) : 0.2379664E-04  (-0.3415592E-05)
 number of electron       8.0000000 magnetization
 augmentation part       -0.8519409 magnetization

[...]

 Broyden mixing:
  rms(total) = 0.10500E-04    rms(broyden)= 0.99985E-05
  rms(prec ) = 0.16845E-04
  weight for this iteration     100.00

 eigenvalues of (default mixing * dielectric matrix)
  average eigenvalue GAMMA=   1.8329
  3.1759  2.7420  0.9758  1.0170  1.0725  2.1624  1.6847

[...]

--------------------------------------- Iteration      1(  13)  ---------------------------------------

 eigenvalue-minimisations  :   551
 total energy-change (2. order) :-0.5140146E-07  (-0.1638247E-08)
 number of electron       8.0000000 magnetization
 augmentation part       -0.8519260 magnetization

 Free energy of the ion-electron system (eV)
  alpha Z        PSCENC =         8.93231164
  Ewald energy   TEWEN  =      -368.81282126
  -Hartree energ DENC   =      -103.29031268
  -exchange      EXHF   =         0.00000000
  -V(xc)+E(xc)   XCENC  =        22.39252824
  PAW double counting   =       405.24636860     -421.21318597
  entropy T*S    EENTRO =         0.00303174
  eigenvalues    EBANDS =       -68.96153487
  atomic energy  EATOM  =       506.73211122
  Solvation  Ediel_sol  =         0.00000000
  free energy    TOTEN  =       -18.97150333 eV

  energy without entropy =      -18.97453507  energy(sigma->0) =      -18.97251391

 average (electrostatic) potential at core
  the test charge radii are     0.9700
  (the norm of the test charge is              1.0000)
       1-104.1221

 E-fermi :  -4.4478     XC(G=0):  -6.8841     alpha+bet : -4.7171

 k-point     1 :       0.0000    0.0000    0.0000
  band No.  band energies     occupation
      1     -19.5451      2.00000
      2      -4.4662      1.30550
      3      -4.4662      1.30549
      4      -4.4662      1.30549
      5       3.5508      0.00000
      6      10.1227      0.00000
      7      10.1227      0.00000
      8      10.1227      0.00000

[...]

 k-point    47 :      -0.3000    0.5000    0.2000
  band No.  band energies     occupation
      1     -19.3239      2.00000
      2      -5.4555      2.00000
      3      -5.2160      2.00000
      4      -4.9671      2.00000
      5       6.6213      0.00000
      6       8.0241      0.00000
      7       8.9709      0.00000
      8      10.5001      0.00000

 soft charge-density along one line, spin component           1
         0         1         2         3         4         5         6         7         8         9
 total charge-density along one line

------------------------ aborting loop because EDIFF is reached ----------------------------------------

  FORCE on cell =-STRESS in cart. coord.  units (eV):
  Direction    XX          YY          ZZ          XY          YZ          ZX
  Alpha Z     8.93231     8.93231     8.93231
  Ewald    -122.93761  -122.93761  -122.93761     0.00000    -0.00000     0.00000
  Hartree    34.42997    34.42997    34.42997     0.00000    -0.00000     0.00000
  E(xc)     -31.50417   -31.43311   -31.39602     0.02891    -0.00577     0.06880
  Local     -95.79414   -95.79414   -95.79414     0.00000     0.00000     0.00000
  n-local   103.99588   105.04086   105.58105     0.38616    -0.14898     1.00469
  augment   -16.05087   -16.05086   -16.05086    -0.00000    -0.00000    -0.00000
  Kinetic   115.94914   118.38112   119.64347     0.96208    -0.23068     2.33441
  Fock        0.00000     0.00000     0.00000     0.00000     0.00000     0.00000
  Total      -0.00093    -0.00093    -0.00093     0.00000     0.00000    -0.00000
  in kB      -0.03173    -0.03173    -0.03173     0.00000     0.00000    -0.00000

 VOLUME and BASIS-vectors are now :
  energy-cutoff  :      600.00
  volume of cell :       46.99
      direct lattice vectors                 reciprocal lattice vectors
     4.050525015  0.000000000  0.000000000     0.246881576 -0.142537144 -0.100788981
     2.025262508  3.507857562 -0.000000000     0.000000000  0.285074289 -0.100788981
     2.025262508  1.169285854  3.307239826    -0.000000000  0.000000000  0.302366944

  length of vectors
     4.050525015  4.050525015  4.050525016     0.302366944  0.302366944  0.302366944

 FORCES acting on ions
    electron-ion (+dipol)            ewald-force                    non-local-force                 convergence-correction
   0.174E-14 0.120E-14 0.790E-14   0.373E-15 -.171E-15 -.748E-16   -.414E-23 -.227E-23 -.827E-24   0.158E-13 0.288E-14 0.193E-13
   0.269E-14 0.750E-15 0.808E-14   0.373E-15 -.171E-15 -.748E-16   -.414E-23 -.227E-23 -.827E-24   0.158E-13 0.288E-14 0.193E-13

 POSITION                                       TOTAL-FORCE (eV/Angst)
      0.00000      0.00000      0.00000        -0.000000      0.000000     -0.000000
    total drift:                                0.000000      0.000000      0.000000

  FREE ENERGIE OF THE ION-ELECTRON SYSTEM (eV)
  free  energy   TOTEN  =       -18.97150333 eV

  energy  without entropy=      -18.97453507  energy(sigma->0) =      -18.97251391

 Quasi-Newton relaxation of ions (Broydens 2nd method)
  g(Force)  = 0.000E+00   g(Stress)= 0.251E-07

 Reset! Starting new Quasi-Newton update for ions

 reached required accuracy - stopping structural energy minimisation