 vasp.5.4.4.18Apr17-6-g9f103f2a35 (build Nov 03 2018 10:20:46) complex

 executed on             LinuxIFC date 2018.12.21  10:09:16

 INCAR:
 POTCAR:    PAW_PBE Kr_GW 21Aug2013

 POTCAR:    PAW_PBE Kr_GW 21Aug2013
   VRHFIN =Kr: s2p6

   TITEL  = PAW_PBE Kr_GW 21Aug2013
   POMASS =   83.800; ZVAL   =    8.000    mass and valenz
   ENMAX  =  252.232; ENMIN  =  189.174 eV

  PAW_PBE Kr_GW 21Aug2013               :

 POSCAR: Kr_FCC
  positions in direct lattice
  velocities in cartesian coordinates

 METAGGA = SCAN     LMAXTAU =  0    LMIXTAU =  F

 ion  position               nearest neighbor table
   1  0.000  0.000  0.000-

IMPORTANT INFORMATION: All symmetrisations will be switched off!
NOSYMM: (Re-)initialisation of all symmetry stuff for point group C_1.

 KPOINTS: k-points

Automatic generation of k-mesh.
Space group operators:
 irot       det(A)        alpha          n_x          n_y          n_z        tau_x        tau_y        tau_z
    1     1.000000     0.000000     1.000000     0.000000     0.000000     0.000000     0.000000     0.000000

 Subroutine IBZKPT returns following result:

 Found    216 irreducible k-points:

 Following reciprocal coordinates:
            Coordinates               Weight
  0.000000  0.000000  0.000000      1.000000
  0.166667  0.000000  0.000000      1.000000
  0.333333 -0.000000  0.000000      1.000000
  0.500000  0.000000  0.000000      1.000000
 -0.333333  0.000000 -0.000000      1.000000
 -0.166667 -0.000000 -0.000000      1.000000
 -0.000000  0.166667 -0.000000      1.000000
  0.166667  0.166667  0.000000      1.000000
  0.333333  0.166667  0.000000      1.000000
  0.500000  0.166667  0.000000      1.000000
 -0.333333  0.166667 -0.000000      1.000000
 -0.166667  0.166667 -0.000000      1.000000
 -0.000000  0.333333  0.000000      1.000000
  0.166667  0.333333  0.000000      1.000000
  0.333333  0.333333  0.000000      1.000000
  0.500000  0.333333  0.000000      1.000000
 -0.333333  0.333333 -0.000000      1.000000
 -0.166667  0.333333 -0.000000      1.000000
  0.000000  0.500000 -0.000000      1.000000
  0.166667  0.500000  0.000000      1.000000
  0.333333  0.500000  0.000000      1.000000
  0.500000  0.500000  0.000000      1.000000
 -0.333333  0.500000 -0.000000      1.000000
 -0.166667  0.500000 -0.000000      1.000000
  0.000000 -0.333333 -0.000000      1.000000
  0.166667 -0.333333  0.000000      1.000000
  0.333333 -0.333333  0.000000      1.000000
  0.500000 -0.333333  0.000000      1.000000
 -0.333333 -0.333333  0.000000      1.000000
 -0.166667 -0.333333  0.000000      1.000000
  0.000000 -0.166667  0.000000      1.000000
  0.166667 -0.166667  0.000000      1.000000
  0.333333 -0.166667  0.000000      1.000000
  0.500000 -0.166667  0.000000      1.000000
 -0.333333 -0.166667 -0.000000      1.000000
 -0.166667 -0.166667  0.000000      1.000000
  0.000000  0.000000  0.166667      1.000000
  0.166667  0.000000  0.166667      1.000000
  0.333333 -0.000000  0.166667      1.000000
  0.500000  0.000000  0.166667      1.000000
 -0.333333  0.000000  0.166667      1.000000
 -0.166667  0.000000  0.166667      1.000000
 -0.000000  0.166667  0.166667      1.000000
  0.166667  0.166667  0.166667      1.000000
  0.333333  0.166667  0.166667      1.000000
  0.500000  0.166667  0.166667      1.000000
 -0.333333  0.166667  0.166667      1.000000
 -0.166667  0.166667  0.166667      1.000000
 -0.000000  0.333333  0.166667      1.000000
  0.166667  0.333333  0.166667      1.000000
  0.333333  0.333333  0.166667      1.000000
  0.500000  0.333333  0.166667      1.000000
 -0.333333  0.333333  0.166667      1.000000
 -0.166667  0.333333  0.166667      1.000000
  0.000000  0.500000  0.166667      1.000000
  0.166667  0.500000  0.166667      1.000000
  0.333333  0.500000  0.166667      1.000000
  0.500000  0.500000  0.166667      1.000000
 -0.333333  0.500000  0.166667      1.000000
 -0.166667  0.500000  0.166667      1.000000
[...]
  0.500000  0.500000 -0.166667      1.000000
 -0.333333  0.500000 -0.166667      1.000000
 -0.166667  0.500000 -0.166667      1.000000
  0.000000 -0.333333 -0.166667      1.000000
  0.166667 -0.333333 -0.166667      1.000000
  0.333333 -0.333333 -0.166667      1.000000
  0.500000 -0.333333 -0.166667      1.000000
 -0.333333 -0.333333 -0.166667      1.000000
 -0.166667 -0.333333 -0.166667      1.000000
 -0.000000 -0.166667 -0.166667      1.000000
  0.166667 -0.166667 -0.166667      1.000000
  0.333333 -0.166667 -0.166667      1.000000
  0.500000 -0.166667 -0.166667      1.000000
 -0.333333 -0.166667 -0.166667      1.000000
 -0.166667 -0.166667 -0.166667      1.000000

 Following cartesian coordinates:
            Coordinates               Weight
  0.000000  0.000000  0.000000      1.000000
  0.040499 -0.023382 -0.016534      1.000000
  0.080998 -0.046764 -0.033067      1.000000
  0.121497 -0.070146 -0.049601      1.000000
 -0.080998  0.046764  0.033067      1.000000
 -0.040499  0.023382  0.016534      1.000000
  0.000000  0.046764 -0.016534      1.000000
  0.040499  0.023382 -0.033067      1.000000
  0.080998  0.000000 -0.049601      1.000000
  0.121497 -0.023382 -0.066134      1.000000
 -0.080998  0.093528  0.016534      1.000000
 -0.040499  0.070146  0.000000      1.000000
  0.000000  0.093528 -0.033067      1.000000
  0.040499  0.070146 -0.049601      1.000000
  0.080998  0.046764 -0.066134      1.000000
  0.121497  0.023382 -0.082668      1.000000
 -0.080998  0.140292  0.000000      1.000000
 -0.040499  0.116910 -0.016534      1.000000
  0.000000  0.140292 -0.049601      1.000000
  0.040499  0.116910 -0.066134      1.000000
  0.080998  0.093528 -0.082668      1.000000
  0.121497  0.070146 -0.099202      1.000000
 -0.080998  0.187056 -0.016534      1.000000
 -0.040499  0.163674 -0.033067      1.000000
 -0.000000 -0.093528  0.033067      1.000000
  0.040499 -0.116910  0.016534      1.000000
  0.080998 -0.140292 -0.000000      1.000000
  0.121497 -0.163674 -0.016534      1.000000
 -0.080998 -0.046764  0.066134      1.000000
 -0.040499 -0.070146  0.049601      1.000000
 -0.000000 -0.046764  0.016534      1.000000
  0.040499 -0.070146 -0.000000      1.000000
  0.080998 -0.093528 -0.016534      1.000000
  0.121497 -0.116910 -0.033067      1.000000
 -0.080998  0.000000  0.049601      1.000000
 -0.040499 -0.023382  0.033067      1.000000
 -0.000000  0.000000  0.049601      1.000000
  0.040499 -0.023382  0.033067      1.000000
  0.080998 -0.046764  0.016534      1.000000
  0.121497 -0.070146 -0.000000      1.000000
 -0.080998  0.046764  0.082668      1.000000
 -0.040499  0.023382  0.066134      1.000000
 -0.000000  0.046764  0.033067      1.000000
  0.040499  0.023382  0.016534      1.000000
  0.080998  0.000000  0.000000      1.000000
  0.121497 -0.023382 -0.016534      1.000000
 -0.080998  0.093528  0.066134      1.000000
 -0.040499  0.070146  0.049601      1.000000
 -0.000000  0.093528  0.016534      1.000000
  0.040499  0.070146  0.000000      1.000000
  0.080998  0.046764 -0.016534      1.000000
  0.121497  0.023382 -0.033067      1.000000
 -0.080998  0.140292  0.049601      1.000000
 -0.040499  0.116910  0.033067      1.000000
 -0.000000  0.140292  0.000000      1.000000
  0.040499  0.116910 -0.016534      1.000000
  0.080998  0.093528 -0.033067      1.000000
  0.121497  0.070146 -0.049601      1.000000
 -0.080998  0.187056  0.033067      1.000000
 -0.040499  0.163674  0.016534      1.000000
[...]
  0.121497  0.070146 -0.148802      1.000000
 -0.080998  0.187056 -0.066134      1.000000
 -0.040499  0.163674 -0.082668      1.000000
  0.000000 -0.093528 -0.016534      1.000000
  0.040499 -0.116910 -0.033067      1.000000
  0.080998 -0.140292 -0.049601      1.000000
  0.121497 -0.163674 -0.066134      1.000000
 -0.080998 -0.046764  0.016534      1.000000
 -0.040499 -0.070146 -0.000000      1.000000
  0.000000 -0.046764 -0.033067      1.000000
  0.040499 -0.070146 -0.049601      1.000000
  0.080998 -0.093528 -0.066134      1.000000
  0.121497 -0.116910 -0.082668      1.000000
 -0.080998  0.000000 -0.000000      1.000000
 -0.040499 -0.023382 -0.016534      1.000000

 SYSTEM =  Og_FCC
 POSCAR =  Kr_FCC

 Startparameter for this run:
   NWRITE =      2    write-flag & timer
   PREC   = accura    normal or accurate (medium, high low for compatibility)
   ISTART =      1    job   : 0-new  1-cont  2-samecut
   ICHARG =      0    charge: 1-file 2-atom 10-const
   ISPIN  =      1    spin polarized calculation?
   LNONCOLLINEAR =      T non collinear calculations
   LSORBIT =      T    spin-orbit coupling
   INIWAV =      1    electr: 0-lowe 1-rand  2-diag
   LASPH  =      F    aspherical Exc in radial PAW
   METAGGA=      F    non-selfconsistent MetaGGA calc.

 Electronic Relaxation 1
   ENCUT  =  300.0 eV  22.05 Ry    4.70 a.u.   5.66  5.66  5.66*2*pi/ulx,y,z
   ENINI  =  300.0     initial cutoff
   ENAUG  =  554.8 eV  augmentation charge cutoff
   NELM   =     50;   NELMIN=  2; NELMDL= -5     # of ELM steps
   EDIFF  = 0.1E-07   stopping-criterion for ELM
   LREAL  =      F    real-space projection
   NLSPLINE    = F    spline interpolate recip. space projectors
   LCOMPAT=      F    compatible to vasp.4.4
   GGA_COMPAT  = F    GGA compatible to vasp.4.4-vasp.4.6
   LMAXPAW     = -100 max onsite density
   LMAXMIX     =    2 max onsite mixed and CHGCAR
   VOSKOWN=      0    Vosko Wilk Nusair interpolation
   ROPT   =    0.00000
 Ionic relaxation
   EDIFFG = 0.1E-04   stopping-criterion for IOM
   NSW    =      1    number of steps for IOM
   NBLOCK =      1;   KBLOCK =      1    inner block; outer block
   IBRION =     -1    ionic relax: 0-MD 1-quasi-New 2-CG
   NFREE  =      5    steps in history (QN), initial steepest desc. (CG)
   ISIF   =      3    stress and relaxation
   IWAVPR =     10    prediction:  0-non 1-charg 2-wave 3-comb
   ISYM   =      0    0-nonsym 1-usesym 2-fastsym
   LCORR  =      T    Harris-Foulkes like correction to forces

   POTIM  = 0.1000    time-step for ionic-motion
   TEIN   =    0.0    initial temperature
   TEBEG  =    0.0;   TEEND  =   0.0 temperature during run
   SMASS  =  -3.00    Nose mass-parameter (am)
   estimated Nose-frequenzy (Omega)   =  0.10E-29 period in steps =****** mass=  -0.367E-27a.u.
   SCALEE = 1.0000    scale energy and forces
   NPACO  =    256;   APACO  = 16.0  distance and # of slots for P.C.
   PSTRESS=    0.0 pullay stress

  Mass of Ions in am
   POMASS =  83.80
  Ionic Valenz
   ZVAL   =   8.00
  Atomic Wigner-Seitz radii
  virtual crystal weights
   VCA    =   1.00
   NELECT =       8.0000    total number of electrons
   NUPDOWN=      -1.0000    fix difference up-down

 DOS related values:
   EMIN   =  10.00;   EMAX   =-10.00  energy-range for DOS
   EFERMI =   0.00
   ISMEAR =     0;   SIGMA  =   0.00  broadening in eV -4-tet -1-fermi 0-gaus

 Electronic relaxation 2 (details)
   IALGO  =     38    algorithm
   LDIAG  =      T    sub-space diagonalisation (order eigenvalues)
   LSUBROT=      F    optimize rotation matrix (better conditioning)
   TURBO    =      0    0=normal 1=particle mesh
   IRESTART =      0    0=no restart 2=restart with 2 vectors
   NREBOOT  =      0    no. of reboots
   NMIN     =      0    reboot dimension
[...]
   20.651613    0.344776    0.341007    0.330323   -0.016116   -0.006336   -0.007080
   21.073075   -0.142792   -0.140686   -0.125362    0.000963    0.002802    0.005402
   21.494536   -0.031331   -0.025632   -0.024311    0.001545    0.003246   -0.003024
   21.915998    0.165014    0.168275    0.169858   -0.000013    0.001694   -0.001644
   22.337459    0.271929    0.274330    0.275669   -0.000123    0.001183   -0.001093
   22.758921    0.346630    0.348553    0.349680   -0.000126    0.000919   -0.000818
   23.180382    0.404342    0.405951    0.406916   -0.000115    0.000755   -0.000654
   23.601844    0.451420    0.452804    0.453644   -0.000102    0.000640   -0.000544
   24.023305    0.490741    0.491954    0.492695   -0.000090    0.000556   -0.000466
   24.444767    0.524766    0.525844    0.526507   -0.000081    0.000490   -0.000407
   24.866228    0.554305    0.555275    0.555872   -0.000072    0.000438   -0.000360
[...]
   35.824227    0.843552    0.843785    0.843929   -0.000016    0.000101   -0.000079
   36.245689    0.847992    0.848216    0.848356   -0.000016    0.000098   -0.000076
   36.667150    0.852228    0.852445    0.852580   -0.000015    0.000095   -0.000074
   37.088612    0.856275    0.856486    0.856617   -0.000015    0.000092   -0.000071
   37.510073    0.860147    0.860351    0.860477   -0.000014    0.000089   -0.000069
   37.931535    0.863853    0.864051    0.864174   -0.000014    0.000086   -0.000067
   38.352996    0.867405    0.867597    0.867716   -0.000013    0.000083   -0.000065
   38.774458    0.870811    0.870997    0.871113   -0.000013    0.000081   -0.000063
   39.195919    0.874079    0.874260    0.874372   -0.000012    0.000078   -0.000061
   39.617381    0.877218    0.877394    0.877503   -0.000012    0.000076   -0.000059
   40.038842    0.880235    0.880405    0.880511   -0.000012    0.000074   -0.000057
   40.460304    0.883135    0.883301    0.883404   -0.000011    0.000072   -0.000056
   40.881765    0.885926    0.886088    0.886188   -0.000011    0.000070   -0.000054
   41.303227    0.888613    0.888770    0.888868   -0.000011    0.000068   -0.000053
   41.724688    0.891202    0.891355    0.891450   -0.000010    0.000066   -0.000051

  frequency dependent IMAGINARY DIELECTRIC FUNCTION (independent particle, no local field effects) current-current (2nd set in vasprun.xml)
     E(ev)      X         Y         Z        XY        YZ        ZX
    0.000000    4.119276    4.116867    4.115378    0.032882    0.028560    0.008699
    0.421461    0.412828    0.412587    0.412437    0.003290    0.002857    0.000870
    0.842923    0.207788    0.207667    0.207592    0.001648    0.001430    0.000436
    1.264384    0.140076    0.139995    0.139945    0.001101    0.000955    0.000292
    1.685846    0.106724    0.106663    0.106625    0.000829    0.000719    0.000220
    2.107307    0.087149    0.087100    0.087070    0.000666    0.000577    0.000177
    2.528769    0.074502    0.074461    0.074435    0.000559    0.000483    0.000148
    2.950230    0.065859    0.065823    0.065800    0.000482    0.000416    0.000128
    3.371692    0.059770    0.059738    0.059718    0.000425    0.000366    0.000113
    3.793153    0.055448    0.055420    0.055402    0.000382    0.000328    0.000102
    4.214615    0.052441    0.052415    0.052398    0.000347    0.000298    0.000093
    4.636076    0.050488    0.050463    0.050448    0.000319    0.000273    0.000086
    5.057538    0.049453    0.049431    0.049416    0.000296    0.000253    0.000080
    5.478999    0.049304    0.049282    0.049269    0.000277    0.000236    0.000075
    5.900461    0.050113    0.050092    0.050079    0.000262    0.000221    0.000071
    6.321922    0.052119    0.052099    0.052087    0.000248    0.000209    0.000068
    6.743384    0.055943    0.055924    0.055912    0.000237    0.000199    0.000065
    7.164845    0.063666    0.063648    0.063636    0.000228    0.000190    0.000062
    7.586307    0.095910    0.095893    0.095882    0.000219    0.000182    0.000060
    8.007768    0.117759    0.117743    0.117732    0.000212    0.000175    0.000059
    8.429230    0.278545    0.278533    0.278523    0.000204    0.000168    0.000055
    8.850691    0.739799    0.739789    0.739781    0.000196    0.000162    0.000052
    9.272153    0.300911    0.300895    0.300885    0.000199    0.000161    0.000056
    9.693614    0.989113    0.989111    0.989105    0.000183    0.000151    0.000046
   10.115076    1.494184    1.494202    1.494202    0.000164    0.000140    0.000034
   10.536537    1.374527    1.374403    1.374358    0.000288    0.000196    0.000122
   10.957999    2.262611    2.262748    2.262781    0.000060    0.000091   -0.000038
   11.379460    1.982292    1.982772    1.982894   -0.000226   -0.000032   -0.000240
   11.800922    1.491350    1.491296    1.491278    0.000222    0.000156    0.000076
   12.222383    2.933571    2.933588    2.933546    0.000211    0.000188    0.000067
   12.643845    3.258005    3.257993    3.257981    0.000198    0.000148    0.000058
   13.065306    2.851729    2.851696    2.851679    0.000217    0.000153    0.000070
   13.486768    2.237717    2.237690    2.237675    0.000218    0.000152    0.000069
   13.908229    2.840035    2.840136    2.840162    0.000109    0.000097   -0.000011
   14.329691    2.189247    2.189162    2.189125    0.000286    0.000182    0.000111
   14.751152    2.645189    2.645108    2.645072    0.000293    0.000180    0.000113
   15.172614    1.975940    1.975904    1.975883    0.000264    0.000164    0.000088
   15.594075    1.598748    1.598715    1.598692    0.000281    0.000171    0.000094
   16.015537    1.062078    1.061970    1.061924    0.000366    0.000203    0.000146
   16.436998    1.193932    1.193860    1.193822    0.000366    0.000197    0.000134
   16.858460    1.091285    1.091189    1.091139    0.000421    0.000210    0.000169
   17.279921    1.349813    1.349728    1.349670    0.000498    0.000285    0.000185
   17.701383    0.803992    0.803918    0.803890    0.000602    0.000200    0.000347
   18.122844    0.948059    0.947877    0.947743    0.000737    0.000114    0.000277
   18.544306    1.080333    1.079791    1.079443    0.001314    0.000127    0.000549
   18.965767    0.573876    0.570384    0.567010    0.003793    0.000448    0.002009
   19.387229    0.911587    0.906525    0.907935   -0.005391   -0.001173    0.002705
   19.808690    0.710305    0.702111    0.700868    0.000930   -0.005859   -0.001678
   20.230152    0.352924    0.353701    0.351292   -0.000095    0.003364    0.000772
   20.651613    0.640709    0.626502    0.622026   -0.009467    0.002520   -0.001867
   21.073075    0.579824    0.579922    0.584594   -0.009253   -0.007263   -0.004316
   21.494536    0.070227    0.068490    0.069236    0.002689   -0.001893    0.003571
   21.915998    0.024604    0.024330    0.024301    0.000698   -0.000665    0.000797
   22.337459    0.014195    0.014071    0.014027    0.000252   -0.000422    0.000339
   22.758921    0.009657    0.009584    0.009550    0.000098   -0.000308    0.000182
   23.180382    0.007139    0.007090    0.007065    0.000031   -0.000240    0.000110
   23.601844    0.005594    0.005559    0.005540   -0.000002   -0.000195    0.000071
   24.023305    0.004812    0.004786    0.004772   -0.000018   -0.000163    0.000049
   24.444767    0.003737    0.003717    0.003706   -0.000027   -0.000139    0.000034
   24.866228    0.003562    0.003547    0.003537   -0.000031   -0.000121    0.000025
[...]
   35.824227    0.000206    0.000205    0.000205   -0.000011   -0.000018    0.000000
   36.245689    0.000190    0.000189    0.000189   -0.000011   -0.000017   -0.000000
   36.667150    0.000176    0.000176    0.000175   -0.000011   -0.000016   -0.000000
   37.088612    0.000164    0.000164    0.000163   -0.000010   -0.000016   -0.000000
   37.510073    0.000153    0.000153    0.000152   -0.000010   -0.000015   -0.000001
   37.931535    0.000143    0.000143    0.000142   -0.000010   -0.000014   -0.000001
   38.352996    0.000134    0.000133    0.000133   -0.000009   -0.000014   -0.000001
   38.774458    0.000125    0.000125    0.000125   -0.000009   -0.000013   -0.000001
   39.195919    0.000117    0.000117    0.000117   -0.000009   -0.000012   -0.000001
   39.617381    0.000110    0.000110    0.000110   -0.000008   -0.000012   -0.000001
   40.038842    0.000104    0.000103    0.000103   -0.000008   -0.000011   -0.000001
   40.460304    0.000097    0.000097    0.000097   -0.000008   -0.000011   -0.000001
   40.881765    0.000092    0.000091    0.000091   -0.000008   -0.000011   -0.000001
   41.303227    0.000086    0.000086    0.000086   -0.000007   -0.000010   -0.000001
   41.724688    0.000081    0.000081    0.000081   -0.000007   -0.000010   -0.000001

  frequency dependent      REAL DIELECTRIC FUNCTION (independent particle, no local field effects) current-current (2nd set in vasprun.xml)
     E(ev)        X           Y           Z          XY          YZ          ZX
    0.000000    1.867833    1.867326    1.867012    0.000026   -0.000216    0.000160
    0.421461    1.868780    1.868272    1.867958    0.000026   -0.000216    0.000160
    0.842923    1.871664    1.871156    1.870842    0.000027   -0.000216    0.000160
    1.264384    1.876522    1.876012    1.875697    0.000027   -0.000217    0.000160
    1.685846    1.883429    1.882918    1.882602    0.000027   -0.000217    0.000161
    2.107307    1.892499    1.891986    1.891669    0.000027   -0.000218    0.000161
    2.528769    1.903888    1.903372    1.903054    0.000027   -0.000219    0.000162
    2.950230    1.917799    1.917280    1.916959    0.000027   -0.000221    0.000163
    3.371692    1.934497    1.933975    1.933653    0.000027   -0.000222    0.000164
    3.793153    1.954328    1.953803    1.953477    0.000027   -0.000224    0.000165
    4.214615    1.977739    1.977209    1.976880    0.000027   -0.000226    0.000166
    4.636076    2.005318    2.004783    2.004451    0.000027   -0.000228    0.000168
    5.057538    2.037853    2.037312    2.036977    0.000027   -0.000231    0.000170
    5.478999    2.076430    2.075883    2.075544    0.000027   -0.000233    0.000171
    5.900461    2.122605    2.122051    2.121708    0.000027   -0.000237    0.000173
    6.321922    2.178753    2.178191    2.177843    0.000027   -0.000240    0.000175
    6.743384    2.248889    2.248319    2.247965    0.000027   -0.000244    0.000178
    7.164845    2.341353    2.340775    2.340416    0.000027   -0.000248    0.000180
    7.586307    2.485141    2.484554    2.484189    0.000025   -0.000253    0.000182
    8.007768    2.551859    2.551260    2.550888    0.000025   -0.000258    0.000185
    8.429230    2.944462    2.943857    2.943479    0.000020   -0.000266    0.000185
    8.850691    2.651641    2.651016    2.650628    0.000026   -0.000270    0.000193
    9.272153    2.871286    2.870649    2.870252    0.000024   -0.000277    0.000196
    9.693614    3.188485    3.187839    3.187435    0.000017   -0.000288    0.000195
   10.115076    3.293555    3.292900    3.292487    0.000010   -0.000299    0.000195
   10.536537    2.659159    2.658416    2.657969    0.000069   -0.000280    0.000243
   10.957999    3.242935    3.242303    3.241881   -0.000045   -0.000341    0.000168
   11.379460    2.396530    2.395601    2.395090    0.000185   -0.000253    0.000337
   11.800922    2.023011    2.022283    2.021822   -0.000013   -0.000354    0.000205
   12.222383    2.655486    2.654707    2.654154    0.000074   -0.000273    0.000276
   12.643845    1.542426    1.541576    1.541056    0.000038   -0.000358    0.000260
   13.065306    0.420187    0.419297    0.418750    0.000041   -0.000371    0.000273
   13.486768    1.407800    1.406872    1.406300    0.000036   -0.000393    0.000282
   13.908229    1.032944    1.032024    1.031439   -0.000018   -0.000441    0.000258
   14.329691    0.289741    0.288750    0.288124   -0.000007   -0.000461    0.000282
   14.751152    0.679476    0.678226    0.677501    0.000155   -0.000420    0.000417
   15.172614    0.678140    0.676920    0.676176    0.000059   -0.000491    0.000373
   15.594075   -0.321728   -0.323019   -0.323816    0.000034   -0.000543    0.000384
   16.015537   -0.611345   -0.612783   -0.613663    0.000054   -0.000583    0.000433
   16.436998    0.106197    0.104598    0.103622    0.000055   -0.000646    0.000480
   16.858460    0.199781    0.197980    0.196884    0.000046   -0.000721    0.000543
   17.279921    0.028929    0.026867    0.025618    0.000059   -0.000836    0.000616
   17.701383   -0.055779   -0.058284   -0.059890   -0.000004   -0.000992    0.000635
   18.122844    0.348450    0.345167    0.343123    0.000023   -0.001256    0.000968
   18.544306   -0.002353   -0.007000   -0.009901   -0.000093   -0.001532    0.001384
   18.965767   -0.076033   -0.084766   -0.091457   -0.002436   -0.002515    0.003279
   19.387229    0.003766    0.000877    0.005662   -0.000202   -0.007559   -0.002477
   19.808690    0.042679    0.040750    0.039913    0.001383    0.001264   -0.004420
   20.230152    0.000680    0.003469    0.003802   -0.001558    0.006126   -0.000507
   20.651613    0.338260    0.334629    0.324006   -0.016050   -0.006327   -0.007045
   21.073075   -0.148499   -0.146347   -0.131101    0.001064    0.002876    0.005458
   21.494536   -0.032102   -0.026396   -0.025083    0.001534    0.003252   -0.003059
   21.915998    0.164651    0.167914    0.169494   -0.000012    0.001695   -0.001652
   22.337459    0.271667    0.274070    0.275407   -0.000120    0.001184   -0.001096
   22.758921    0.346418    0.348344    0.349469   -0.000123    0.000920   -0.000820
   23.180382    0.404163    0.405774    0.406737   -0.000111    0.000756   -0.000655
   23.601844    0.451264    0.452650    0.453488   -0.000099    0.000641   -0.000545
   24.023305    0.490600    0.491815    0.492555   -0.000087    0.000556   -0.000466
   24.444767    0.524642    0.525722    0.526383   -0.000078    0.000491   -0.000407
   24.866228    0.554188    0.555159    0.555756   -0.000070    0.000439   -0.000360
[...]
   35.824227    0.843526    0.843759    0.843904   -0.000015    0.000101   -0.000079
   36.245689    0.847967    0.848192    0.848331   -0.000015    0.000098   -0.000076
   36.667150    0.852204    0.852421    0.852556   -0.000014    0.000095   -0.000074
   37.088612    0.856252    0.856463    0.856593   -0.000014    0.000092   -0.000071
   37.510073    0.860124    0.860328    0.860455   -0.000014    0.000089   -0.000069
   37.931535    0.863832    0.864029    0.864152   -0.000013    0.000086   -0.000067
   38.352996    0.867384    0.867576    0.867695   -0.000013    0.000083   -0.000065
   38.774458    0.870791    0.870977    0.871092   -0.000012    0.000081   -0.000063
   39.195919    0.874060    0.874241    0.874353   -0.000012    0.000079   -0.000061
   39.617381    0.877199    0.877375    0.877484   -0.000012    0.000076   -0.000059
   40.038842    0.880216    0.880387    0.880493   -0.000011    0.000074   -0.000057
   40.460304    0.883117    0.883283    0.883386   -0.000011    0.000072   -0.000056
   40.881765    0.885909    0.886070    0.886171   -0.000011    0.000070   -0.000054
   41.303227    0.888596    0.888754    0.888851   -0.000010    0.000068   -0.000053
   41.724688    0.891185    0.891338    0.891433   -0.000010    0.000066   -0.000051

 The outermost node in the dielectric function lies at epsilon=  21.5

 Spin-Orbit-Coupling matrix elements

 Ion:    1  E_soc:     -0.0767792
 l=   1
     0.0000000    -0.0127962    -0.0127962
    -0.0127962     0.0000000    -0.0127962
    -0.0127962    -0.0127962     0.0000000
 l=   2
     0.0000000    -0.0000001     0.0000000    -0.0000001    -0.0000003
    -0.0000001     0.0000000    -0.0000002    -0.0000001    -0.0000001
     0.0000000    -0.0000002     0.0000000    -0.0000002     0.0000000
    -0.0000001    -0.0000001    -0.0000002     0.0000000    -0.0000001
    -0.0000003    -0.0000001     0.0000000    -0.0000001     0.0000000
 l=   3
     0.0000000     0.0000000     0.0000000     0.0000000     0.0000000     0.0000000     0.0000000
     0.0000000     0.0000000     0.0000000     0.0000000     0.0000000     0.0000000     0.0000000
     0.0000000     0.0000000     0.0000000     0.0000000     0.0000000     0.0000000     0.0000000
     0.0000000     0.0000000     0.0000000     0.0000000     0.0000000     0.0000000     0.0000000
     0.0000000     0.0000000     0.0000000     0.0000000     0.0000000     0.0000000     0.0000000
     0.0000000     0.0000000     0.0000000     0.0000000     0.0000000     0.0000000     0.0000000
     0.0000000     0.0000000     0.0000000     0.0000000     0.0000000     0.0000000     0.0000000