 vasp.5.4.4.18Apr17-6-g9f103f2a35 (build Jul 09 2018 16:43:14) complex

 executed on             LinuxIFC date 2018.11.22  03:45:32

 INCAR:
 POTCAR:    PAW_PBE He_GW 13May2007

 POTCAR:    PAW_PBE He_GW 13May2007
   VRHFIN =He: 1s

   TITEL  = PAW_PBE He_GW 13May2007
   POMASS =    4.000; ZVAL   =    2.000    mass and valenz
   ENMAX  =  405.780; ENMIN  =  304.335 eV

  PAW_PBE He_GW 13May2007               :

 POSCAR: He_FCC
  positions in direct lattice
  velocities in cartesian coordinates
 exchange correlation table for  LEXCH =        8
   RHO(1)=    0.500       N(1)  =     2000
   RHO(2)=  100.500       N(2)  =     4000

 ion  position               nearest neighbor table
   1  0.000  0.000  0.000-

IMPORTANT INFORMATION: All symmetrisations will be switched off!
NOSYMM: (Re-)initialisation of all symmetry stuff for point group C_1.

 KPOINTS: k-points

Automatic generation of k-mesh.
Space group operators:
 irot       det(A)        alpha          n_x          n_y          n_z        tau_x        tau_y        tau_z
    1     1.000000     0.000000     1.000000     0.000000     0.000000     0.000000     0.000000     0.000000

 Subroutine IBZKPT returns following result:

 Found    112 irreducible k-points:

 Following reciprocal coordinates:
            Coordinates               Weight
  0.000000  0.000000  0.000000      1.000000
  0.166667 -0.000000  0.000000      2.000000
  0.333333 -0.000000  0.000000      2.000000
  0.500000 -0.000000  0.000000      1.000000
  0.000000  0.166667 -0.000000      2.000000
  0.166667  0.166667  0.000000      2.000000
  0.333333  0.166667  0.000000      2.000000
  0.500000  0.166667  0.000000      2.000000
 -0.333333  0.166667 -0.000000      2.000000
 -0.166667  0.166667 -0.000000      2.000000
  0.000000  0.333333  0.000000      2.000000
  0.166667  0.333333  0.000000      2.000000
  0.333333  0.333333  0.000000      2.000000
  0.500000  0.333333  0.000000      2.000000
 -0.333333  0.333333 -0.000000      2.000000
 -0.166667  0.333333  0.000000      2.000000
  0.000000  0.500000  0.000000      1.000000
  0.166667  0.500000  0.000000      2.000000
  0.333333  0.500000  0.000000      2.000000
  0.500000  0.500000  0.000000      1.000000
  0.000000  0.000000  0.166667      2.000000
  0.166667 -0.000000  0.166667      2.000000
  0.333333 -0.000000  0.166667      2.000000
  0.500000 -0.000000  0.166667      2.000000
 -0.333333  0.000000  0.166667      2.000000
 -0.166667  0.000000  0.166667      2.000000
  0.000000  0.166667  0.166667      2.000000
  0.166667  0.166667  0.166667      2.000000
  0.333333  0.166667  0.166667      2.000000
  0.500000  0.166667  0.166667      2.000000
 -0.333333  0.166667  0.166667      2.000000
 -0.166667  0.166667  0.166667      2.000000
  0.000000  0.333333  0.166667      2.000000
  0.166667  0.333333  0.166667      2.000000
  0.333333  0.333333  0.166667      2.000000
  0.500000  0.333333  0.166667      2.000000
 -0.333333  0.333333  0.166667      2.000000
 -0.166667  0.333333  0.166667      2.000000
  0.000000  0.500000  0.166667      2.000000
  0.166667  0.500000  0.166667      2.000000
  0.333333  0.500000  0.166667      2.000000
  0.500000  0.500000  0.166667      2.000000
 -0.333333  0.500000  0.166667      2.000000
 -0.166667  0.500000  0.166667      2.000000
  0.000000 -0.333333  0.166667      2.000000
  0.166667 -0.333333  0.166667      2.000000
  0.333333 -0.333333  0.166667      2.000000
  0.500000 -0.333333  0.166667      2.000000
 -0.333333 -0.333333  0.166667      2.000000
 -0.166667 -0.333333  0.166667      2.000000
  0.000000 -0.166667  0.166667      2.000000
  0.166667 -0.166667  0.166667      2.000000
  0.333333 -0.166667  0.166667      2.000000
  0.500000 -0.166667  0.166667      2.000000
 -0.333333 -0.166667  0.166667      2.000000
 -0.166667 -0.166667  0.166667      2.000000
  0.000000  0.000000  0.333333      2.000000
  0.166667 -0.000000  0.333333      2.000000
  0.333333 -0.000000  0.333333      2.000000
  0.500000 -0.000000  0.333333      2.000000
[...]
  0.166667  0.166667  0.500000      2.000000
  0.333333  0.166667  0.500000      2.000000
  0.500000  0.166667  0.500000      2.000000
 -0.333333  0.166667  0.500000      2.000000
 -0.166667  0.166667  0.500000      2.000000
  0.000000  0.333333  0.500000      2.000000
  0.166667  0.333333  0.500000      2.000000
  0.333333  0.333333  0.500000      2.000000
  0.500000  0.333333  0.500000      2.000000
 -0.333333  0.333333  0.500000      2.000000
 -0.166667  0.333333  0.500000      2.000000
  0.000000  0.500000  0.500000      1.000000
  0.166667  0.500000  0.500000      2.000000
  0.333333  0.500000  0.500000      2.000000
  0.500000  0.500000  0.500000      1.000000

 Following cartesian coordinates:
            Coordinates               Weight
  0.000000  0.000000  0.000000      1.000000
  0.058580 -0.033821 -0.023915      2.000000
  0.117160 -0.067642 -0.047830      2.000000
  0.175740 -0.101463 -0.071745      1.000000
  0.000000  0.067642 -0.023915      2.000000
  0.058580  0.033821 -0.047830      2.000000
  0.117160  0.000000 -0.071745      2.000000
  0.175740 -0.033821 -0.095661      2.000000
 -0.117160  0.135285  0.023915      2.000000
 -0.058580  0.101463 -0.000000      2.000000
  0.000000  0.135285 -0.047830      2.000000
  0.058580  0.101463 -0.071745      2.000000
  0.117160  0.067642 -0.095661      2.000000
  0.175740  0.033821 -0.119576      2.000000
 -0.117160  0.202927 -0.000000      2.000000
 -0.058580  0.169106 -0.023915      2.000000
  0.000000  0.202927 -0.071745      1.000000
  0.058580  0.169106 -0.095661      2.000000
  0.117160  0.135285 -0.119576      2.000000
  0.175740  0.101463 -0.143491      1.000000
  0.000000  0.000000  0.071745      2.000000
  0.058580 -0.033821  0.047830      2.000000
  0.117160 -0.067642  0.023915      2.000000
  0.175740 -0.101463  0.000000      2.000000
 -0.117160  0.067642  0.119576      2.000000
 -0.058580  0.033821  0.095661      2.000000
  0.000000  0.067642  0.047830      2.000000
  0.058580  0.033821  0.023915      2.000000
  0.117160  0.000000  0.000000      2.000000
  0.175740 -0.033821 -0.023915      2.000000
 -0.117160  0.135285  0.095661      2.000000
 -0.058580  0.101463  0.071745      2.000000
  0.000000  0.135285  0.023915      2.000000
  0.058580  0.101463 -0.000000      2.000000
  0.117160  0.067642 -0.023915      2.000000
  0.175740  0.033821 -0.047830      2.000000
 -0.117160  0.202927  0.071745      2.000000
 -0.058580  0.169106  0.047830      2.000000
  0.000000  0.202927 -0.000000      2.000000
  0.058580  0.169106 -0.023915      2.000000
  0.117160  0.135285 -0.047830      2.000000
  0.175740  0.101463 -0.071745      2.000000
 -0.117160  0.270569  0.047830      2.000000
 -0.058580  0.236748  0.023915      2.000000
  0.000000 -0.135285  0.119576      2.000000
  0.058580 -0.169106  0.095661      2.000000
  0.117160 -0.202927  0.071745      2.000000
  0.175740 -0.236748  0.047830      2.000000
 -0.117160 -0.067642  0.167406      2.000000
 -0.058580 -0.101463  0.143491      2.000000
  0.000000 -0.067642  0.095661      2.000000
  0.058580 -0.101463  0.071745      2.000000
  0.117160 -0.135285  0.047830      2.000000
  0.175740 -0.169106  0.023915      2.000000
 -0.117160 -0.000000  0.143491      2.000000
 -0.058580 -0.033821  0.119576      2.000000
  0.000000  0.000000  0.143491      2.000000
  0.058580 -0.033821  0.119576      2.000000
  0.117160 -0.067642  0.095661      2.000000
  0.175740 -0.101463  0.071745      2.000000
[...]
  0.058580  0.033821  0.167406      2.000000
  0.117160  0.000000  0.143491      2.000000
  0.175740 -0.033821  0.119576      2.000000
 -0.117160  0.135285  0.239152      2.000000
 -0.058580  0.101463  0.215236      2.000000
  0.000000  0.135285  0.167406      2.000000
  0.058580  0.101463  0.143491      2.000000
  0.117160  0.067642  0.119576      2.000000
  0.175740  0.033821  0.095661      2.000000
 -0.117160  0.202927  0.215236      2.000000
 -0.058580  0.169106  0.191321      2.000000
  0.000000  0.202927  0.143491      1.000000
  0.058580  0.169106  0.119576      2.000000
  0.117160  0.135285  0.095661      2.000000
  0.175740  0.101463  0.071745      1.000000

 SYSTEM =  Og_FCC
 POSCAR =  He_FCC

 Startparameter for this run:
   NWRITE =      2    write-flag & timer
   PREC   = accura    normal or accurate (medium, high low for compatibility)
   ISTART =      0    job   : 0-new  1-cont  2-samecut
   ICHARG =      2    charge: 1-file 2-atom 10-const
   ISPIN  =      1    spin polarized calculation?
   LNONCOLLINEAR =      F non collinear calculations
   LSORBIT =      F    spin-orbit coupling
   INIWAV =      1    electr: 0-lowe 1-rand  2-diag
   LASPH  =      F    aspherical Exc in radial PAW
   METAGGA=      F    non-selfconsistent MetaGGA calc.

 Electronic Relaxation 1
   ENCUT  =  300.0 eV  22.05 Ry    4.70 a.u.   4.02  4.02  4.02*2*pi/ulx,y,z
   ENINI  =  300.0     initial cutoff
   ENAUG  = 1514.2 eV  augmentation charge cutoff
   NELM   =     50;   NELMIN=  2; NELMDL= -5     # of ELM steps
   EDIFF  = 0.1E-07   stopping-criterion for ELM
   LREAL  =      F    real-space projection
   NLSPLINE    = F    spline interpolate recip. space projectors
   LCOMPAT=      F    compatible to vasp.4.4
   GGA_COMPAT  = F    GGA compatible to vasp.4.4-vasp.4.6
   LMAXPAW     = -100 max onsite density
   LMAXMIX     =    2 max onsite mixed and CHGCAR
   VOSKOWN=      0    Vosko Wilk Nusair interpolation
   ROPT   =    0.00000
 Ionic relaxation
   EDIFFG = 0.1E-04   stopping-criterion for IOM
   NSW    =      1    number of steps for IOM
   NBLOCK =      1;   KBLOCK =      1    inner block; outer block
   IBRION =     -1    ionic relax: 0-MD 1-quasi-New 2-CG
   NFREE  =      5    steps in history (QN), initial steepest desc. (CG)
   ISIF   =      3    stress and relaxation
   IWAVPR =     10    prediction:  0-non 1-charg 2-wave 3-comb
   ISYM   =      0    0-nonsym 1-usesym 2-fastsym
   LCORR  =      T    Harris-Foulkes like correction to forces

   POTIM  = 0.1000    time-step for ionic-motion
   TEIN   =    0.0    initial temperature
   TEBEG  =    0.0;   TEEND  =   0.0 temperature during run
   SMASS  =  -3.00    Nose mass-parameter (am)
   estimated Nose-frequenzy (Omega)   =  0.10E-29 period in steps =****** mass=  -0.185E-27a.u.
   SCALEE = 1.0000    scale energy and forces
   NPACO  =    256;   APACO  = 16.0  distance and # of slots for P.C.
   PSTRESS=    0.0 pullay stress

  Mass of Ions in am
   POMASS =   4.00
  Ionic Valenz
   ZVAL   =   2.00
  Atomic Wigner-Seitz radii
  virtual crystal weights
   VCA    =   1.00
   NELECT =       2.0000    total number of electrons
   NUPDOWN=      -1.0000    fix difference up-down

 DOS related values:
   EMIN   =  10.00;   EMAX   =-10.00  energy-range for DOS
   EFERMI =   0.00
   ISMEAR =     0;   SIGMA  =   0.00  broadening in eV -4-tet -1-fermi 0-gaus

 Electronic relaxation 2 (details)
   IALGO  =     38    algorithm
   LDIAG  =      T    sub-space diagonalisation (order eigenvalues)
   LSUBROT=      F    optimize rotation matrix (better conditioning)
   TURBO    =      0    0=normal 1=particle mesh
   IRESTART =      0    0=no restart 2=restart with 2 vectors
   NREBOOT  =      0    no. of reboots
[...]
   16.373421    1.512262    1.512324    1.512249    0.000049   -0.000015    0.000026
   16.854993    1.603987    1.604047    1.603970    0.000051   -0.000014    0.000028
   17.336564    1.759209    1.759264    1.759185    0.000057   -0.000012    0.000032
   17.818135    2.117951    2.117987    2.117902    0.000075   -0.000005    0.000044
   18.299706    2.837934    2.837831    2.837711    0.000196    0.000044    0.000130
   18.781278    0.698946    0.698810    0.698680    0.000227    0.000056    0.000152
   19.262849    0.937552    0.937589    0.937499    0.000080   -0.000005    0.000048
   19.744420    0.834265    0.834327    0.834242    0.000060   -0.000014    0.000034
   20.225991    0.351102    0.351174    0.351090    0.000053   -0.000018    0.000028
   20.707562    0.397415    0.397493    0.397409    0.000050   -0.000020    0.000026
   21.189134    0.834164    0.834243    0.834157    0.000052   -0.000020    0.000027
   21.670705    0.920181    0.920260    0.920172    0.000053   -0.000020    0.000028
   22.152276    1.014941    1.015021    1.014930    0.000056   -0.000020    0.000030
   22.633847    0.728997    0.729083    0.728991    0.000054   -0.000021    0.000028
   23.115419    0.981906    0.981993    0.981899    0.000055   -0.000022    0.000029
   23.596990    1.280643    1.280736    1.280641    0.000053   -0.000024    0.000027
   24.078561    0.888787    0.888874    0.888774    0.000062   -0.000021    0.000033
   24.560132    1.075703    1.075794    1.075693    0.000062   -0.000023    0.000033
   25.041703    0.515284    0.515376    0.515271    0.000065   -0.000022    0.000035
   25.523275    0.876212    0.876309    0.876201    0.000065   -0.000024    0.000035
   26.004846    0.727368    0.727466    0.727354    0.000069   -0.000024    0.000037
   26.486417    0.918302    0.918404    0.918289    0.000070   -0.000025    0.000037
   26.967988    1.056001    1.056103    1.055984    0.000075   -0.000025    0.000041
   27.449560    0.999866    1.000043    0.999937    0.000016   -0.000051   -0.000002
   27.931131    0.787747    0.787882    0.787760    0.000060   -0.000035    0.000029
   28.412702    1.037022    1.037149    1.037018    0.000074   -0.000032    0.000038
[...]
   40.933554    0.871793    0.871386    0.871844   -0.000274    0.000105   -0.000141
   41.415125    0.880323    0.879985    0.880365   -0.000228    0.000087   -0.000118
   41.896696    0.887388    0.887098    0.887423   -0.000195    0.000074   -0.000102
   42.378267    0.893471    0.893219    0.893502   -0.000171    0.000064   -0.000089
   42.859839    0.898826    0.898602    0.898853   -0.000151    0.000056   -0.000079
   43.341410    0.903608    0.903407    0.903632   -0.000135    0.000050   -0.000071
   43.822981    0.907923    0.907742    0.907945   -0.000123    0.000046   -0.000064
   44.304552    0.911850    0.911685    0.911870   -0.000112    0.000041   -0.000059
   44.786123    0.915447    0.915296    0.915466   -0.000103    0.000038   -0.000054
   45.267695    0.918761    0.918620    0.918778   -0.000095    0.000035   -0.000050
   45.749266    0.921826    0.921696    0.921842   -0.000088    0.000033   -0.000046
   46.230837    0.924675    0.924553    0.924690   -0.000082    0.000030   -0.000043
   46.712408    0.927330    0.927217    0.927344   -0.000077    0.000028   -0.000041
   47.193980    0.929814    0.929707    0.929827   -0.000073    0.000027   -0.000038
   47.675551    0.932144    0.932043    0.932156   -0.000068    0.000025   -0.000036

  frequency dependent IMAGINARY DIELECTRIC FUNCTION (independent particle, no local field effects) current-current (2nd set in vasprun.xml)
     E(ev)      X         Y         Z        XY        YZ        ZX
    0.000000    0.736492    0.736715    0.736464   -0.013935   -0.012758   -0.017017
    0.481571    0.073721    0.073743    0.073718   -0.001394   -0.001276   -0.001702
    0.963142    0.036970    0.036981    0.036969   -0.000697   -0.000638   -0.000851
    1.444714    0.024769    0.024776    0.024768   -0.000465   -0.000426   -0.000568
    1.926285    0.018706    0.018712    0.018706   -0.000349   -0.000320   -0.000426
    2.407856    0.015100    0.015105    0.015100   -0.000280   -0.000256   -0.000342
    2.889427    0.012724    0.012728    0.012723   -0.000234   -0.000214   -0.000285
    3.370999    0.011051    0.011054    0.011051   -0.000201   -0.000184   -0.000245
    3.852570    0.009819    0.009822    0.009819   -0.000176   -0.000161   -0.000215
    4.334141    0.008884    0.008886    0.008883   -0.000157   -0.000144   -0.000191
    4.815712    0.008156    0.008159    0.008156   -0.000142   -0.000130   -0.000173
    5.297283    0.007583    0.007585    0.007583   -0.000129   -0.000118   -0.000158
    5.778855    0.007126    0.007128    0.007126   -0.000119   -0.000109   -0.000145
    6.260426    0.006762    0.006764    0.006762   -0.000110   -0.000101   -0.000134
    6.741997    0.006473    0.006475    0.006473   -0.000103   -0.000094   -0.000125
    7.223568    0.006247    0.006248    0.006247   -0.000096   -0.000088   -0.000118
    7.705140    0.006075    0.006076    0.006074   -0.000091   -0.000083   -0.000111
    8.186711    0.005951    0.005952    0.005950   -0.000086   -0.000079   -0.000105
    8.668282    0.005871    0.005872    0.005871   -0.000081   -0.000075   -0.000100
    9.149853    0.005834    0.005835    0.005834   -0.000078   -0.000071   -0.000095
    9.631424    0.005838    0.005840    0.005838   -0.000074   -0.000068   -0.000091
   10.112996    0.005886    0.005887    0.005886   -0.000071   -0.000065   -0.000087
   10.594567    0.005979    0.005981    0.005979   -0.000068   -0.000063   -0.000084
   11.076138    0.006123    0.006124    0.006123   -0.000066   -0.000060   -0.000081
   11.557709    0.006325    0.006326    0.006325   -0.000064   -0.000058   -0.000078
   12.039281    0.006595    0.006596    0.006595   -0.000062   -0.000057   -0.000075
   12.520852    0.006950    0.006951    0.006949   -0.000060   -0.000055   -0.000073
   13.002423    0.007410    0.007411    0.007410   -0.000058   -0.000053   -0.000071
   13.483994    0.008010    0.008011    0.008009   -0.000057   -0.000052   -0.000069
   13.965565    0.008798    0.008799    0.008798   -0.000055   -0.000051   -0.000067
   14.447137    0.009854    0.009855    0.009854   -0.000054   -0.000050   -0.000066
   14.928708    0.011306    0.011306    0.011305   -0.000053   -0.000048   -0.000064
   15.410279    0.013380    0.013381    0.013380   -0.000052   -0.000047   -0.000063
   15.891850    0.016510    0.016510    0.016509   -0.000051   -0.000047   -0.000062
   16.373421    0.021625    0.021625    0.021624   -0.000050   -0.000046   -0.000061
   16.854993    0.031121    0.031121    0.031120   -0.000048   -0.000045   -0.000060
   17.336564    0.053640    0.053639    0.053637   -0.000046   -0.000044   -0.000058
   17.818135    0.188657    0.188649    0.188645   -0.000040   -0.000041   -0.000053
   18.299706    0.662013    0.661857    0.661817    0.000088    0.000012    0.000038
   18.781278    1.553429    1.553666    1.553723   -0.000251   -0.000126   -0.000202
   19.262849    0.526434    0.526443    0.526444   -0.000053   -0.000045   -0.000062
   19.744420    1.271699    1.271700    1.271699   -0.000046   -0.000042   -0.000056
   20.225991    0.310487    0.310486    0.310485   -0.000044   -0.000041   -0.000055
   20.707562    0.362274    0.362272    0.362270   -0.000043   -0.000041   -0.000054
   21.189134    0.067788    0.067789    0.067788   -0.000045   -0.000042   -0.000055
   21.670705    0.525481    0.525487    0.525487   -0.000049   -0.000043   -0.000058
   22.152276    0.079761    0.079763    0.079761   -0.000045   -0.000042   -0.000055
   22.633847    0.631547    0.631554    0.631555   -0.000051   -0.000044   -0.000059
   23.115419    0.294585    0.294582    0.294580   -0.000041   -0.000040   -0.000053
   23.596990    0.410700    0.410711    0.410712   -0.000053   -0.000045   -0.000061
   24.078561    0.357599    0.357602    0.357601   -0.000047   -0.000043   -0.000057
   24.560132    0.449655    0.449658    0.449657   -0.000047   -0.000043   -0.000057
   25.041703    0.238180    0.238182    0.238181   -0.000047   -0.000043   -0.000057
   25.523275    0.055065    0.055066    0.055065   -0.000047   -0.000043   -0.000057
   26.004846    0.375353    0.375358    0.375357   -0.000050   -0.000045   -0.000060
   26.486417    0.038495    0.038497    0.038495   -0.000048   -0.000044   -0.000059
   26.967988    0.062775    0.062773    0.062771   -0.000046   -0.000044   -0.000057
   27.449560    0.289752    0.289888    0.289920   -0.000165   -0.000093   -0.000143
   27.931131    0.183707    0.183543    0.183499    0.000094    0.000012    0.000040
   28.412702    0.276625    0.276625    0.276622   -0.000050   -0.000047   -0.000062
[...]
   40.933554    0.001365    0.001380    0.001363    0.000136    0.000110    0.000158
   41.415125    0.001019    0.001030    0.001018    0.000110    0.000091    0.000129
   41.896696    0.000817    0.000825    0.000816    0.000092    0.000077    0.000108
   42.378267    0.000679    0.000684    0.000678    0.000079    0.000066    0.000093
   42.859839    0.000576    0.000581    0.000576    0.000069    0.000058    0.000081
   43.341410    0.000497    0.000500    0.000496    0.000061    0.000052    0.000072
   43.822981    0.000433    0.000436    0.000433    0.000054    0.000046    0.000064
   44.304552    0.000382    0.000384    0.000381    0.000049    0.000042    0.000058
   44.786123    0.000339    0.000340    0.000338    0.000044    0.000038    0.000052
   45.267695    0.000302    0.000304    0.000302    0.000040    0.000035    0.000048
   45.749266    0.000271    0.000273    0.000271    0.000037    0.000032    0.000044
   46.230837    0.000245    0.000246    0.000245    0.000034    0.000030    0.000041
   46.712408    0.000222    0.000223    0.000222    0.000031    0.000027    0.000038
   47.193980    0.000202    0.000203    0.000202    0.000029    0.000025    0.000035
   47.675551    0.000184    0.000185    0.000184    0.000027    0.000024    0.000033

  frequency dependent      REAL DIELECTRIC FUNCTION (independent particle, no local field effects) current-current (2nd set in vasprun.xml)
     E(ev)        X           Y           Z          XY          YZ          ZX
    0.000000    1.177321    1.177374    1.177314    0.000037   -0.000013    0.000020
    0.481571    1.177407    1.177461    1.177400    0.000037   -0.000013    0.000020
    0.963142    1.177670    1.177724    1.177663    0.000037   -0.000013    0.000020
    1.444714    1.178110    1.178164    1.178103    0.000037   -0.000013    0.000020
    1.926285    1.178731    1.178784    1.178724    0.000037   -0.000013    0.000020
    2.407856    1.179535    1.179589    1.179528    0.000037   -0.000013    0.000020
    2.889427    1.180530    1.180584    1.180523    0.000037   -0.000013    0.000020
    3.370999    1.181722    1.181776    1.181715    0.000037   -0.000013    0.000020
    3.852570    1.183119    1.183173    1.183112    0.000038   -0.000013    0.000020
    4.334141    1.184732    1.184786    1.184725    0.000038   -0.000013    0.000020
    4.815712    1.186574    1.186628    1.186567    0.000038   -0.000013    0.000020
    5.297283    1.188658    1.188713    1.188651    0.000038   -0.000013    0.000020
    5.778855    1.191003    1.191058    1.190996    0.000038   -0.000013    0.000020
    6.260426    1.193627    1.193682    1.193620    0.000038   -0.000013    0.000020
    6.741997    1.196556    1.196611    1.196549    0.000038   -0.000013    0.000021
    7.223568    1.199816    1.199872    1.199809    0.000039   -0.000013    0.000021
    7.705140    1.203441    1.203497    1.203434    0.000039   -0.000014    0.000021
    8.186711    1.207469    1.207525    1.207461    0.000039   -0.000014    0.000021
    8.668282    1.211946    1.212002    1.211938    0.000039   -0.000014    0.000021
    9.149853    1.216927    1.216984    1.216920    0.000040   -0.000014    0.000021
    9.631424    1.222479    1.222536    1.222472    0.000040   -0.000014    0.000021
   10.112996    1.228683    1.228740    1.228675    0.000040   -0.000014    0.000021
   10.594567    1.235636    1.235694    1.235628    0.000041   -0.000014    0.000022
   11.076138    1.243461    1.243519    1.243453    0.000041   -0.000014    0.000022
   11.557709    1.252312    1.252370    1.252304    0.000041   -0.000014    0.000022
   12.039281    1.262383    1.262442    1.262375    0.000042   -0.000014    0.000022
   12.520852    1.273927    1.273986    1.273918    0.000042   -0.000014    0.000023
   13.002423    1.287276    1.287335    1.287267    0.000043   -0.000014    0.000023
   13.483994    1.302878    1.302938    1.302869    0.000043   -0.000014    0.000023
   13.965565    1.321353    1.321414    1.321344    0.000044   -0.000015    0.000024
   14.447137    1.343589    1.343650    1.343579    0.000045   -0.000015    0.000024
   14.928708    1.370904    1.370965    1.370893    0.000045   -0.000015    0.000024
   15.410279    1.405358    1.405420    1.405347    0.000046   -0.000015    0.000025
   15.891850    1.450388    1.450449    1.450376    0.000048   -0.000015    0.000026
   16.373421    1.512247    1.512308    1.512233    0.000049   -0.000014    0.000027
   16.854993    1.603910    1.603968    1.603892    0.000052   -0.000013    0.000029
   17.336564    1.758949    1.759002    1.758923    0.000058   -0.000011    0.000033
   17.818135    2.116293    2.116327    2.116242    0.000077   -0.000005    0.000046
   18.299706    2.831637    2.831531    2.831410    0.000200    0.000045    0.000133
   18.781278    0.682947    0.682815    0.682686    0.000224    0.000054    0.000150
   19.262849    0.931524    0.931563    0.931474    0.000078   -0.000006    0.000047
   19.744420    0.821971    0.822034    0.821950    0.000059   -0.000014    0.000033
   20.225991    0.347453    0.347525    0.347442    0.000052   -0.000018    0.000028
   20.707562    0.393182    0.393260    0.393176    0.000050   -0.000019    0.000026
   21.189134    0.833122    0.833201    0.833115    0.000051   -0.000019    0.000027
   21.670705    0.914956    0.915035    0.914947    0.000053   -0.000019    0.000028
   22.152276    1.013721    1.013802    1.013711    0.000055   -0.000020    0.000030
   22.633847    0.723823    0.723909    0.723817    0.000054   -0.000021    0.000028
   23.115419    0.979650    0.979737    0.979643    0.000055   -0.000021    0.000029
   23.596990    1.277686    1.277780    1.277685    0.000053   -0.000024    0.000027
   24.078561    0.885254    0.885340    0.885241    0.000062   -0.000021    0.000034
   24.560132    1.071811    1.071903    1.071801    0.000062   -0.000022    0.000033
   25.041703    0.513322    0.513414    0.513309    0.000065   -0.000022    0.000035
   25.523275    0.875687    0.875784    0.875676    0.000066   -0.000023    0.000035
   26.004846    0.724456    0.724553    0.724442    0.000069   -0.000024    0.000037
   26.486417    0.917995    0.918097    0.917982    0.000071   -0.000025    0.000038
   26.967988    1.055540    1.055642    1.055523    0.000076   -0.000024    0.000041
   27.449560    0.997324    0.997502    0.997395    0.000016   -0.000051   -0.000001
   27.931131    0.786307    0.786441    0.786319    0.000060   -0.000035    0.000029
   28.412702    1.034675    1.034801    1.034670    0.000075   -0.000031    0.000039
[...]
   40.933554    0.871779    0.871371    0.871829   -0.000274    0.000104   -0.000142
   41.415125    0.880310    0.879971    0.880352   -0.000229    0.000086   -0.000119
   41.896696    0.887375    0.887086    0.887411   -0.000196    0.000073   -0.000102
   42.378267    0.893460    0.893207    0.893491   -0.000171    0.000064   -0.000089
   42.859839    0.898815    0.898592    0.898842   -0.000151    0.000056   -0.000079
   43.341410    0.903597    0.903397    0.903622   -0.000136    0.000050   -0.000071
   43.822981    0.907913    0.907732    0.907935   -0.000123    0.000045   -0.000065
   44.304552    0.911841    0.911676    0.911861   -0.000112    0.000041   -0.000059
   44.786123    0.915438    0.915287    0.915457   -0.000103    0.000038   -0.000054
   45.267695    0.918752    0.918612    0.918769   -0.000095    0.000035   -0.000050
   45.749266    0.921818    0.921688    0.921834   -0.000089    0.000032   -0.000047
   46.230837    0.924667    0.924545    0.924681   -0.000083    0.000030   -0.000044
   46.712408    0.927322    0.927209    0.927336   -0.000077    0.000028   -0.000041
   47.193980    0.929806    0.929700    0.929820   -0.000073    0.000026   -0.000038
   47.675551    0.932136    0.932036    0.932148   -0.000068    0.000025   -0.000036

 The outermost node in the dielectric function lies at epsilon=  -1.0