 vasp.5.4.4.18Apr17-6-g9f103f2a35 (build Jul 09 2018 16:43:14) complex

 executed on             LinuxIFC date 2018.11.24  21:29:27

 INCAR:
 POTCAR:    PAW Og, JanMewes Oct 18

 POTCAR:    PAW Og, JanMewes Oct 18
   VRHFIN =Og : 10d 2s 6p, PE

   TITEL  = PAW Og, JanMewes Oct 18
   POMASS =    0.010; ZVAL   =   18.000    mass and valenz
   ENMAX  =  339.336; ENMIN  =  254.502 eV
   QCUT   =   -4.994; QGAM   =    9.988    optimization parameters

  PAW Og, JanMewes Oct 18               :

 POSCAR: Og_FCC
  positions in direct lattice
  velocities in cartesian coordinates
 exchange correlation table for  LEXCH =        8
   RHO(1)=    0.500       N(1)  =     2000
   RHO(2)=  100.500       N(2)  =     4000

 ion  position               nearest neighbor table
   1  0.000  0.000  0.000-

IMPORTANT INFORMATION: All symmetrisations will be switched off!
NOSYMM: (Re-)initialisation of all symmetry stuff for point group C_1.

 KPOINTS: k-points

Automatic generation of k-mesh.
Space group operators:
 irot       det(A)        alpha          n_x          n_y          n_z        tau_x        tau_y        tau_z
    1     1.000000     0.000000     1.000000     0.000000     0.000000     0.000000     0.000000     0.000000

 Subroutine IBZKPT returns following result:

 Found    343 irreducible k-points:

 Following reciprocal coordinates:
            Coordinates               Weight
  0.000000  0.000000  0.000000      1.000000
  0.142857  0.000000  0.000000      1.000000
  0.285714  0.000000  0.000000      1.000000
  0.428571  0.000000  0.000000      1.000000
 -0.428571 -0.000000 -0.000000      1.000000
 -0.285714 -0.000000 -0.000000      1.000000
 -0.142857 -0.000000 -0.000000      1.000000
  0.000000  0.142857  0.000000      1.000000
  0.142857  0.142857  0.000000      1.000000
  0.285714  0.142857  0.000000      1.000000
  0.428571  0.142857  0.000000      1.000000
 -0.428571  0.142857 -0.000000      1.000000
 -0.285714  0.142857 -0.000000      1.000000
 -0.142857  0.142857 -0.000000      1.000000
  0.000000  0.285714 -0.000000      1.000000
  0.142857  0.285714  0.000000      1.000000
  0.285714  0.285714  0.000000      1.000000
  0.428571  0.285714  0.000000      1.000000
 -0.428571  0.285714 -0.000000      1.000000
 -0.285714  0.285714 -0.000000      1.000000
 -0.142857  0.285714 -0.000000      1.000000
  0.000000  0.428571 -0.000000      1.000000
  0.142857  0.428571  0.000000      1.000000
  0.285714  0.428571  0.000000      1.000000
  0.428571  0.428571  0.000000      1.000000
 -0.428571  0.428571 -0.000000      1.000000
 -0.285714  0.428571 -0.000000      1.000000
 -0.142857  0.428571 -0.000000      1.000000
 -0.000000 -0.428571  0.000000      1.000000
  0.142857 -0.428571  0.000000      1.000000
  0.285714 -0.428571  0.000000      1.000000
  0.428571 -0.428571  0.000000      1.000000
 -0.428571 -0.428571  0.000000      1.000000
 -0.285714 -0.428571 -0.000000      1.000000
 -0.142857 -0.428571  0.000000      1.000000
 -0.000000 -0.285714  0.000000      1.000000
  0.142857 -0.285714  0.000000      1.000000
  0.285714 -0.285714  0.000000      1.000000
  0.428571 -0.285714  0.000000      1.000000
 -0.428571 -0.285714 -0.000000      1.000000
 -0.285714 -0.285714 -0.000000      1.000000
 -0.142857 -0.285714 -0.000000      1.000000
 -0.000000 -0.142857 -0.000000      1.000000
  0.142857 -0.142857  0.000000      1.000000
  0.285714 -0.142857  0.000000      1.000000
  0.428571 -0.142857  0.000000      1.000000
 -0.428571 -0.142857 -0.000000      1.000000
 -0.285714 -0.142857 -0.000000      1.000000
 -0.142857 -0.142857 -0.000000      1.000000
 -0.000000  0.000000  0.142857      1.000000
  0.142857 -0.000000  0.142857      1.000000
  0.285714 -0.000000  0.142857      1.000000
  0.428571 -0.000000  0.142857      1.000000
 -0.428571 -0.000000  0.142857      1.000000
 -0.285714 -0.000000  0.142857      1.000000
 -0.142857 -0.000000  0.142857      1.000000
 -0.000000  0.142857  0.142857      1.000000
  0.142857  0.142857  0.142857      1.000000
  0.285714  0.142857  0.142857      1.000000
  0.428571  0.142857  0.142857      1.000000
[...]
 -0.142857 -0.428571 -0.142857      1.000000
  0.000000 -0.285714 -0.142857      1.000000
  0.142857 -0.285714 -0.142857      1.000000
  0.285714 -0.285714 -0.142857      1.000000
  0.428571 -0.285714 -0.142857      1.000000
 -0.428571 -0.285714 -0.142857      1.000000
 -0.285714 -0.285714 -0.142857      1.000000
 -0.142857 -0.285714 -0.142857      1.000000
  0.000000 -0.142857 -0.142857      1.000000
  0.142857 -0.142857 -0.142857      1.000000
  0.285714 -0.142857 -0.142857      1.000000
  0.428571 -0.142857 -0.142857      1.000000
 -0.428571 -0.142857 -0.142857      1.000000
 -0.285714 -0.142857 -0.142857      1.000000
 -0.142857 -0.142857 -0.142857      1.000000

 Following cartesian coordinates:
            Coordinates               Weight
  0.000000  0.000000  0.000000      1.000000
  0.032899 -0.018994 -0.013431      1.000000
  0.065797 -0.037988 -0.026862      1.000000
  0.098696 -0.056982 -0.040292      1.000000
 -0.098696  0.056982  0.040292      1.000000
 -0.065797  0.037988  0.026862      1.000000
 -0.032899  0.018994  0.013431      1.000000
  0.000000  0.037988 -0.013431      1.000000
  0.032899  0.018994 -0.026862      1.000000
  0.065797  0.000000 -0.040292      1.000000
  0.098696 -0.018994 -0.053723      1.000000
 -0.098696  0.094970  0.026862      1.000000
 -0.065797  0.075976  0.013431      1.000000
 -0.032899  0.056982 -0.000000      1.000000
  0.000000  0.075976 -0.026862      1.000000
  0.032899  0.056982 -0.040292      1.000000
  0.065797  0.037988 -0.053723      1.000000
  0.098696  0.018994 -0.067154      1.000000
 -0.098696  0.132958  0.013431      1.000000
 -0.065797  0.113964  0.000000      1.000000
 -0.032899  0.094970 -0.013431      1.000000
  0.000000  0.113964 -0.040292      1.000000
  0.032899  0.094970 -0.053723      1.000000
  0.065797  0.075976 -0.067154      1.000000
  0.098696  0.056982 -0.080585      1.000000
 -0.098696  0.170946  0.000000      1.000000
 -0.065797  0.151952 -0.013431      1.000000
 -0.032899  0.132958 -0.026862      1.000000
 -0.000000 -0.113964  0.040292      1.000000
  0.032899 -0.132958  0.026862      1.000000
  0.065797 -0.151952  0.013431      1.000000
  0.098696 -0.170946 -0.000000      1.000000
 -0.098696 -0.056982  0.080585      1.000000
 -0.065797 -0.075976  0.067154      1.000000
 -0.032899 -0.094970  0.053723      1.000000
 -0.000000 -0.075976  0.026862      1.000000
  0.032899 -0.094970  0.013431      1.000000
  0.065797 -0.113964 -0.000000      1.000000
  0.098696 -0.132958 -0.013431      1.000000
 -0.098696 -0.018994  0.067154      1.000000
 -0.065797 -0.037988  0.053723      1.000000
 -0.032899 -0.056982  0.040292      1.000000
 -0.000000 -0.037988  0.013431      1.000000
  0.032899 -0.056982 -0.000000      1.000000
  0.065797 -0.075976 -0.013431      1.000000
  0.098696 -0.094970 -0.026862      1.000000
 -0.098696  0.018994  0.053723      1.000000
 -0.065797  0.000000  0.040292      1.000000
 -0.032899 -0.018994  0.026862      1.000000
 -0.000000  0.000000  0.040292      1.000000
  0.032899 -0.018994  0.026862      1.000000
  0.065797 -0.037988  0.013431      1.000000
  0.098696 -0.056982  0.000000      1.000000
 -0.098696  0.056982  0.080585      1.000000
 -0.065797  0.037988  0.067154      1.000000
 -0.032899  0.018994  0.053723      1.000000
 -0.000000  0.037988  0.026862      1.000000
  0.032899  0.018994  0.013431      1.000000
  0.065797  0.000000  0.000000      1.000000
  0.098696 -0.018994 -0.013431      1.000000
[...]
 -0.032899 -0.094970  0.013431      1.000000
  0.000000 -0.075976 -0.013431      1.000000
  0.032899 -0.094970 -0.026862      1.000000
  0.065797 -0.113964 -0.040292      1.000000
  0.098696 -0.132958 -0.053723      1.000000
 -0.098696 -0.018994  0.026862      1.000000
 -0.065797 -0.037988  0.013431      1.000000
 -0.032899 -0.056982  0.000000      1.000000
  0.000000 -0.037988 -0.026862      1.000000
  0.032899 -0.056982 -0.040292      1.000000
  0.065797 -0.075976 -0.053723      1.000000
  0.098696 -0.094970 -0.067154      1.000000
 -0.098696  0.018994  0.013431      1.000000
 -0.065797  0.000000  0.000000      1.000000
 -0.032899 -0.018994 -0.013431      1.000000

 SYSTEM =  Og_FCC
 POSCAR =  Og_FCC

 Startparameter for this run:
   NWRITE =      2    write-flag & timer
   PREC   = accura    normal or accurate (medium, high low for compatibility)
   ISTART =      1    job   : 0-new  1-cont  2-samecut
   ICHARG =      0    charge: 1-file 2-atom 10-const
   ISPIN  =      1    spin polarized calculation?
   LNONCOLLINEAR =      T non collinear calculations
   LSORBIT =      T    spin-orbit coupling
   INIWAV =      1    electr: 0-lowe 1-rand  2-diag
   LASPH  =      F    aspherical Exc in radial PAW
   METAGGA=      F    non-selfconsistent MetaGGA calc.

 Electronic Relaxation 1
   ENCUT  =  300.0 eV  22.05 Ry    4.70 a.u.   6.13  6.13  6.13*2*pi/ulx,y,z
   ENINI  =  300.0     initial cutoff
   ENAUG  =  361.0 eV  augmentation charge cutoff
   NELM   =     50;   NELMIN=  2; NELMDL= -5     # of ELM steps
   EDIFF  = 0.1E-07   stopping-criterion for ELM
   LREAL  =      F    real-space projection
   NLSPLINE    = F    spline interpolate recip. space projectors
   LCOMPAT=      F    compatible to vasp.4.4
   GGA_COMPAT  = F    GGA compatible to vasp.4.4-vasp.4.6
   LMAXPAW     = -100 max onsite density
   LMAXMIX     =    2 max onsite mixed and CHGCAR
   VOSKOWN=      0    Vosko Wilk Nusair interpolation
   ROPT   =    0.00000
 Ionic relaxation
   EDIFFG = 0.1E-04   stopping-criterion for IOM
   NSW    =      1    number of steps for IOM
   NBLOCK =      1;   KBLOCK =      1    inner block; outer block
   IBRION =     -1    ionic relax: 0-MD 1-quasi-New 2-CG
   NFREE  =      5    steps in history (QN), initial steepest desc. (CG)
   ISIF   =      3    stress and relaxation
   IWAVPR =     10    prediction:  0-non 1-charg 2-wave 3-comb
   ISYM   =      0    0-nonsym 1-usesym 2-fastsym
   LCORR  =      T    Harris-Foulkes like correction to forces

   POTIM  = 0.1000    time-step for ionic-motion
   TEIN   =    0.0    initial temperature
   TEBEG  =    0.0;   TEEND  =   0.0 temperature during run
   SMASS  =  -3.00    Nose mass-parameter (am)
   estimated Nose-frequenzy (Omega)   =  0.10E-29 period in steps =****** mass=  -0.431E-27a.u.
   SCALEE = 1.0000    scale energy and forces
   NPACO  =    256;   APACO  = 16.0  distance and # of slots for P.C.
   PSTRESS=    0.0 pullay stress

  Mass of Ions in am
   POMASS =   0.01
  Ionic Valenz
   ZVAL   =  18.00
  Atomic Wigner-Seitz radii
  virtual crystal weights
   VCA    =   1.00
   NELECT =      18.0000    total number of electrons
   NUPDOWN=      -1.0000    fix difference up-down

 DOS related values:
   EMIN   =  10.00;   EMAX   =-10.00  energy-range for DOS
   EFERMI =   0.00
   ISMEAR =     0;   SIGMA  =   0.00  broadening in eV -4-tet -1-fermi 0-gaus

 Electronic relaxation 2 (details)
   IALGO  =     90    algorithm
   LDIAG  =      T    sub-space diagonalisation (order eigenvalues)
   LSUBROT=      F    optimize rotation matrix (better conditioning)
   TURBO    =      0    0=normal 1=particle mesh
[...]
   49.599327    0.591013    0.591020    0.591018    0.000005    0.000005    0.000008
   50.611558    0.791404    0.791406    0.791404    0.000037    0.000033    0.000044
   51.623789    0.588717    0.588726    0.588730   -0.000028    0.000009   -0.000021
   52.636020    0.794293    0.794271    0.794275    0.000026    0.000018    0.000027
   53.648251    0.786533    0.786574    0.786560   -0.000061   -0.000021   -0.000054
   54.660482    0.880177    0.880178    0.880178   -0.000027   -0.000036   -0.000035
   55.672714    0.732887    0.732898    0.732892    0.000053    0.000068    0.000063
   56.684945    0.583474    0.583476    0.583477   -0.000012   -0.000011   -0.000012
   57.697176    0.695283    0.695284    0.695285   -0.000028   -0.000038   -0.000036
   58.709407    0.756576    0.756576    0.756577   -0.000018   -0.000016   -0.000019
   59.721638    0.720997    0.720997    0.720998    0.000004    0.000002    0.000005
[...]
   86.039648    0.892472    0.892472    0.892472   -0.000000    0.000000   -0.000000
   87.051879    0.897415    0.897415    0.897415   -0.000000    0.000000   -0.000000
   88.064111    0.901656    0.901656    0.901656   -0.000000    0.000000   -0.000000
   89.076342    0.905433    0.905433    0.905433   -0.000000    0.000000   -0.000000
   90.088573    0.908864    0.908864    0.908864   -0.000000    0.000000   -0.000000
   91.100804    0.912018    0.912018    0.912018   -0.000000    0.000000   -0.000000
   92.113035    0.914941    0.914941    0.914941   -0.000000    0.000000   -0.000000
   93.125266    0.917667    0.917667    0.917667   -0.000000    0.000000   -0.000000
   94.137497    0.920222    0.920222    0.920222   -0.000000    0.000000   -0.000000
   95.149729    0.922625    0.922625    0.922625   -0.000000    0.000000   -0.000000
   96.161960    0.924893    0.924893    0.924893   -0.000000    0.000000   -0.000000
   97.174191    0.927038    0.927038    0.927038   -0.000000    0.000000   -0.000000
   98.186422    0.929072    0.929073    0.929072   -0.000000    0.000000   -0.000000
   99.198653    0.931006    0.931006    0.931006   -0.000000    0.000000   -0.000000
  100.210884    0.932846    0.932846    0.932846   -0.000000    0.000000   -0.000000

  frequency dependent IMAGINARY DIELECTRIC FUNCTION (independent particle, no local field effects) current-current (2nd set in vasprun.xml)
     E(ev)      X         Y         Z        XY        YZ        ZX
    0.000000    0.000000    0.000000    0.000000   10.563861   12.663644   13.397725
    1.012231    0.000000    0.000000    0.000000   -0.108725   -0.130742   -0.137950
    2.024462    0.000000    0.000000    0.000000   -0.015055   -0.018443   -0.019138
    3.036693    0.000000    0.000000    0.000000   -0.005449   -0.006761   -0.006949
    4.048925   16.994688   16.994692   16.994690   -0.003651   -0.004840   -0.004708
    5.061156    0.000000    0.000000    0.000000   -0.004926   -0.013087   -0.009266
    6.073387   11.121165   11.121163   11.121164   -0.004434   -0.006222   -0.005721
    7.085618    1.379600    1.375107    1.375532    0.016780    0.027900    0.022241
    8.097849    3.597529    3.597529    3.597529   -0.000381   -0.001234   -0.000487
    9.110080    0.003338    0.002981    0.002658   -0.000753   -0.001676   -0.001229
   10.122312    1.412115    1.408580    1.409828   -0.001245   -0.002358   -0.001751
   11.134543    0.202683    0.202683    0.202683    0.000730    0.000822    0.000908
   12.146774    1.398980    1.398989    1.398991    0.000454    0.000011    0.000353
   13.159005    0.102118    0.102119    0.102118    0.000147    0.000151    0.000177
   14.171236    1.388428    1.388734    1.389073   -0.000246   -0.000103   -0.000163
   15.183467    0.434691    0.434598    0.434599    0.000132    0.000508    0.000255
   16.195698    0.871482    0.871482    0.871482    0.000069    0.000062    0.000076
   17.207930    1.250943    1.250943    1.250943    0.000108    0.000137    0.000137
   18.220161    0.032051    0.032051    0.032051    0.000058    0.000071    0.000073
   19.232392    1.040209    1.040209    1.040209    0.000097    0.000123    0.000124
   20.244623    0.359284    0.359300    0.359303    0.000128    0.000158    0.000156
   21.256854    0.060439    0.060439    0.060439    0.000273    0.000390    0.000348
   22.269085    0.108638    0.109218    0.108820    0.000239    0.000360    0.000299
   23.281317    0.082603    0.082634    0.082618    0.000262    0.000323    0.000334
   24.293548    0.440984    0.440630    0.441099   -0.001717   -0.002188   -0.002162
   25.305779    0.415943    0.415923    0.415936   -0.000274   -0.000347   -0.000349
   26.318010    0.817468    0.817477    0.817456   -0.000356   -0.000471   -0.000462
   27.330241    0.159966    0.159981    0.159988   -0.000243   -0.000298   -0.000305
   28.342472    0.025297    0.025297    0.025297    0.000122    0.000147    0.000150
   29.354704    0.120357    0.120961    0.120617    0.000002    0.000069    0.000014
   30.366935    0.401042    0.401042    0.401042    0.000027    0.000031    0.000031
   31.379166    0.256256    0.256256    0.256256    0.000000    0.000001    0.000001
   32.391397    0.165953    0.165917    0.165930   -0.000002   -0.000004   -0.000009
   33.403628    0.096909    0.096922    0.096921    0.000010    0.000018    0.000015
   34.415859    0.158571    0.158584    0.158578    0.000030    0.000034    0.000037
   35.428090    0.228280    0.228210    0.228165    0.000021    0.000016    0.000019
   36.440322    0.068017    0.068017    0.068017   -0.000003    0.000012    0.000003
   37.452553    0.192237    0.192241    0.192242   -0.000006   -0.000016   -0.000010
   38.464784    0.221337    0.221339    0.221339    0.000024    0.000003    0.000021
   39.477015    0.125367    0.125446    0.125449   -0.000009    0.000021   -0.000002
   40.489246    0.077032    0.076960    0.077003    0.000006   -0.000013    0.000009
   41.501477    0.346393    0.346750    0.346573   -0.000366   -0.000444   -0.000449
   42.513709    1.571797    1.571726    1.571796    0.000012   -0.000026   -0.000004
   43.525940    0.089891    0.089892    0.089891    0.000011    0.000010    0.000013
   44.538171    0.099390    0.099397    0.099399   -0.000012   -0.000034   -0.000023
   45.550402    0.088229    0.088213    0.088216    0.000019    0.000011    0.000027
   46.562633    0.266023    0.266023    0.266023    0.000025    0.000019    0.000027
   47.574864    0.478489    0.478526    0.478514   -0.000048   -0.000067   -0.000064
   48.587095    0.328429    0.328427    0.328426    0.000022    0.000019    0.000026
   49.599327    0.412392    0.412392    0.412392   -0.000016   -0.000044   -0.000029
   50.611558    0.521745    0.521744    0.521744    0.000012    0.000053    0.000018
   51.623789    0.068392    0.068439    0.068471   -0.000021   -0.000020   -0.000013
   52.636020    0.086650    0.086536    0.086545    0.000004   -0.000009   -0.000003
   53.648251    0.243188    0.242929    0.243019   -0.000005   -0.000041   -0.000016
   54.660482    0.016506    0.016499    0.016499   -0.000015   -0.000022   -0.000020
   55.672714    0.128453    0.128469    0.128485    0.000032    0.000027    0.000033
   56.684945    0.106710    0.106703    0.106695    0.000002   -0.000004   -0.000002
   57.697176    0.110349    0.110349    0.110350    0.000024    0.000038    0.000034
   58.709407    0.014986    0.014986    0.014986    0.000014    0.000015    0.000016
   59.721638    0.156021    0.156026    0.156027    0.000021    0.000032    0.000027
[...]
   86.039648    0.000000    0.000000    0.000000   -0.000000   -0.000000   -0.000000
   87.051879    0.000000    0.000000    0.000000   -0.000000   -0.000000   -0.000000
   88.064111    0.000000    0.000000    0.000000   -0.000000   -0.000000   -0.000000
   89.076342    0.000000    0.000000    0.000000   -0.000000   -0.000000   -0.000000
   90.088573    0.000000    0.000000    0.000000   -0.000000   -0.000000   -0.000000
   91.100804    0.000000    0.000000    0.000000   -0.000000   -0.000000   -0.000000
   92.113035    0.000000    0.000000    0.000000   -0.000000   -0.000000   -0.000000
   93.125266    0.000000    0.000000    0.000000   -0.000000   -0.000000   -0.000000
   94.137497    0.000000    0.000000    0.000000   -0.000000   -0.000000   -0.000000
   95.149729    0.000000    0.000000    0.000000   -0.000000   -0.000000   -0.000000
   96.161960    0.000000    0.000000    0.000000   -0.000000   -0.000000   -0.000000
   97.174191    0.000000    0.000000    0.000000   -0.000000   -0.000000   -0.000000
   98.186422    0.000000    0.000000    0.000000   -0.000000   -0.000000   -0.000000
   99.198653    0.000000    0.000000    0.000000   -0.000000   -0.000000   -0.000000
  100.210884    0.000000    0.000000    0.000000   -0.000000   -0.000000   -0.000000

  frequency dependent      REAL DIELECTRIC FUNCTION (independent particle, no local field effects) current-current (2nd set in vasprun.xml)
     E(ev)        X           Y           Z          XY          YZ          ZX
    0.000000    8.070846    8.064889    8.070846  -10.411640  -12.489701  -13.207137
    1.012231    5.445519    5.445578    5.445519    0.193228    0.231854    0.245130
    2.024462    6.387544    6.387529    6.387514    0.050574    0.060703    0.064141
    3.036693    2.106025    2.105985    2.105979    0.022652    0.027155    0.028696
    4.048925    4.482474    4.482362    4.482354    0.012367    0.014686    0.015587
    5.061156    5.838963    5.837855    5.837826    0.030268    0.042759    0.038595
    6.073387    0.036161    0.036052    0.036044    0.006255    0.007408    0.007857
    7.085618   -0.784694   -0.783978   -0.784066    0.007204    0.009863    0.009106
    8.097849   -1.410835   -1.410991   -1.411050    0.004855    0.005468    0.005863
    9.110080   -0.093333   -0.093371   -0.093487    0.003754    0.005115    0.004744
   10.122312   -0.800422   -0.799753   -0.799990    0.003141    0.004668    0.004286
   11.134543   -0.260426   -0.260341   -0.260375    0.001851    0.002271    0.002364
   12.146774    0.150069    0.150223    0.150174    0.000995    0.001201    0.001281
   13.159005    0.672075    0.672078    0.672079    0.001252    0.001517    0.001591
   14.171236    0.800763    0.800919    0.800978    0.000830    0.001242    0.001223
   15.183467    0.708276    0.708396    0.708374    0.000834    0.001081    0.001098
   16.195698    0.905191    0.905189    0.905193    0.000746    0.000914    0.000953
   17.207930    0.658094    0.658097    0.658097    0.000650    0.000776    0.000826
   18.220161    0.139450    0.139454    0.139453    0.000603    0.000723    0.000766
   19.232392    0.368593    0.368601    0.368600    0.000567    0.000698    0.000725
   20.244623    0.597165    0.597212    0.597206    0.000613    0.000807    0.000796
   21.256854    0.698342    0.698355    0.698353    0.000275    0.000289    0.000352
   22.269085    0.744531    0.744606    0.744545    0.000567    0.000672    0.000655
   23.281317    0.887009    0.887012    0.887013    0.000349    0.000424    0.000445
   24.293548    1.029768    1.029731    1.029803   -0.000399   -0.000377   -0.000460
   25.305779    0.825528    0.825499    0.825506    0.000292    0.000289    0.000352
   26.318010    0.753493    0.753491    0.753495    0.000485    0.000650    0.000628
   27.330241    0.704888    0.704884    0.704884    0.000328    0.000379    0.000412
   28.342472    0.904347    0.904343    0.904349    0.000280    0.000341    0.000361
   29.354704    0.973925    0.974015    0.973964    0.000232    0.000315    0.000281
   30.366935    1.027651    1.027638    1.027644    0.000222    0.000251    0.000277
   31.379166    0.992660    0.992659    0.992659    0.000212    0.000258    0.000270
   32.391397    1.020749    1.020761    1.020759    0.000145    0.000212    0.000201
   33.403628    1.002197    1.002192    1.002193    0.000178    0.000198    0.000222
   34.415859    0.994716    0.994681    0.994692    0.000068    0.000016    0.000070
   35.428090    1.073119    1.073100    1.073096    0.000232    0.000265    0.000279
   36.440322    1.151146    1.151141    1.151142    0.000226    0.000276    0.000285
   37.452553    1.099470    1.099469    1.099471    0.000128    0.000139    0.000162
   38.464784    1.197383    1.197347    1.197359    0.000121    0.000109    0.000138
   39.477015    1.045747    1.045710    1.045716    0.000219    0.000267    0.000266
   40.489246    1.439698    1.439707    1.439701    0.000202    0.000207    0.000243
   41.501477    1.217105    1.217160    1.217130    0.000488    0.000726    0.000632
   42.513709    0.965316    0.965292    0.965300    0.000196    0.000212    0.000246
   43.525940    1.129019    1.129013    1.129016    0.000126    0.000143    0.000156
   44.538171    0.573979    0.573979    0.573988    0.000049    0.000054    0.000069
   45.550402    0.833753    0.833752    0.833753    0.000031    0.000028    0.000034
   46.562633    0.982293    0.982288    0.982289    0.000047    0.000051    0.000055
   47.574864    0.958066    0.958061    0.958061    0.000072    0.000081    0.000087
   48.587095    1.198702    1.198708    1.198704    0.000071    0.000092    0.000089
   49.599327    0.589022    0.589028    0.589027    0.000091    0.000107    0.000117
   50.611558    0.789043    0.789045    0.789044    0.000119    0.000130    0.000147
   51.623789    0.587938    0.587945    0.587950    0.000051    0.000103    0.000079
   52.636020    0.793346    0.793324    0.793327    0.000102    0.000108    0.000123
   53.648251    0.785601    0.785642    0.785628    0.000011    0.000066    0.000039
   54.660482    0.879452    0.879453    0.879453    0.000043    0.000048    0.000054
   55.672714    0.731543    0.731553    0.731547    0.000121    0.000148    0.000149
   56.684945    0.582633    0.582634    0.582636    0.000054    0.000067    0.000071
   57.697176    0.694667    0.694667    0.694668    0.000035    0.000037    0.000044
   58.709407    0.756150    0.756150    0.756151    0.000043    0.000057    0.000058
   59.721638    0.720410    0.720409    0.720410    0.000062    0.000072    0.000079
[...]
   86.039648    0.892409    0.892409    0.892409    0.000028    0.000034    0.000036
   87.051879    0.897353    0.897353    0.897353    0.000028    0.000033    0.000035
   88.064111    0.901596    0.901596    0.901596    0.000027    0.000032    0.000034
   89.076342    0.905375    0.905375    0.905375    0.000026    0.000032    0.000033
   90.088573    0.908807    0.908807    0.908807    0.000026    0.000031    0.000033
   91.100804    0.911962    0.911962    0.911962    0.000025    0.000030    0.000032
   92.113035    0.914886    0.914886    0.914886    0.000025    0.000030    0.000031
   93.125266    0.917614    0.917614    0.917614    0.000024    0.000029    0.000031
   94.137497    0.920170    0.920170    0.920170    0.000024    0.000028    0.000030
   95.149729    0.922574    0.922574    0.922574    0.000023    0.000028    0.000029
   96.161960    0.924843    0.924843    0.924843    0.000023    0.000027    0.000029
   97.174191    0.926989    0.926989    0.926989    0.000022    0.000027    0.000028
   98.186422    0.929025    0.929025    0.929025    0.000022    0.000026    0.000028
   99.198653    0.930959    0.930959    0.930959    0.000021    0.000026    0.000027
  100.210884    0.932800    0.932800    0.932800    0.000021    0.000025    0.000026

 The outermost node in the dielectric function lies at epsilon=  11.3

 Spin-Orbit-Coupling matrix elements

 Ion:    1  E_soc:    -33.0168321
 l=   1
     0.0000000    -5.0845624    -5.0845623
    -5.0845624     0.0000000    -5.0845623
    -5.0845623    -5.0845623     0.0000000
 l=   2
     0.0000000    -0.0836557     0.0000000    -0.0836557    -0.3345756
    -0.0836557     0.0000000    -0.2509317    -0.0836674    -0.0836557
     0.0000000    -0.2509317     0.0000000    -0.2509317     0.0000000
    -0.0836557    -0.0836674    -0.2509317     0.0000000    -0.0836557
    -0.3345756    -0.0836557     0.0000000    -0.0836557     0.0000000
 l=   3
     0.0000000     0.0000000     0.0000000     0.0000000     0.0000000     0.0000000     0.0000000
     0.0000000     0.0000000     0.0000000     0.0000000     0.0000000     0.0000000     0.0000000
     0.0000000     0.0000000     0.0000000     0.0000000     0.0000000     0.0000000     0.0000000
     0.0000000     0.0000000     0.0000000     0.0000000     0.0000000     0.0000000     0.0000000
     0.0000000     0.0000000     0.0000000     0.0000000     0.0000000     0.0000000     0.0000000
     0.0000000     0.0000000     0.0000000     0.0000000     0.0000000     0.0000000     0.0000000
     0.0000000     0.0000000     0.0000000     0.0000000     0.0000000     0.0000000     0.0000000