 vasp.5.4.4.18Apr17-6-g9f103f2a35 (build Nov 03 2018 10:20:46) complex

 executed on             LinuxIFC date 2018.12.06  12:25:26

 INCAR:
 POTCAR:    PAW_PBE Xe_GW 08Jan2009

 POTCAR:    PAW_PBE Xe_GW 08Jan2009
   VRHFIN =Xe: s2p6

   TITEL  = PAW_PBE Xe_GW 08Jan2009
   POMASS =  131.294; ZVAL   =    8.000    mass and valenz
   ENMAX  =  179.547; ENMIN  =  134.660 eV

  PAW_PBE Xe_GW 08Jan2009               :

 POSCAR: Xe_FCC
  positions in direct lattice
  velocities in cartesian coordinates

 METAGGA = SCAN     LMAXTAU =  0    LMIXTAU =  F

 ion  position               nearest neighbor table
   1  0.000  0.000  0.000-

IMPORTANT INFORMATION: All symmetrisations will be switched off!
NOSYMM: (Re-)initialisation of all symmetry stuff for point group C_1.

 KPOINTS: Automatically generated mesh + R-points
  k-points in reciprocal lattice
Space group operators:
 irot       det(A)        alpha          n_x          n_y          n_z        tau_x        tau_y        tau_z
    1     1.000000     0.000001     1.000000     0.000000     0.000000     0.000000     0.000000     0.000000

 SYSTEM =  Xe_FCC
 POSCAR =  Xe_FCC

 Startparameter for this run:
   NWRITE =      2    write-flag & timer
   PREC   = accura    normal or accurate (medium, high low for compatibility)
   ISTART =      1    job   : 0-new  1-cont  2-samecut
   ICHARG =      0    charge: 1-file 2-atom 10-const
   ISPIN  =      1    spin polarized calculation?
   LNONCOLLINEAR =      F non collinear calculations
   LSORBIT =      F    spin-orbit coupling
   INIWAV =      1    electr: 0-lowe 1-rand  2-diag
   LASPH  =      F    aspherical Exc in radial PAW
   METAGGA=      F    non-selfconsistent MetaGGA calc.

 Electronic Relaxation 1
   ENCUT  =  300.0 eV  22.05 Ry    4.70 a.u.   6.26  6.26  6.26*2*pi/ulx,y,z
   ENINI  =  300.0     initial cutoff
   ENAUG  =  605.9 eV  augmentation charge cutoff
   NELM   =     50;   NELMIN=  2; NELMDL= -5     # of ELM steps
   EDIFF  = 0.1E-07   stopping-criterion for ELM
   LREAL  =      F    real-space projection
   NLSPLINE    = F    spline interpolate recip. space projectors
   LCOMPAT=      F    compatible to vasp.4.4
   GGA_COMPAT  = F    GGA compatible to vasp.4.4-vasp.4.6
   LMAXPAW     = -100 max onsite density
   LMAXMIX     =    2 max onsite mixed and CHGCAR
   VOSKOWN=      0    Vosko Wilk Nusair interpolation
   ROPT   =    0.00000
 Ionic relaxation
   EDIFFG = 0.1E-04   stopping-criterion for IOM
   NSW    =      1    number of steps for IOM
   NBLOCK =      1;   KBLOCK =      1    inner block; outer block
   IBRION =     -1    ionic relax: 0-MD 1-quasi-New 2-CG
   NFREE  =      5    steps in history (QN), initial steepest desc. (CG)
   ISIF   =      3    stress and relaxation
   IWAVPR =     10    prediction:  0-non 1-charg 2-wave 3-comb
   ISYM   =      0    0-nonsym 1-usesym 2-fastsym
   LCORR  =      T    Harris-Foulkes like correction to forces

   POTIM  = 0.1000    time-step for ionic-motion
   TEIN   =    0.0    initial temperature
   TEBEG  =    0.0;   TEEND  =   0.0 temperature during run
   SMASS  =  -3.00    Nose mass-parameter (am)
   estimated Nose-frequenzy (Omega)   =  0.10E-29 period in steps =****** mass=  -0.449E-27a.u.
   SCALEE = 1.0000    scale energy and forces
   NPACO  =    256;   APACO  = 16.0  distance and # of slots for P.C.
   PSTRESS=    0.0 pullay stress

  Mass of Ions in am
   POMASS = 131.29
  Ionic Valenz
   ZVAL   =   8.00
  Atomic Wigner-Seitz radii
  virtual crystal weights
   VCA    =   1.00
   NELECT =       8.0000    total number of electrons
   NUPDOWN=      -1.0000    fix difference up-down

 DOS related values:
   EMIN   =  10.00;   EMAX   =-10.00  energy-range for DOS
   EFERMI =   0.00
   ISMEAR =     0;   SIGMA  =   0.05  broadening in eV -4-tet -1-fermi 0-gaus

 Electronic relaxation 2 (details)
   IALGO  =     38    algorithm
   LDIAG  =      T    sub-space diagonalisation (order eigenvalues)
   LSUBROT=      F    optimize rotation matrix (better conditioning)
   TURBO    =      0    0=normal 1=particle mesh
   IRESTART =      0    0=no restart 2=restart with 2 vectors
   NREBOOT  =      0    no. of reboots
   NMIN     =      0    reboot dimension
   EREF     =   0.00    reference energy to select bands
   IMIX   =      4    mixing-type and parameters
     AMIX     =   0.40;   BMIX     =  1.00
     AMIX_MAG =   1.60;   BMIX_MAG =  1.00
     AMIN     =   0.10
     WC   =   100.;   INIMIX=   1;  MIXPRE=   1;  MAXMIX=  50

 Intra band minimization:
   WEIMIN = 0.0000     energy-eigenvalue tresh-hold
   EBREAK =  0.78E-10  absolut break condition
   DEPER  =   0.30     relativ break condition

   TIME   =   0.40     timestep for ELM

  volume/ion in A,a.u.               =      61.57       415.47
  Fermi-wavevector in a.u.,A,eV,Ry     =   0.829196  1.566953  9.354901  0.687566
  Thomas-Fermi vector in A             =   1.941701

 Write flags
   LWAVE        =      T    write WAVECAR
   LDOWNSAMPLE  =      F    k-point downsampling of WAVECAR
   LCHARG       =      T    write CHGCAR
   LVTOT        =      F    write LOCPOT, total local potential
   LVHAR        =      F    write LOCPOT, Hartree potential only
   LELF         =      F    write electronic localiz. function (ELF)
   LORBIT       =      0    0 simple, 1 ext, 2 COOP (PROOUT), +10 PAW based schemes

 Dipole corrections
   LMONO  =      F    monopole corrections only (constant potential shift)
   LDIPOL =      F    correct potential (dipole corrections)
   IDIPOL =      0    1-x, 2-y, 3-z, 4-all directions
   EPSILON=  1.0000000 bulk dielectric constant

 Exchange correlation treatment:
   GGA     =    --    GGA type
   VOSKOWN=      0    Vosko Wilk Nusair interpolation
   LHFCALC =     F    Hartree Fock is set to
   LHFONE  =     F    Hartree Fock one center treatment
   AEXX    =    0.0000 exact exchange contribution

 Linear response parameters
   LEPSILON=     F    determine dielectric tensor
   LRPA    =     F    only Hartree local field effects (RPA)
   LNABLA  =     F    use nabla operator in PAW spheres
   LVEL    =     F    velocity operator in full k-point grid
   LINTERFAST=   F  fast interpolation
   KINTER  =     0    interpolate to denser k-point grid
   CSHIFT  =0.1000    complex shift for real part using Kramers Kronig
   OMEGAMAX=  -1.0    maximum frequency
   DEG_THRESHOLD= 0.2000000E-02 threshold for treating states as degnerate
   RTIME   =   -0.100 relaxation time in fs
  (WPLASMAI=    0.000 imaginary part of plasma frequency in eV, 0.658/RTIME)
   DFIELD  = 0.0000000 0.0000000 0.0000000 field for delta impulse in time

 Orbital magnetization related:
   ORBITALMAG=     F  switch on orbital magnetization
   LCHIMAG   =     F  perturbation theory with respect to B field
   DQ        =  0.001000  dq finite difference perturbation B field
   LLRAUG    =     F  two centre corrections for induced B field

 Static calculation
 charge density and potential will be updated during run
 non-spin polarized calculation
 Variant of blocked Davidson
 Davidson routine will perform the subspace rotation
 perform sub-space diagonalisation
    after iterative eigenvector-optimisation
 modified Broyden-mixing scheme, WC =      100.0
 initial mixing is a Kerker type mixing with AMIX =  0.4000 and BMIX =      1.0000
 Hartree-type preconditioning will be used
 using additional bands           28
 reciprocal scheme for non local part
 use partial core corrections
 calculate Harris-corrections to forces
   (improved forces if not selfconsistent)
 use gradient corrections
 use of overlap-Matrix (Vanderbilt PP)
 Gauss-broadening in eV      SIGMA  =   0.05

  energy-cutoff  :      300.00
  volume of cell :       61.57
      direct lattice vectors                 reciprocal lattice vectors
     4.432200126  0.000000000  0.000000000     0.225621581 -0.130262681 -0.092109625
     2.216100063  3.838397904 -0.000000000     0.000000000  0.260525361 -0.092109625
     2.216100063  1.279465968  3.618876249    -0.000000000  0.000000000  0.276328874

  length of vectors
     4.432200126  4.432200126  4.432200126     0.276328874  0.276328874  0.276328874

 old parameters found on file WAVECAR:
  energy-cutoff  :      300.00
  volume of cell :       61.57
      direct lattice vectors                 reciprocal lattice vectors
     4.432200126  0.000000000  0.000000000     0.225621581 -0.130262681 -0.092109625
     2.216100063  3.838397904 -0.000000000     0.000000000  0.260525361 -0.092109625
     2.216100063  1.279465968  3.618876249    -0.000000000  0.000000000  0.276328874

  length of vectors

 k-points in units of 2pi/SCALE and weight: Automatically generated mesh + R-points
   0.11281079  0.06513134  0.04605481       0.000
   0.10717025  0.06187477  0.04375207       0.000
   0.10152971  0.05861821  0.04144933       0.000
   0.09588917  0.05536164  0.03914659       0.000
   0.09024863  0.05210507  0.03684385       0.000
   0.08460809  0.04884851  0.03454111       0.000
   0.07896755  0.04559194  0.03223837       0.000
   0.07332701  0.04233537  0.02993563       0.000
   0.06768647  0.03907880  0.02763289       0.000
   0.06204593  0.03582224  0.02533015       0.000
   0.05640540  0.03256567  0.02302741       0.000
   0.05076486  0.02930910  0.02072467       0.000
   0.04512432  0.02605254  0.01842192       0.000
   0.03948378  0.02279597  0.01611918       0.000
   0.03384324  0.01953940  0.01381644       0.000
   0.02820270  0.01628284  0.01151370       0.000
   0.02256216  0.01302627  0.00921096       0.000
   0.01692162  0.00976970  0.00690822       0.000
   0.01128108  0.00651313  0.00460548       0.000
   0.00564054  0.00325657  0.00230274       0.000
   0.00000000  0.00000000  0.00000000       0.000
  -0.00000000  0.00651313  0.00460548       0.000
  -0.00000000  0.01302627  0.00921096       0.000
  -0.00000000  0.01953940  0.01381644       0.000
  -0.00000000  0.02605254  0.01842192       0.000
  -0.00000000  0.03256567  0.02302741       0.000
  -0.00000000  0.03907880  0.02763289       0.000
  -0.00000000  0.04559194  0.03223837       0.000
  -0.00000000  0.05210507  0.03684385       0.000
  -0.00000000  0.05861821  0.04144933       0.000
  -0.00000000  0.06513134  0.04605481       0.000
  -0.00000000  0.07164447  0.05066029       0.000
  -0.00000000  0.07815761  0.05526577       0.000
  -0.00000000  0.08467074  0.05987126       0.000
  -0.00000000  0.09118388  0.06447674       0.000
  -0.00000000  0.09769701  0.06908222       0.000
  -0.00000000  0.10421014  0.07368770       0.000
  -0.00000000  0.11072328  0.07829318       0.000
  -0.00000000  0.11723641  0.08289866       0.000
  -0.00000000  0.12374955  0.08750414       0.000
  -0.00000000  0.13026268  0.09210962       0.000
   0.00000000  0.00000000  0.00000000       0.005
   0.03760360 -0.02171045 -0.01535160       0.009
   0.07520719 -0.04342089 -0.03070321       0.009
   0.11281079 -0.06513134 -0.04605481       0.005
   0.00000000  0.04342089 -0.01535160       0.009
   0.03760360  0.02171045 -0.03070321       0.009
   0.07520719  0.00000000 -0.04605481       0.009
   0.11281079 -0.02171045 -0.06140642       0.009
  -0.07520719  0.08684179  0.01535160       0.009
  -0.03760360  0.06513134  0.00000000       0.009
[...]
   0.00000000  0.50000000  0.50000000       0.005
   0.16666667  0.50000000  0.50000000       0.009
   0.33333333  0.50000000  0.50000000       0.009

 position of ions in fractional coordinates (direct lattice)
   0.00000000  0.00000000  0.00000000

 position of ions in cartesian coordinates  (Angst):
   0.00000000  0.00000000  0.00000000

 k-point  1 :   0.5000 0.5000 0.5000  plane waves:     718
 k-point  2 :   0.4750 0.4750 0.4750  plane waves:     724
 k-point  3 :   0.4500 0.4500 0.4500  plane waves:     730
 k-point  4 :   0.4250 0.4250 0.4250  plane waves:     736
 k-point  5 :   0.4000 0.4000 0.4000  plane waves:     739
 k-point  6 :   0.3750 0.3750 0.3750  plane waves:     739
 k-point  7 :   0.3500 0.3500 0.3500  plane waves:     745
 k-point  8 :   0.3250 0.3250 0.3250  plane waves:     745
 k-point  9 :   0.3000 0.3000 0.3000  plane waves:     745
 k-point 10 :   0.2750 0.2750 0.2750  plane waves:     739
 k-point 11 :   0.2500 0.2500 0.2500  plane waves:     733
 k-point 12 :   0.2250 0.2250 0.2250  plane waves:     733
 k-point 13 :   0.2000 0.2000 0.2000  plane waves:     718
 k-point 14 :   0.1750 0.1750 0.1750  plane waves:     718
 k-point 15 :   0.1500 0.1500 0.1500  plane waves:     712
 k-point 16 :   0.1250 0.1250 0.1250  plane waves:     724
 k-point 17 :   0.1000 0.1000 0.1000  plane waves:     728
 k-point 18 :   0.0750 0.0750 0.0750  plane waves:     731
 k-point 19 :   0.0500 0.0500 0.0500  plane waves:     725
 k-point 20 :   0.0250 0.0250 0.0250  plane waves:     725
 k-point 21 :   0.0000 0.0000 0.0000  plane waves:     725
 k-point 22 :   0.0000 0.0250 0.0250  plane waves:     725
 k-point 23 :   0.0000 0.0500 0.0500  plane waves:     725
 k-point 24 :   0.0000 0.0750 0.0750  plane waves:     729
 k-point 25 :   0.0000 0.1000 0.1000  plane waves:     721
 k-point 26 :   0.0000 0.1250 0.1250  plane waves:     717
 k-point 27 :   0.0000 0.1500 0.1500  plane waves:     721
 k-point 28 :   0.0000 0.1750 0.1750  plane waves:     717
 k-point 29 :   0.0000 0.2000 0.2000  plane waves:     721
 k-point 30 :   0.0000 0.2250 0.2250  plane waves:     721
 k-point 31 :   0.0000 0.2500 0.2500  plane waves:     729
 k-point 32 :   0.0000 0.2750 0.2750  plane waves:     721
 k-point 33 :   0.0000 0.3000 0.3000  plane waves:     721
 k-point 34 :   0.0000 0.3250 0.3250  plane waves:     717
 k-point 35 :   0.0000 0.3500 0.3500  plane waves:     717
 k-point 36 :   0.0000 0.3750 0.3750  plane waves:     725
 k-point 37 :   0.0000 0.4000 0.4000  plane waves:     729
 k-point 38 :   0.0000 0.4250 0.4250  plane waves:     725
 k-point 39 :   0.0000 0.4500 0.4500  plane waves:     732
 k-point 40 :   0.0000 0.4750 0.4750  plane waves:     740
 k-point 41 :   0.0000 0.5000 0.5000  plane waves:     740
 k-point 42 :   0.0000 0.0000 0.0000  plane waves:     725
 k-point 43 :   0.1667 0.0000 0.0000  plane waves:     718
 k-point 44 :   0.3333 0.0000 0.0000  plane waves:     745
 k-point 45 :   0.5000 0.0000 0.0000  plane waves:     718
 k-point 46 :   0.0000 0.1667 0.0000  plane waves:     718
 k-point 47 :   0.1667 0.1667 0.0000  plane waves:     709
 k-point 48 :   0.3333 0.1667 0.0000  plane waves:     731
 k-point 49 :   0.5000 0.1667 0.0000  plane waves:     732
 k-point 50 :  -0.3333 0.1667 0.0000  plane waves:     726
 k-point 51 :  -0.1667 0.1667 0.0000  plane waves:     732
 k-point 52 :   0.0000 0.3333 0.0000  plane waves:     745
 k-point 53 :   0.1667 0.3333 0.0000  plane waves:     731
 k-point 54 :   0.3333 0.3333 0.0000  plane waves:     717
 k-point 55 :   0.5000 0.3333 0.0000  plane waves:     729
 k-point 56 :  -0.3333 0.3333 0.0000  plane waves:     718
 k-point 57 :  -0.1667 0.3333 0.0000  plane waves:     726
 k-point 58 :   0.0000 0.5000 0.0000  plane waves:     718
 k-point 59 :   0.1667 0.5000 0.0000  plane waves:     732
 k-point 60 :   0.3333 0.5000 0.0000  plane waves:     729
[...]
 k-point 85 :  -0.1667 0.5000 0.1667  plane waves:     730
 k-point 86 :   0.0000-0.3333 0.1667  plane waves:     726
 k-point 87 :   0.1667-0.3333 0.1667  plane waves:     732
 k-point 88 :   0.3333-0.3333 0.1667  plane waves:     730
 k-point 89 :   0.5000-0.3333 0.1667  plane waves:     718
 k-point 90 :  -0.3333-0.3333 0.1667  plane waves:     729
 k-point 91 :  -0.1667-0.3333 0.1667  plane waves:     728
 k-point 92 :   0.0000-0.1667 0.1667  plane waves:     732
 k-point 93 :   0.1667-0.1667 0.1667  plane waves:     731
 k-point 94 :   0.3333-0.1667 0.1667  plane waves:     728
 k-point 95 :   0.5000-0.1667 0.1667  plane waves:     730
 k-point 96 :  -0.3333-0.1667 0.1667  plane waves:     728
 k-point 97 :  -0.1667-0.1667 0.1667  plane waves:     731
 k-point 98 :   0.0000 0.0000 0.3333  plane waves:     745
 k-point 99 :   0.1667 0.0000 0.3333  plane waves:     731
 k-point ** :   0.3333 0.0000 0.3333  plane waves:     717
 k-point ** :   0.5000 0.0000 0.3333  plane waves:     729
 k-point ** :  -0.3333 0.0000 0.3333  plane waves:     718
 k-point ** :  -0.1667 0.0000 0.3333  plane waves:     726
 k-point ** :   0.0000 0.1667 0.3333  plane waves:     731
 k-point ** :   0.1667 0.1667 0.3333  plane waves:     732
 k-point ** :   0.3333 0.1667 0.3333  plane waves:     731
 k-point ** :   0.5000 0.1667 0.3333  plane waves:     728
 k-point ** :  -0.3333 0.1667 0.3333  plane waves:     730
 k-point ** :  -0.1667 0.1667 0.3333  plane waves:     728
 k-point ** :   0.0000 0.3333 0.3333  plane waves:     717
 k-point ** :   0.1667 0.3333 0.3333  plane waves:     731
 k-point ** :   0.3333 0.3333 0.3333  plane waves:     745
 k-point ** :   0.5000 0.3333 0.3333  plane waves:     726
 k-point ** :  -0.3333 0.3333 0.3333  plane waves:     718
 k-point ** :  -0.1667 0.3333 0.3333  plane waves:     729
 k-point ** :   0.0000 0.5000 0.3333  plane waves:     729
 k-point ** :   0.1667 0.5000 0.3333  plane waves:     728
 k-point ** :   0.3333 0.5000 0.3333  plane waves:     726
 k-point ** :   0.5000 0.5000 0.3333  plane waves:     732
 k-point ** :  -0.3333 0.5000 0.3333  plane waves:     730
 k-point ** :  -0.1667 0.5000 0.3333  plane waves:     718
 k-point ** :   0.0000-0.3333 0.3333  plane waves:     718
 k-point ** :   0.1667-0.3333 0.3333  plane waves:     730
 k-point ** :   0.3333-0.3333 0.3333  plane waves:     718
 k-point ** :   0.5000-0.3333 0.3333  plane waves:     730
 k-point ** :  -0.3333-0.3333 0.3333  plane waves:     718
 k-point ** :  -0.1667-0.3333 0.3333  plane waves:     730
 k-point ** :   0.0000-0.1667 0.3333  plane waves:     726
 k-point ** :   0.1667-0.1667 0.3333  plane waves:     728
 k-point ** :   0.3333-0.1667 0.3333  plane waves:     729
 k-point ** :   0.5000-0.1667 0.3333  plane waves:     718
 k-point ** :  -0.3333-0.1667 0.3333  plane waves:     730
 k-point ** :  -0.1667-0.1667 0.3333  plane waves:     732
 k-point ** :   0.0000 0.0000 0.5000  plane waves:     718
 k-point ** :   0.1667 0.0000 0.5000  plane waves:     732
 k-point ** :   0.3333 0.0000 0.5000  plane waves:     729
 k-point ** :   0.5000 0.0000 0.5000  plane waves:     740
 k-point ** :   0.0000 0.1667 0.5000  plane waves:     732
 k-point ** :   0.1667 0.1667 0.5000  plane waves:     726
 k-point ** :   0.3333 0.1667 0.5000  plane waves:     728
 k-point ** :   0.5000 0.1667 0.5000  plane waves:     729
 k-point ** :  -0.3333 0.1667 0.5000  plane waves:     718
 k-point ** :  -0.1667 0.1667 0.5000  plane waves:     730
 k-point ** :   0.0000 0.3333 0.5000  plane waves:     729
 k-point ** :   0.1667 0.3333 0.5000  plane waves:     728
 k-point ** :   0.3333 0.3333 0.5000  plane waves:     726
 k-point ** :   0.5000 0.3333 0.5000  plane waves:     732
 k-point ** :  -0.3333 0.3333 0.5000  plane waves:     730
 k-point ** :  -0.1667 0.3333 0.5000  plane waves:     718
 k-point ** :   0.0000 0.5000 0.5000  plane waves:     740
 k-point ** :   0.1667 0.5000 0.5000  plane waves:     729
 k-point ** :   0.3333 0.5000 0.5000  plane waves:     732

 maximum and minimum number of plane-waves per node :       379      349

 maximum number of plane-waves:       745
 maximum index in each direction:
   IXMAX=    6   IYMAX=    6   IZMAX=    6
   IXMIN=   -6   IYMIN=   -6   IZMIN=   -6

 parallel 3D FFT for wavefunctions:
    minimum data exchange during FFTs selected (reduces bandwidth)
 parallel 3D FFT for charge:
    minimum data exchange during FFTs selected (reduces bandwidth)

 Broyden mixing: mesh for mixing (old mesh)
   NGX = 13   NGY = 13   NGZ = 13
  (NGX  = 56   NGY  = 56   NGZ  = 56)
  gives a total of   2197 points

 charge density for first step will be calculated from the start-wavefunctions

 Maximum index for augmentation-charges        68261 (set IRDMAX)

 initial charge from wavefunction
 First call to EWALD:  gamma=   0.449
 Maximum number of real-space cells 3x 3x 3
 Maximum number of reciprocal cells 3x 3x 3

--------------------------------------- Iteration      1(   1)  ---------------------------------------

 eigenvalue-minimisations  :  5872
 total energy-change (2. order) :-0.3624537E+02  (-0.4249211E-13)
 number of electron       8.0000000 magnetization
 augmentation part       -1.3373151 magnetization

 Free energy of the ion-electron system (eV)
  alpha Z        PSCENC =        21.17661221
  Ewald energy   TEWEN  =      -337.05282163
  -Hartree energ DENC   =       -68.59478594
  -exchange      EXHF   =         0.00000000
  -V(xc)+E(xc)   XCENC  =       -57.19346525
  PAW double counting   =       416.71701421     -376.37970230
  entropy T*S    EENTRO =        -0.00000000
  eigenvalues    EBANDS =       -64.42100226
  atomic energy  EATOM  =       429.50278051
  Solvation  Ediel_sol  =         0.00000000
  free energy    TOTEN  =       -36.24537046 eV

  energy without entropy =      -36.24537046  energy(sigma->0) =      -36.24537046

[...]

 eigenvalue-minimisations  :  5888
 total energy-change (2. order) : 0.3410605E-11  ( 0.1218663E-13)
 number of electron       8.0000000 magnetization
 augmentation part       -1.3373151 magnetization

[...]

 eigenvalue-minimisations  :  5856
 total energy-change (2. order) : 0.1489298E-10  (-0.2732285E-13)
 number of electron       8.0000000 magnetization
 augmentation part       -1.3373151 magnetization

[...]

 eigenvalue-minimisations  :  5776
 total energy-change (2. order) :-0.9549694E-11  (-0.3817102E-13)
 number of electron       8.0000000 magnetization
 augmentation part       -1.3373151 magnetization

 Broyden mixing:
  rms(total) = 0.24870E-07    rms(broyden)= 0.24869E-07
  rms(prec ) = 0.67806E-07
  weight for this iteration     100.00

[...]

--------------------------------------- Iteration      1(   6)  ---------------------------------------

 eigenvalue-minimisations  :  5792
 total energy-change (2. order) : 0.3683454E-10  (-0.5254711E-14)
 number of electron       8.0000000 magnetization
 augmentation part       -1.3373151 magnetization

 Free energy of the ion-electron system (eV)
  alpha Z        PSCENC =        21.17661221
  Ewald energy   TEWEN  =      -337.05282163
  -Hartree energ DENC   =       -68.59478631
  -exchange      EXHF   =         0.00000000
  -V(xc)+E(xc)   XCENC  =       -57.19346522
  PAW double counting   =       416.71701222     -376.37970036
  entropy T*S    EENTRO =        -0.00000000
  eigenvalues    EBANDS =       -64.42100188
  atomic energy  EATOM  =       429.50278051
  Solvation  Ediel_sol  =         0.00000000
  free energy    TOTEN  =       -36.24537046 eV

  energy without entropy =      -36.24537046  energy(sigma->0) =      -36.24537046

 average (electrostatic) potential at core
  the test charge radii are     1.1266
  (the norm of the test charge is              1.0000)
       1 -63.1575

 E-fermi :  -4.0741     XC(G=0):  -7.0095     alpha+bet : -3.5563

 k-point     1 :       0.5000    0.5000    0.5000
  band No.  band energies     occupation
      1     -16.9654      2.00000
      2      -5.9448      2.00000
      3      -4.6193      2.00000
      4      -4.6193      2.00000
      5       3.9834      0.00000
      6       6.7031      0.00000
      7       6.7031      0.00000
      8       7.0334      0.00000
      9       9.7706      0.00000
     10      11.0780      0.00000
     11      11.0780      0.00000
     12      12.9736      0.00000
     13      13.0076      0.00000
     14      13.0077      0.00000
     15      17.6270      0.00000
     16      18.2050      0.00000
     17      18.2050      0.00000
     18      19.3033      0.00000
     19      19.9231      0.00000
     20      20.5337      0.00000
     21      20.5337      0.00000
     22      21.3401      0.00000
     23      22.0866      0.00000
     24      22.0866      0.00000
     25      24.8099      0.00000
     26      24.9232      0.00000
     27      25.9763      0.00000
     28      25.9763      0.00000
     29      26.3577      0.00000
     30      26.3577      0.00000
     31      27.5820      0.00000
     32      28.4290      0.00000

[...]

 k-point   152 :       0.3333    0.5000    0.5000
  band No.  band energies     occupation
      1     -16.9496      2.00000
      2      -5.8021      2.00000
      3      -4.8739      2.00000
      4      -4.7107      2.00000
      5       4.5132      0.00000
      6       5.6144      0.00000
      7       6.9023      0.00000
      8       7.3047      0.00000
      9      10.1221      0.00000
     10      11.1438      0.00000
     11      11.4104      0.00000
     12      12.3760      0.00000
     13      13.2298      0.00000
     14      15.6371      0.00000
     15      17.0444      0.00000
     16      17.0790      0.00000
     17      17.8008      0.00000
     18      18.7872      0.00000
     19      19.4649      0.00000
     20      19.6517      0.00000
     21      20.5649      0.00000
     22      20.9338      0.00000
     23      22.4162      0.00000
     24      22.4550      0.00000
     25      24.4153      0.00000
     26      25.0738      0.00000
     27      25.3524      0.00000
     28      25.3797      0.00000
     29      26.6651      0.00000
     30      26.8723      0.00000
     31      28.0852      0.00000
     32      29.1035      0.00000

 soft charge-density along one line, spin component           1
         0         1         2         3         4         5         6         7         8         9
 total charge-density along one line

------------------------ aborting loop because EDIFF is reached ----------------------------------------

  FORCE on cell =-STRESS in cart. coord.  units (eV):
  Direction    XX          YY          ZZ          XY          YZ          ZX
  Alpha Z    21.17661    21.17661    21.17661
  Ewald    -112.35094  -112.35094  -112.35094    -0.00000    -0.00000     0.00000
  Hartree    22.86034    22.86646    22.86798    -0.00529    -0.00216    -0.00374
  E(xc)     -39.94875   -39.94713   -39.94673    -0.00140    -0.00057    -0.00099
  Local     -17.18614   -17.18588   -17.18581    -0.00023    -0.00009    -0.00016
  n-local    44.94923    44.94521    44.94421     0.00348     0.00142     0.00246
  augment   -11.71389   -11.71101   -11.71028    -0.00249    -0.00102    -0.00176
  Kinetic    92.22718    92.20072    92.19411     0.02291     0.00935     0.01620
  Fock        0.00000     0.00000     0.00000     0.00000     0.00000     0.00000
  Total       0.01364    -0.00597    -0.01085     0.01698     0.00693     0.01201
  in kB       0.35502    -0.15527    -0.28237     0.44190     0.18038     0.31247

 VOLUME and BASIS-vectors are now :
  energy-cutoff  :      300.00
  volume of cell :       61.57
      direct lattice vectors                 reciprocal lattice vectors
     4.432200126  0.000000000  0.000000000     0.225621581 -0.130262681 -0.092109625
     2.216100063  3.838397904 -0.000000000     0.000000000  0.260525361 -0.092109625
     2.216100063  1.279465968  3.618876249    -0.000000000  0.000000000  0.276328874

  length of vectors
     4.432200126  4.432200126  4.432200126     0.276328874  0.276328874  0.276328874

 FORCES acting on ions
    electron-ion (+dipol)            ewald-force                    non-local-force                 convergence-correction
   -.724E-08 0.183E-07 -.541E-07   0.119E-15 -.320E-16 -.288E-15   0.188E-08 -.497E-08 0.175E-07   0.567E-08 -.154E-07 0.401E-07
   -.707E-08 0.178E-07 -.530E-07   0.119E-15 -.320E-16 -.288E-15   0.188E-08 -.497E-08 0.175E-07   0.567E-08 -.154E-07 0.401E-07

 POSITION                                       TOTAL-FORCE (eV/Angst)
      0.00000      0.00000      0.00000         0.000000     -0.000000      0.000000
    total drift:                                0.000000     -0.000000      0.000000

  FREE ENERGIE OF THE ION-ELECTRON SYSTEM (eV)
  free  energy   TOTEN  =       -36.24537046 eV

  energy  without entropy=      -36.24537046  energy(sigma->0) =      -36.24537046

 writing wavefunctions