 vasp.5.4.4.18Apr17-6-g9f103f2a35 (build Nov 03 2018 10:20:46) complex

 executed on             LinuxIFC date 2018.12.15  08:02:08

 INCAR:
 POTCAR:    PAW Og, JanMewes Oct 18

 POTCAR:    PAW Og, JanMewes Oct 18
   VRHFIN =Og : 10d 2s 6p, PE

   TITEL  = PAW Og, JanMewes Oct 18
   POMASS =    0.010; ZVAL   =   18.000    mass and valenz
   ENMAX  =  339.336; ENMIN  =  254.502 eV
   QCUT   =   -4.994; QGAM   =    9.988    optimization parameters

  PAW Og, JanMewes Oct 18               :

 POSCAR: Og_FCC
  positions in direct lattice
  velocities in cartesian coordinates
 exchange correlation table for  LEXCH =        8
   RHO(1)=    0.500       N(1)  =     2000
   RHO(2)=  100.500       N(2)  =     4000

 ion  position               nearest neighbor table
   1  0.000  0.000  0.000-

IMPORTANT INFORMATION: All symmetrisations will be switched off!
NOSYMM: (Re-)initialisation of all symmetry stuff for point group C_1.

 KPOINTS: k-points

Automatic generation of k-mesh.
Space group operators:
 irot       det(A)        alpha          n_x          n_y          n_z        tau_x        tau_y        tau_z
    1     1.000000     0.000000     1.000000     0.000000     0.000000     0.000000     0.000000     0.000000

 Subroutine IBZKPT returns following result:

 Found    172 irreducible k-points:

 Following reciprocal coordinates:
            Coordinates               Weight
  0.000000  0.000000  0.000000      1.000000
  0.142857 -0.000000  0.000000      2.000000
  0.285714  0.000000  0.000000      2.000000
  0.428571  0.000000  0.000000      2.000000
  0.000000  0.142857  0.000000      2.000000
  0.142857  0.142857  0.000000      2.000000
  0.285714  0.142857  0.000000      2.000000
  0.428571  0.142857  0.000000      2.000000
 -0.428571  0.142857 -0.000000      2.000000
 -0.285714  0.142857 -0.000000      2.000000
 -0.142857  0.142857 -0.000000      2.000000
  0.000000  0.285714 -0.000000      2.000000
  0.142857  0.285714  0.000000      2.000000
  0.285714  0.285714  0.000000      2.000000
  0.428571  0.285714  0.000000      2.000000
 -0.428571  0.285714 -0.000000      2.000000
 -0.285714  0.285714  0.000000      2.000000
 -0.142857  0.285714  0.000000      2.000000
  0.000000  0.428571 -0.000000      2.000000
  0.142857  0.428571 -0.000000      2.000000
  0.285714  0.428571  0.000000      2.000000
  0.428571  0.428571 -0.000000      2.000000
 -0.428571  0.428571 -0.000000      2.000000
 -0.285714  0.428571 -0.000000      2.000000
 -0.142857  0.428571 -0.000000      2.000000
 -0.000000  0.000000  0.142857      2.000000
  0.142857 -0.000000  0.142857      2.000000
  0.285714 -0.000000  0.142857      2.000000
  0.428571 -0.000000  0.142857      2.000000
 -0.428571 -0.000000  0.142857      2.000000
 -0.285714 -0.000000  0.142857      2.000000
 -0.142857 -0.000000  0.142857      2.000000
 -0.000000  0.142857  0.142857      2.000000
  0.142857  0.142857  0.142857      2.000000
  0.285714  0.142857  0.142857      2.000000
  0.428571  0.142857  0.142857      2.000000
 -0.428571  0.142857  0.142857      2.000000
 -0.285714  0.142857  0.142857      2.000000
 -0.142857  0.142857  0.142857      2.000000
 -0.000000  0.285714  0.142857      2.000000
  0.142857  0.285714  0.142857      2.000000
  0.285714  0.285714  0.142857      2.000000
  0.428571  0.285714  0.142857      2.000000
 -0.428571  0.285714  0.142857      2.000000
 -0.285714  0.285714  0.142857      2.000000
 -0.142857  0.285714  0.142857      2.000000
 -0.000000  0.428571  0.142857      2.000000
  0.142857  0.428571  0.142857      2.000000
  0.285714  0.428571  0.142857      2.000000
  0.428571  0.428571  0.142857      2.000000
 -0.428571  0.428571  0.142857      2.000000
 -0.285714  0.428571  0.142857      2.000000
 -0.142857  0.428571  0.142857      2.000000
 -0.000000 -0.428571  0.142857      2.000000
  0.142857 -0.428571  0.142857      2.000000
  0.285714 -0.428571  0.142857      2.000000
  0.428571 -0.428571  0.142857      2.000000
 -0.428571 -0.428571  0.142857      2.000000
 -0.285714 -0.428571  0.142857      2.000000
 -0.142857 -0.428571  0.142857      2.000000
[...]
 -0.142857 -0.428571  0.428571      2.000000
 -0.000000 -0.285714  0.428571      2.000000
  0.142857 -0.285714  0.428571      2.000000
  0.285714 -0.285714  0.428571      2.000000
  0.428571 -0.285714  0.428571      2.000000
 -0.428571 -0.285714  0.428571      2.000000
 -0.285714 -0.285714  0.428571      2.000000
 -0.142857 -0.285714  0.428571      2.000000
  0.000000 -0.142857  0.428571      2.000000
  0.142857 -0.142857  0.428571      2.000000
  0.285714 -0.142857  0.428571      2.000000
  0.428571 -0.142857  0.428571      2.000000
 -0.428571 -0.142857  0.428571      2.000000
 -0.285714 -0.142857  0.428571      2.000000
 -0.142857 -0.142857  0.428571      2.000000

 Following cartesian coordinates:
            Coordinates               Weight
  0.000000  0.000000  0.000000      1.000000
  0.032899 -0.018994 -0.013431      2.000000
  0.065797 -0.037988 -0.026862      2.000000
  0.098696 -0.056982 -0.040292      2.000000
  0.000000  0.037988 -0.013431      2.000000
  0.032899  0.018994 -0.026862      2.000000
  0.065797  0.000000 -0.040292      2.000000
  0.098696 -0.018994 -0.053723      2.000000
 -0.098696  0.094970  0.026862      2.000000
 -0.065797  0.075976  0.013431      2.000000
 -0.032899  0.056982  0.000000      2.000000
  0.000000  0.075976 -0.026862      2.000000
  0.032899  0.056982 -0.040292      2.000000
  0.065797  0.037988 -0.053723      2.000000
  0.098696  0.018994 -0.067154      2.000000
 -0.098696  0.132958  0.013431      2.000000
 -0.065797  0.113964  0.000000      2.000000
 -0.032899  0.094970 -0.013431      2.000000
  0.000000  0.113964 -0.040292      2.000000
  0.032899  0.094970 -0.053723      2.000000
  0.065797  0.075976 -0.067154      2.000000
  0.098696  0.056982 -0.080585      2.000000
 -0.098696  0.170946  0.000000      2.000000
 -0.065797  0.151952 -0.013431      2.000000
 -0.032899  0.132958 -0.026862      2.000000
 -0.000000  0.000000  0.040292      2.000000
  0.032899 -0.018994  0.026862      2.000000
  0.065797 -0.037988  0.013431      2.000000
  0.098696 -0.056982  0.000000      2.000000
 -0.098696  0.056982  0.080585      2.000000
 -0.065797  0.037988  0.067154      2.000000
 -0.032899  0.018994  0.053723      2.000000
 -0.000000  0.037988  0.026862      2.000000
  0.032899  0.018994  0.013431      2.000000
  0.065797  0.000000  0.000000      2.000000
  0.098696 -0.018994 -0.013431      2.000000
 -0.098696  0.094970  0.067154      2.000000
 -0.065797  0.075976  0.053723      2.000000
 -0.032899  0.056982  0.040292      2.000000
 -0.000000  0.075976  0.013431      2.000000
  0.032899  0.056982  0.000000      2.000000
  0.065797  0.037988 -0.013431      2.000000
  0.098696  0.018994 -0.026862      2.000000
 -0.098696  0.132958  0.053723      2.000000
 -0.065797  0.113964  0.040292      2.000000
 -0.032899  0.094970  0.026862      2.000000
 -0.000000  0.113964  0.000000      2.000000
  0.032899  0.094970 -0.013431      2.000000
  0.065797  0.075976 -0.026862      2.000000
  0.098696  0.056982 -0.040292      2.000000
 -0.098696  0.170946  0.040292      2.000000
 -0.065797  0.151952  0.026862      2.000000
 -0.032899  0.132958  0.013431      2.000000
 -0.000000 -0.113964  0.080585      2.000000
  0.032899 -0.132958  0.067154      2.000000
  0.065797 -0.151952  0.053723      2.000000
  0.098696 -0.170946  0.040292      2.000000
 -0.098696 -0.056982  0.120877      2.000000
 -0.065797 -0.075976  0.107446      2.000000
 -0.032899 -0.094970  0.094016      2.000000
[...]
 -0.032899 -0.094970  0.174600      2.000000
 -0.000000 -0.075976  0.147739      2.000000
  0.032899 -0.094970  0.134308      2.000000
  0.065797 -0.113964  0.120877      2.000000
  0.098696 -0.132958  0.107446      2.000000
 -0.098696 -0.018994  0.188031      2.000000
 -0.065797 -0.037988  0.174600      2.000000
 -0.032899 -0.056982  0.161170      2.000000
 -0.000000 -0.037988  0.134308      2.000000
  0.032899 -0.056982  0.120877      2.000000
  0.065797 -0.075976  0.107446      2.000000
  0.098696 -0.094970  0.094016      2.000000
 -0.098696  0.018994  0.174600      2.000000
 -0.065797  0.000000  0.161170      2.000000
 -0.032899 -0.018994  0.147739      2.000000

 SYSTEM =  Og_FCC
 POSCAR =  Og_FCC

 Startparameter for this run:
   NWRITE =      2    write-flag & timer
   PREC   = accura    normal or accurate (medium, high low for compatibility)
   ISTART =      1    job   : 0-new  1-cont  2-samecut
   ICHARG =      0    charge: 1-file 2-atom 10-const
   ISPIN  =      1    spin polarized calculation?
   LNONCOLLINEAR =      F non collinear calculations
   LSORBIT =      F    spin-orbit coupling
   INIWAV =      1    electr: 0-lowe 1-rand  2-diag
   LASPH  =      F    aspherical Exc in radial PAW
   METAGGA=      F    non-selfconsistent MetaGGA calc.

 Electronic Relaxation 1
   ENCUT  =  300.0 eV  22.05 Ry    4.70 a.u.   6.21  6.21  6.21*2*pi/ulx,y,z
   ENINI  =  300.0     initial cutoff
   ENAUG  =  361.0 eV  augmentation charge cutoff
   NELM   =     50;   NELMIN=  2; NELMDL= -5     # of ELM steps
   EDIFF  = 0.1E-07   stopping-criterion for ELM
   LREAL  =      F    real-space projection
   NLSPLINE    = F    spline interpolate recip. space projectors
   LCOMPAT=      F    compatible to vasp.4.4
   GGA_COMPAT  = F    GGA compatible to vasp.4.4-vasp.4.6
   LMAXPAW     = -100 max onsite density
   LMAXMIX     =    2 max onsite mixed and CHGCAR
   VOSKOWN=      0    Vosko Wilk Nusair interpolation
   ROPT   =    0.00000
 Ionic relaxation
   EDIFFG = 0.1E-04   stopping-criterion for IOM
   NSW    =      1    number of steps for IOM
   NBLOCK =      1;   KBLOCK =      1    inner block; outer block
   IBRION =     -1    ionic relax: 0-MD 1-quasi-New 2-CG
   NFREE  =      5    steps in history (QN), initial steepest desc. (CG)
   ISIF   =      3    stress and relaxation
   IWAVPR =     10    prediction:  0-non 1-charg 2-wave 3-comb
   ISYM   =      0    0-nonsym 1-usesym 2-fastsym
   LCORR  =      T    Harris-Foulkes like correction to forces

   POTIM  = 0.1000    time-step for ionic-motion
   TEIN   =    0.0    initial temperature
   TEBEG  =    0.0;   TEEND  =   0.0 temperature during run
   SMASS  =  -3.00    Nose mass-parameter (am)
   estimated Nose-frequenzy (Omega)   =  0.10E-29 period in steps =****** mass=  -0.442E-27a.u.
   SCALEE = 1.0000    scale energy and forces
   NPACO  =    256;   APACO  = 16.0  distance and # of slots for P.C.
   PSTRESS=    0.0 pullay stress

  Mass of Ions in am
   POMASS =   0.01
  Ionic Valenz
   ZVAL   =  18.00
  Atomic Wigner-Seitz radii
  virtual crystal weights
   VCA    =   1.00
   NELECT =      18.0000    total number of electrons
   NUPDOWN=      -1.0000    fix difference up-down

 DOS related values:
   EMIN   =  10.00;   EMAX   =-10.00  energy-range for DOS
   EFERMI =   0.00
   ISMEAR =     0;   SIGMA  =   0.00  broadening in eV -4-tet -1-fermi 0-gaus

 Electronic relaxation 2 (details)
   IALGO  =     90    algorithm
   LDIAG  =      T    sub-space diagonalisation (order eigenvalues)
   LSUBROT=      F    optimize rotation matrix (better conditioning)
   TURBO    =      0    0=normal 1=particle mesh
[...]
   62.158633    0.821472    0.821472    0.821472   -0.000000   -0.000000    0.000000
   63.986828    0.791651    0.791651    0.791651   -0.000000   -0.000000    0.000000
   65.815023    0.851189    0.851188    0.851189   -0.000000   -0.000000    0.000000
   67.643218    0.866396    0.866396    0.866396   -0.000000   -0.000000    0.000000
   69.471413    0.846019    0.846019    0.846019   -0.000000   -0.000000    0.000000
   71.299608    0.865216    0.865216    0.865216   -0.000000   -0.000000    0.000000
   73.127803    0.857584    0.857584    0.857584   -0.000000   -0.000000    0.000000
   74.955998    0.863846    0.863846    0.863846   -0.000000   -0.000000    0.000000
   76.784193    0.871956    0.871956    0.871956   -0.000000   -0.000000    0.000000
   78.612388    0.873773    0.873773    0.873773   -0.000000   -0.000000    0.000000
   80.440583    0.885362    0.885362    0.885362   -0.000000   -0.000000    0.000000
   82.268779    0.893711    0.893711    0.893711   -0.000000   -0.000000    0.000000
   84.096974    0.894559    0.894558    0.894558   -0.000000   -0.000000    0.000000
   85.925169    0.909103    0.909103    0.909103   -0.000000   -0.000000    0.000000
   87.753364    0.903090    0.903090    0.903090   -0.000000   -0.000000    0.000000
   89.581559    0.910412    0.910412    0.910412   -0.000000   -0.000000    0.000000
   91.409754    0.912398    0.912398    0.912398   -0.000000   -0.000000    0.000000
   93.237949    0.921884    0.921884    0.921884   -0.000000   -0.000000    0.000000
   95.066144    0.916083    0.916083    0.916083   -0.000000   -0.000000    0.000000
   96.894339    0.925560    0.925560    0.925560   -0.000000   -0.000000    0.000000
   98.722534    0.927589    0.927589    0.927589   -0.000000   -0.000000    0.000000
  100.550729    0.929225    0.929224    0.929224   -0.000000   -0.000000    0.000000
  102.378924    0.935406    0.935406    0.935406   -0.000000   -0.000000    0.000000
  104.207120    0.936279    0.936279    0.936279   -0.000000   -0.000000    0.000000
  106.035315    0.937301    0.937301    0.937301   -0.000000   -0.000000    0.000000
  107.863510    0.940438    0.940438    0.940438   -0.000000   -0.000000    0.000000
[...]
  155.396582    0.973162    0.973162    0.973162    0.000001    0.000000   -0.000001
  157.224777    0.973963    0.973964    0.973963    0.000001    0.000000   -0.000001
  159.052972    0.974708    0.974708    0.974708    0.000000    0.000000   -0.000001
  160.881167    0.975407    0.975408    0.975408    0.000000    0.000000   -0.000000
  162.709362    0.976068    0.976069    0.976068    0.000000    0.000000   -0.000000
  164.537557    0.976696    0.976696    0.976696    0.000000    0.000000   -0.000000
  166.365752    0.977293    0.977293    0.977293    0.000000    0.000000   -0.000000
  168.193947    0.977863    0.977864    0.977863    0.000000    0.000000   -0.000000
  170.022142    0.978409    0.978409    0.978409    0.000000    0.000000   -0.000000
  171.850337    0.978931    0.978932    0.978932    0.000000    0.000000   -0.000000
  173.678533    0.979433    0.979433    0.979433    0.000000    0.000000   -0.000000
  175.506728    0.979914    0.979915    0.979915    0.000000    0.000000   -0.000000
  177.334923    0.980378    0.980378    0.980378    0.000000    0.000000   -0.000000
  179.163118    0.980823    0.980823    0.980823    0.000000    0.000000   -0.000000
  180.991313    0.981253    0.981253    0.981253    0.000000    0.000000   -0.000000

  frequency dependent IMAGINARY DIELECTRIC FUNCTION (independent particle, no local field effects) current-current (2nd set in vasprun.xml)
     E(ev)      X         Y         Z        XY        YZ        ZX
    0.000000    0.000000    0.000000    0.000000    0.000000    0.000000    0.000000
    1.828195    0.000000    0.000000    0.000000    0.000000    0.000000    0.000000
    3.656390    0.000000    0.000000    0.000000    0.000000    0.000000    0.000000
    5.484585    5.898370    5.898370    5.898370    0.000000    0.000000    0.000000
    7.312780    4.291653    4.291652    4.291652    0.000000    0.000000    0.000000
    9.140975    3.164403    3.164403    3.164403    0.000000   -0.000000   -0.000000
   10.969170    3.632973    3.632973    3.632973   -0.000000   -0.000000   -0.000000
   12.797366    0.344252    0.344252    0.344252    0.000000    0.000000    0.000000
   14.625561    0.779602    0.779602    0.779602    0.000000    0.000000    0.000000
   16.453756    0.850440    0.850440    0.850440    0.000000    0.000000    0.000000
   18.281951    0.936931    0.936931    0.936931   -0.000000   -0.000000   -0.000000
   20.110146    0.210105    0.210105    0.210105   -0.000000   -0.000000   -0.000000
   21.938341    0.125233    0.125233    0.125233   -0.000000   -0.000000   -0.000000
   23.766536    0.205100    0.205100    0.205100   -0.000000   -0.000000   -0.000000
   25.594731    0.028527    0.028527    0.028527   -0.000000   -0.000000   -0.000000
   27.422926    0.172400    0.172400    0.172400    0.000000    0.000000    0.000000
   29.251121    0.095301    0.095301    0.095301   -0.000000    0.000000   -0.000000
   31.079316    0.122918    0.122918    0.122918   -0.000000   -0.000000   -0.000000
   32.907511    0.089917    0.089917    0.089917    0.000000    0.000000    0.000000
   34.735707    0.110741    0.110741    0.110741    0.000000    0.000000    0.000000
   36.563902    0.028285    0.028285    0.028285   -0.000000   -0.000000   -0.000000
   38.392097    0.190514    0.190514    0.190514   -0.000000   -0.000000   -0.000000
   40.220292    0.128576    0.128576    0.128576   -0.000000   -0.000000   -0.000000
   42.048487    0.538823    0.538823    0.538823   -0.000000   -0.000000   -0.000000
   43.876682    0.235993    0.235993    0.235993    0.000000    0.000000    0.000000
   45.704877    0.530542    0.530544    0.530544   -0.000001   -0.000001   -0.000001
   47.533072    0.354689    0.354689    0.354689   -0.000000   -0.000000   -0.000000
   49.361267    0.173056    0.173056    0.173056    0.000000    0.000000    0.000000
   51.189462    0.197356    0.197356    0.197356    0.000000    0.000000    0.000000
   53.017657    0.305573    0.305573    0.305573    0.000000    0.000000    0.000000
   54.845852    0.506240    0.506241    0.506241   -0.000000   -0.000000   -0.000000
   56.674047    0.188074    0.188074    0.188074    0.000000    0.000000    0.000000
   58.502243    0.122417    0.122419    0.122419   -0.000001   -0.000000   -0.000001
   60.330438    0.187533    0.187533    0.187533    0.000000   -0.000000    0.000000
   62.158633    0.117781    0.117781    0.117781   -0.000000   -0.000000   -0.000000
   63.986828    0.077490    0.077490    0.077490    0.000000   -0.000000    0.000000
   65.815023    0.025519    0.025519    0.025519   -0.000000    0.000000   -0.000000
   67.643218    0.021337    0.021337    0.021337   -0.000000   -0.000000   -0.000000
   69.471413    0.062167    0.062167    0.062167   -0.000000   -0.000000   -0.000000
   71.299608    0.019892    0.019892    0.019892   -0.000000    0.000000    0.000000
   73.127803    0.041284    0.041284    0.041284   -0.000000   -0.000000   -0.000000
   74.955998    0.066997    0.066997    0.066997    0.000000    0.000000    0.000000
   76.784193    0.061447    0.061447    0.061447   -0.000000   -0.000000   -0.000000
   78.612388    0.033092    0.033092    0.033092   -0.000000    0.000000   -0.000000
   80.440583    0.018745    0.018745    0.018745    0.000000    0.000000    0.000000
   82.268779    0.035794    0.035794    0.035794   -0.000000   -0.000000   -0.000000
   84.096974    0.026379    0.026379    0.026379    0.000000    0.000000    0.000000
   85.925169    0.022393    0.022393    0.022393   -0.000000   -0.000000   -0.000000
   87.753364    0.032408    0.032408    0.032408    0.000000    0.000000   -0.000000
   89.581559    0.010832    0.010832    0.010832   -0.000000    0.000000    0.000000
   91.409754    0.027865    0.027865    0.027865    0.000000    0.000000    0.000000
   93.237949    0.019899    0.019899    0.019899    0.000000    0.000000    0.000000
   95.066144    0.013754    0.013754    0.013754   -0.000000   -0.000000   -0.000000
   96.894339    0.020137    0.020137    0.020137   -0.000000   -0.000000   -0.000000
   98.722534    0.009162    0.009162    0.009162   -0.000000   -0.000000    0.000000
  100.550729    0.005537    0.005537    0.005537   -0.000000   -0.000000   -0.000000
  102.378924    0.013675    0.013675    0.013675   -0.000000   -0.000000   -0.000000
  104.207120    0.007088    0.007088    0.007088    0.000000   -0.000000    0.000000
  106.035315    0.007855    0.007855    0.007855    0.000000    0.000000    0.000000
  107.863510    0.003268    0.003268    0.003268    0.000000   -0.000000    0.000000
[...]
  155.396582    0.000000    0.000000    0.000000    0.000000    0.000000    0.000000
  157.224777    0.000000    0.000000    0.000000    0.000000    0.000000    0.000000
  159.052972    0.000000    0.000000    0.000000    0.000000    0.000000    0.000000
  160.881167    0.000000    0.000000    0.000000    0.000000    0.000000    0.000000
  162.709362    0.000000    0.000000    0.000000    0.000000    0.000000    0.000000
  164.537557    0.000000    0.000000    0.000000    0.000000    0.000000    0.000000
  166.365752    0.000000    0.000000    0.000000    0.000000    0.000000    0.000000
  168.193947    0.000000    0.000000    0.000000    0.000000    0.000000    0.000000
  170.022142    0.000000    0.000000    0.000000    0.000000    0.000000    0.000000
  171.850337    0.000000    0.000000    0.000000    0.000000    0.000000    0.000000
  173.678533    0.000000    0.000000    0.000000    0.000000    0.000000    0.000000
  175.506728    0.000000    0.000000    0.000000    0.000000    0.000000    0.000000
  177.334923    0.000000    0.000000    0.000000    0.000000    0.000000    0.000000
  179.163118    0.000000    0.000000    0.000000    0.000000    0.000000    0.000000
  180.991313    0.000000    0.000000    0.000000    0.000000    0.000000    0.000000

  frequency dependent      REAL DIELECTRIC FUNCTION (independent particle, no local field effects) current-current (2nd set in vasprun.xml)
     E(ev)        X           Y           Z          XY          YZ          ZX
    0.000000    4.800205    4.800205    4.800205   -0.000000   -0.000000    0.000000
    1.828195    5.918682    5.918682    5.918664   -0.000000    0.000000    0.000000
    3.656390    5.560466    5.560466    5.560466   -0.000000    0.000000    0.000000
    5.484585    5.584394    5.584394    5.584394   -0.000000   -0.000000    0.000000
    7.312780    0.269989    0.269988    0.269988   -0.000000   -0.000000    0.000000
    9.140975    1.157929    1.157929    1.157930   -0.000000   -0.000000   -0.000000
   10.969170   -0.752760   -0.752761   -0.752761   -0.000000   -0.000000    0.000000
   12.797366   -0.628858   -0.628858   -0.628858   -0.000000   -0.000000    0.000000
   14.625561   -0.085822   -0.085822   -0.085822   -0.000000   -0.000000    0.000000
   16.453756    0.578250    0.578250    0.578250    0.000000    0.000000    0.000000
   18.281951    0.214889    0.214889    0.214889    0.000000    0.000000    0.000000
   20.110146    0.294473    0.294473    0.294473   -0.000000   -0.000000    0.000000
   21.938341    0.575779    0.575779    0.575779   -0.000000   -0.000000    0.000000
   23.766536    0.676291    0.676291    0.676291   -0.000000   -0.000000    0.000000
   25.594731    0.763219    0.763219    0.763219   -0.000000   -0.000000    0.000000
   27.422926    0.896227    0.896227    0.896227   -0.000000   -0.000000    0.000000
   29.251121    0.912503    0.912503    0.912503   -0.000000   -0.000000    0.000000
   31.079316    0.906411    0.906411    0.906411   -0.000000   -0.000000    0.000000
   32.907511    0.978699    0.978699    0.978699   -0.000000   -0.000000    0.000000
   34.735707    1.015552    1.015551    1.015551   -0.000000   -0.000000    0.000000
   36.563902    1.051687    1.051687    1.051687   -0.000000   -0.000000    0.000000
   38.392097    1.179721    1.179720    1.179720    0.000000    0.000000    0.000000
   40.220292    1.246212    1.246212    1.246212   -0.000000   -0.000000    0.000000
   42.048487    1.231854    1.231854    1.231854   -0.000000   -0.000000    0.000000
   43.876682    1.189639    1.189639    1.189639   -0.000000   -0.000000    0.000000
   45.704877    1.356477    1.356477    1.356477   -0.000000   -0.000000   -0.000000
   47.533072    0.660788    0.660788    0.660788   -0.000000   -0.000000    0.000000
   49.361267    0.777236    0.777236    0.777236   -0.000000   -0.000000    0.000000
   51.189462    0.849812    0.849812    0.849812   -0.000000   -0.000000    0.000000
   53.017657    0.664621    0.664621    0.664621   -0.000000   -0.000000    0.000000
   54.845852    0.697729    0.697729    0.697729   -0.000000   -0.000000    0.000000
   56.674047    0.802334    0.802334    0.802334   -0.000000   -0.000000    0.000000
   58.502243    0.821010    0.821009    0.821009    0.000000    0.000000    0.000000
   60.330438    0.684770    0.684770    0.684770   -0.000000   -0.000000    0.000000
   62.158633    0.821092    0.821092    0.821092   -0.000000   -0.000000    0.000000
   63.986828    0.791325    0.791325    0.791325   -0.000000   -0.000000    0.000000
   65.815023    0.851059    0.851059    0.851059   -0.000000   -0.000000    0.000000
   67.643218    0.866306    0.866306    0.866306   -0.000000   -0.000000    0.000000
   69.471413    0.845803    0.845803    0.845803   -0.000000   -0.000000    0.000000
   71.299608    0.865150    0.865150    0.865150   -0.000000   -0.000000    0.000000
   73.127803    0.857431    0.857431    0.857431   -0.000000   -0.000000    0.000000
   74.955998    0.863669    0.863669    0.863669   -0.000000   -0.000000    0.000000
   76.784193    0.871850    0.871850    0.871850   -0.000000   -0.000000    0.000000
   78.612388    0.873720    0.873720    0.873720   -0.000000   -0.000000    0.000000
   80.440583    0.885325    0.885325    0.885325   -0.000000   -0.000000    0.000000
   82.268779    0.893625    0.893625    0.893625   -0.000000   -0.000000    0.000000
   84.096974    0.894516    0.894516    0.894516   -0.000000   -0.000000    0.000000
   85.925169    0.909066    0.909066    0.909066   -0.000000   -0.000000    0.000000
   87.753364    0.903034    0.903034    0.903034   -0.000000   -0.000000    0.000000
   89.581559    0.910393    0.910393    0.910393   -0.000000   -0.000000    0.000000
   91.409754    0.912362    0.912362    0.912362   -0.000000   -0.000000    0.000000
   93.237949    0.921857    0.921857    0.921857   -0.000000   -0.000000    0.000000
   95.066144    0.916059    0.916059    0.916059   -0.000000   -0.000000    0.000000
   96.894339    0.925535    0.925535    0.925535   -0.000000   -0.000000    0.000000
   98.722534    0.927581    0.927581    0.927581   -0.000000   -0.000000    0.000000
  100.550729    0.929222    0.929222    0.929222   -0.000000   -0.000000    0.000000
  102.378924    0.935388    0.935388    0.935388   -0.000000   -0.000000    0.000000
  104.207120    0.936269    0.936269    0.936269   -0.000000   -0.000000    0.000000
  106.035315    0.937298    0.937297    0.937298   -0.000000   -0.000000    0.000000
  107.863510    0.940437    0.940437    0.940437   -0.000000   -0.000000    0.000000
[...]
  155.396582    0.973166    0.973167    0.973166    0.000001    0.000000   -0.000001
  157.224777    0.973967    0.973968    0.973968    0.000001    0.000000   -0.000001
  159.052972    0.974712    0.974713    0.974712    0.000000    0.000000   -0.000001
  160.881167    0.975411    0.975412    0.975412    0.000000    0.000000   -0.000000
  162.709362    0.976072    0.976073    0.976072    0.000000    0.000000   -0.000000
  164.537557    0.976700    0.976700    0.976700    0.000000    0.000000   -0.000000
  166.365752    0.977297    0.977297    0.977297    0.000000    0.000000   -0.000000
  168.193947    0.977867    0.977867    0.977867    0.000000    0.000000   -0.000000
  170.022142    0.978413    0.978413    0.978413    0.000000    0.000000   -0.000000
  171.850337    0.978935    0.978935    0.978935    0.000000    0.000000   -0.000000
  173.678533    0.979436    0.979436    0.979436    0.000000    0.000000   -0.000000
  175.506728    0.979918    0.979918    0.979918    0.000000    0.000000   -0.000000
  177.334923    0.980381    0.980381    0.980381    0.000000    0.000000   -0.000000
  179.163118    0.980827    0.980827    0.980827    0.000000    0.000000   -0.000000
  180.991313    0.981256    0.981256    0.981256    0.000000    0.000000   -0.000000

 The outermost node in the dielectric function lies at epsilon=  19.4